# Random KSG graph
n = 60
seed = 6
type = random_ksg

vertices: 2880
edges:
1 2
1 46
1 47
2 3
2 46
2 47
2 48
3 4
3 47
3 48
3 49
4 5
4 48
4 49
4 50
5 6
5 49
5 50
5 51
6 7
6 50
6 51
6 52
7 51
7 52
7 53
8 53
8 54
8 55
9 10
9 56
9 57
9 58
10 11
10 57
10 58
11 12
11 58
11 59
12 13
12 59
12 60
13 14
13 59
13 60
13 61
14 15
14 60
14 61
15 16
15 61
16 62
17 18
17 62
17 63
18 19
18 63
18 64
19 20
19 63
19 64
19 65
20 21
20 64
20 65
20 66
21 65
21 66
22 23
22 67
22 68
23 24
23 67
23 68
24 25
24 68
24 69
25 69
25 70
26 70
26 71
26 72
27 28
27 72
27 73
28 73
29 30
29 74
29 75
30 31
30 74
30 75
30 76
31 75
31 76
33 34
33 77
33 78
34 35
34 77
34 78
35 36
35 78
35 79
36 79
36 80
37 38
37 80
37 81
37 82
38 39
38 81
38 82
38 83
39 40
39 82
39 83
39 84
40 41
40 83
40 84
40 85
41 42
41 84
41 85
41 86
42 43
42 85
42 86
42 87
43 86
43 87
43 88
44 88
44 89
44 90
45 91
45 92
46 47
46 93
46 94
47 48
47 93
47 94
47 95
48 49
48 94
48 95
48 96
49 50
49 95
49 96
49 97
50 51
50 96
50 97
50 98
51 52
51 97
51 98
51 99
52 53
52 98
52 99
52 100
53 54
53 99
53 100
53 101
54 55
54 100
54 101
54 102
55 56
55 101
55 102
56 57
56 102
56 103
57 58
57 103
57 104
58 103
58 104
58 105
59 60
59 105
59 106
60 61
60 106
61 106
61 107
62 108
62 109
62 110
63 64
63 110
63 111
63 112
64 65
64 111
64 112
64 113
65 66
65 112
65 113
65 114
66 113
66 114
66 115
67 68
67 115
67 116
68 116
69 70
69 117
69 118
70 71
70 117
70 118
70 119
71 72
71 118
71 119
71 120
72 119
72 120
72 121
73 121
73 122
73 123
74 75
74 123
74 124
74 125
75 76
75 124
75 125
75 126
76 125
76 126
76 127
77 78
77 129
77 130
78 129
78 130
78 131
79 80
79 131
79 132
79 133
80 81
80 132
80 133
80 134
81 82
81 133
81 134
81 135
82 83
82 134
82 135
82 136
83 84
83 135
83 136
83 137
84 85
84 136
84 137
84 138
85 86
85 137
85 138
85 139
86 87
86 138
86 139
86 140
87 88
87 139
87 140
87 141
88 89
88 140
88 141
88 142
89 90
89 141
89 142
89 143
90 91
90 142
90 143
90 144
91 92
91 143
91 144
92 144
92 145
93 94
93 146
93 147
94 95
94 146
94 147
94 148
95 96
95 147
95 148
95 149
96 97
96 148
96 149
96 150
97 98
97 149
97 150
97 151
98 99
98 150
98 151
98 152
99 100
99 151
99 152
99 153
100 101
100 152
100 153
100 154
101 102
101 153
101 154
101 155
102 154
102 155
102 156
103 104
103 156
103 157
103 158
104 105
104 157
104 158
104 159
105 158
105 159
105 160
106 160
106 161
106 162
107 108
107 162
107 163
107 164
108 109
108 163
108 164
108 165
109 110
109 164
109 165
109 166
110 111
110 165
110 166
110 167
111 112
111 166
111 167
111 168
112 113
112 167
112 168
112 169
113 114
113 168
113 169
113 170
114 115
114 169
114 170
114 171
115 116
115 170
115 171
116 171
116 172
117 118
117 173
118 119
118 174
119 120
119 174
120 121
120 174
121 122
121 175
122 123
122 175
122 176
123 124
123 175
123 176
123 177
124 125
124 176
124 177
124 178
125 126
125 177
125 178
125 179
126 127
126 178
126 179
126 180
127 128
127 179
127 180
127 181
128 180
128 181
129 130
129 182
129 183
130 131
130 182
130 183
130 184
131 132
131 183
131 184
131 185
132 133
132 184
132 185
132 186
133 134
133 185
133 186
133 187
134 135
134 186
134 187
134 188
135 136
135 187
135 188
135 189
136 137
136 188
136 189
137 138
137 189
137 190
138 139
138 190
138 191
139 140
139 190
139 191
139 192
140 141
140 191
140 192
141 142
141 192
142 143
142 193
143 144
143 193
143 194
144 193
144 194
144 195
145 195
145 196
146 147
146 197
146 198
147 148
147 197
147 198
147 199
148 149
148 198
148 199
148 200
149 150
149 199
149 200
150 151
150 200
150 201
151 152
151 201
151 202
152 153
152 201
152 202
152 203
153 154
153 202
153 203
153 204
154 155
154 203
154 204
154 205
155 156
155 204
155 205
155 206
156 157
156 205
156 206
156 207
157 158
157 206
157 207
157 208
158 159
158 207
158 208
158 209
159 160
159 208
159 209
160 161
160 209
160 210
161 162
161 210
162 163
162 210
162 211
163 164
163 211
164 165
164 211
165 166
165 212
166 167
166 212
166 213
167 168
167 212
167 213
167 214
168 169
168 213
168 214
168 215
169 170
169 214
169 215
169 216
170 171
170 215
170 216
170 217
171 216
171 217
171 218
172 173
172 218
172 219
173 219
173 220
174 221
175 176
175 222
176 177
176 222
176 223
177 178
177 222
177 223
177 224
178 179
178 223
178 224
178 225
179 180
179 224
179 225
179 226
180 181
180 225
180 226
180 227
181 226
181 227
181 228
182 183
182 228
182 229
182 230
183 184
183 229
183 230
183 231
184 185
184 230
184 231
184 232
185 186
185 231
185 232
185 233
186 187
186 232
186 233
186 234
187 188
187 233
187 234
187 235
188 189
188 234
188 235
188 236
189 235
189 236
189 237
190 191
190 237
190 238
191 192
191 238
191 239
192 239
192 240
193 194
193 241
193 242
194 195
194 241
194 242
194 243
195 196
195 242
195 243
195 244
196 243
196 244
197 198
197 245
197 246
198 199
198 245
198 246
198 247
199 200
199 246
199 247
200 247
200 248
201 202
201 248
201 249
202 203
202 249
202 250
203 204
203 249
203 250
203 251
204 205
204 250
204 251
204 252
205 206
205 251
205 252
206 207
206 252
206 253
207 208
207 253
207 254
208 209
208 253
208 254
208 255
209 254
209 255
209 256
210 256
210 257
210 258
211 258
211 259
211 260
212 213
212 261
212 262
212 263
213 214
213 262
213 263
213 264
214 215
214 263
214 264
214 265
215 216
215 264
215 265
216 217
216 265
216 266
217 218
217 266
217 267
218 219
218 266
218 267
218 268
219 267
219 268
219 269
220 269
220 270
220 271
221 271
221 272
222 223
222 273
222 274
222 275
223 224
223 274
223 275
223 276
224 225
224 275
224 276
225 226
225 276
225 277
226 227
226 277
226 278
227 228
227 277
227 278
228 229
228 278
228 279
229 230
229 279
229 280
230 231
230 279
230 280
230 281
231 232
231 280
231 281
232 233
232 281
233 234
234 235
234 282
235 236
235 282
235 283
236 237
236 282
236 283
236 284
237 238
237 283
237 284
237 285
238 284
238 285
238 286
239 240
239 286
239 287
240 287
240 288
241 242
241 288
241 289
242 243
242 289
242 290
243 244
243 289
243 290
243 291
244 290
244 291
245 246
245 292
245 293
246 247
246 292
246 293
246 294
247 293
247 294
248 295
248 296
249 250
249 296
249 297
250 251
250 297
250 298
251 252
251 298
251 299
252 298
252 299
252 300
253 254
253 300
254 255
254 301
255 256
255 301
255 302
256 257
256 301
256 302
256 303
257 258
257 302
257 303
258 259
258 303
258 304
259 260
259 304
259 305
260 261
260 304
260 305
260 306
261 262
261 305
261 306
262 263
262 306
262 307
263 264
263 307
264 265
264 307
264 308
265 308
265 309
266 267
266 309
266 310
266 311
267 268
267 310
267 311
267 312
268 269
268 311
268 312
268 313
269 270
269 312
269 313
270 271
270 313
271 272
271 314
272 314
272 315
273 274
273 316
273 317
273 318
274 275
274 317
274 318
274 319
275 276
275 318
275 319
276 319
276 320
277 278
277 320
277 321
277 322
278 321
278 322
279 280
279 323
279 324
280 281
280 323
280 324
280 325
281 324
281 325
281 326
282 283
282 328
282 329
282 330
283 284
283 329
283 330
283 331
284 285
284 330
284 331
284 332
285 286
285 331
285 332
285 333
286 287
286 332
286 333
286 334
287 333
287 334
287 335
288 335
288 336
289 290
289 336
289 337
290 291
290 337
290 338
291 338
292 293
292 339
292 340
293 294
293 339
293 340
293 341
294 340
294 341
294 342
295 296
295 342
295 343
296 297
296 343
296 344
297 344
297 345
298 299
298 345
298 346
298 347
299 300
299 346
299 347
299 348
300 347
300 348
300 349
301 302
301 350
301 351
302 303
302 351
303 352
304 305
304 352
304 353
304 354
305 306
305 353
305 354
305 355
306 354
306 355
306 356
307 356
307 357
308 309
308 358
309 310
309 358
309 359
310 311
310 358
310 359
311 312
311 359
312 313
313 360
314 315
314 361
315 316
315 362
316 317
316 362
316 363
317 318
317 362
317 363
317 364
318 319
318 363
318 364
318 365
319 364
319 365
319 366
320 321
320 366
320 367
321 322
321 367
321 368
322 368
322 369
323 324
323 369
323 370
324 325
324 370
325 326
325 371
326 327
326 371
327 328
327 371
327 372
328 329
328 372
328 373
329 330
329 372
329 373
329 374
330 331
330 373
330 374
330 375
331 332
331 374
331 375
331 376
332 333
332 375
332 376
332 377
333 334
333 376
333 377
333 378
334 335
334 377
334 378
334 379
335 378
335 379
335 380
336 337
336 380
337 381
338 381
338 382
339 340
339 383
339 384
340 341
340 383
340 384
340 385
341 342
341 384
341 385
341 386
342 343
342 385
342 386
342 387
343 386
343 387
343 388
344 345
344 388
345 346
345 389
346 347
346 389
346 390
347 348
347 389
347 390
347 391
348 349
348 390
348 391
348 392
349 350
349 391
349 392
349 393
350 351
350 392
350 393
350 394
351 393
351 394
351 395
352 353
352 396
352 397
352 398
353 354
353 397
353 398
353 399
354 355
354 398
354 399
354 400
355 356
355 399
355 400
355 401
356 357
356 400
356 401
356 402
357 401
357 402
357 403
358 359
358 404
358 405
359 405
360 361
360 407
360 408
361 408
362 363
362 409
362 410
363 364
363 410
364 365
364 411
365 366
365 411
365 412
366 367
366 411
366 412
367 412
367 413
368 369
368 413
368 414
369 370
369 414
369 415
370 415
370 416
371 417
372 373
372 418
372 419
373 374
373 418
373 419
374 375
374 419
375 376
375 420
376 377
376 420
376 421
377 378
377 420
377 421
378 379
378 421
378 422
379 380
379 422
379 423
380 422
380 423
380 424
381 382
381 425
381 426
382 426
383 384
383 427
384 385
384 427
384 428
385 386
385 428
386 387
386 428
386 429
387 388
387 429
388 429
388 430
389 390
389 431
389 432
389 433
390 391
390 432
390 433
391 392
391 433
392 393
392 434
393 394
393 434
393 435
394 395
394 434
394 435
394 436
395 396
395 435
395 436
395 437
396 397
396 436
396 437
396 438
397 398
397 437
397 438
397 439
398 399
398 438
398 439
398 440
399 400
399 439
399 440
399 441
400 401
400 440
400 441
400 442
401 402
401 441
401 442
401 443
402 403
402 442
402 443
402 444
403 404
403 443
403 444
403 445
404 444
404 445
404 446
405 446
405 447
405 448
406 407
406 448
406 449
406 450
407 449
407 450
407 451
408 451
408 452
408 453
409 410
409 453
409 454
409 455
410 454
410 455
410 456
411 412
411 457
412 457
412 458
413 414
413 458
413 459
413 460
414 459
414 460
414 461
415 416
415 461
415 462
416 417
416 462
416 463
417 462
417 463
418 419
418 464
418 465
418 466
419 465
419 466
419 467
420 421
420 468
421 468
421 469
422 423
422 469
422 470
423 424
423 470
423 471
424 425
424 471
424 472
425 471
425 472
425 473
426 473
426 474
427 475
427 476
428 476
428 477
428 478
429 478
429 479
429 480
430 431
430 480
430 481
430 482
431 432
431 481
431 482
431 483
432 433
432 482
432 483
432 484
433 483
433 484
433 485
434 435
434 486
435 436
435 487
436 437
436 487
437 438
437 487
437 488
438 439
438 488
439 440
439 488
439 489
440 441
440 489
440 490
441 442
441 489
441 490
441 491
442 443
442 490
442 491
442 492
443 444
443 491
443 492
444 445
444 492
444 493
445 446
445 493
445 494
446 447
446 493
446 494
447 448
447 494
447 495
448 449
448 495
448 496
449 450
449 495
449 496
449 497
450 451
450 496
450 497
450 498
451 452
451 497
451 498
451 499
452 453
452 498
452 499
453 454
453 499
454 455
454 500
455 456
455 500
455 501
456 500
456 501
456 502
457 502
457 503
457 504
458 459
458 504
459 460
459 505
460 461
460 505
460 506
461 505
461 506
461 507
462 463
462 507
462 508
462 509
463 508
463 509
464 465
464 510
464 511
465 466
465 510
465 511
465 512
466 467
466 511
466 512
466 513
467 512
467 513
467 514
468 469
468 515
468 516
469 470
469 515
469 516
469 517
470 516
470 517
470 518
471 472
471 518
471 519
472 473
472 519
472 520
473 474
473 519
473 520
473 521
474 520
474 521
475 476
475 522
475 523
476 477
476 522
476 523
476 524
477 478
477 523
477 524
478 479
478 524
478 525
479 480
479 525
479 526
480 481
480 525
480 526
480 527
481 482
481 526
481 527
482 483
482 527
482 528
483 484
483 528
483 529
484 485
484 528
484 529
484 530
485 486
485 529
485 530
485 531
486 530
486 531
486 532
487 533
487 534
487 535
488 535
488 536
489 490
489 537
490 491
490 537
491 492
491 537
491 538
492 538
492 539
493 494
493 539
493 540
493 541
494 540
494 541
495 496
495 542
496 497
496 542
496 543
497 498
497 543
497 544
498 499
498 543
498 544
498 545
499 544
499 545
499 546
500 501
500 547
500 548
500 549
501 502
501 548
501 549
501 550
502 503
502 549
502 550
502 551
503 504
503 550
503 551
503 552
504 551
504 552
504 553
505 506
505 554
505 555
506 507
506 555
506 556
507 508
507 555
507 556
507 557
508 509
508 556
508 557
508 558
509 557
509 558
509 559
510 511
510 559
510 560
510 561
511 512
511 560
511 561
511 562
512 513
512 561
512 562
512 563
513 514
513 562
513 563
513 564
514 563
514 564
515 516
515 565
516 517
516 565
516 566
517 518
517 565
517 566
517 567
518 566
518 567
519 520
519 568
519 569
520 521
520 568
520 569
521 569
522 523
522 570
523 524
523 570
523 571
524 570
524 571
524 572
525 526
525 572
525 573
525 574
526 527
526 573
526 574
526 575
527 574
527 575
527 576
528 529
528 576
528 577
528 578
529 530
529 577
529 578
529 579
530 531
530 578
530 579
530 580
531 532
531 579
531 580
531 581
532 533
532 580
532 581
532 582
533 534
533 581
533 582
533 583
534 535
534 582
534 583
535 536
535 583
535 584
536 584
537 585
537 586
537 587
538 539
538 587
538 588
538 589
539 540
539 588
539 589
539 590
540 541
540 589
540 590
540 591
541 590
541 591
541 592
542 592
542 593
542 594
543 544
543 594
543 595
543 596
544 545
544 595
544 596
544 597
545 546
545 596
545 597
545 598
546 547
546 597
546 598
547 548
547 598
547 599
548 549
548 599
548 600
549 550
549 599
549 600
549 601
550 551
550 600
550 601
550 602
551 552
551 601
551 602
551 603
552 553
552 602
552 603
553 554
553 603
553 604
554 604
554 605
555 556
555 605
555 606
555 607
556 557
556 606
556 607
556 608
557 558
557 607
557 608
557 609
558 559
558 608
558 609
559 560
559 609
560 561
560 610
561 562
561 610
561 611
562 563
562 610
562 611
562 612
563 564
563 611
563 612
563 613
564 612
564 613
564 614
565 566
565 615
565 616
565 617
566 567
566 616
566 617
566 618
567 617
567 618
568 569
568 619
569 619
569 620
570 571
570 621
570 622
570 623
571 572
571 622
571 623
571 624
572 573
572 623
572 624
572 625
573 574
573 624
573 625
573 626
574 575
574 625
574 626
574 627
575 576
575 626
575 627
575 628
576 577
576 627
576 628
577 578
577 628
577 629
578 579
578 629
578 630
579 580
579 629
579 630
579 631
580 581
580 630
580 631
580 632
581 582
581 631
581 632
581 633
582 583
582 632
582 633
582 634
583 633
583 634
583 635
584 635
584 636
584 637
585 586
585 637
586 587
587 588
588 589
588 638
589 590
589 638
589 639
590 591
590 638
590 639
590 640
591 592
591 639
591 640
591 641
592 593
592 640
592 641
592 642
593 594
593 641
593 642
593 643
594 595
594 642
594 643
594 644
595 596
595 643
595 644
596 597
596 644
596 645
597 598
597 645
597 646
598 645
598 646
598 647
599 600
599 647
599 648
599 649
600 601
600 648
600 649
600 650
601 602
601 649
601 650
601 651
602 603
602 650
602 651
602 652
603 651
603 652
603 653
604 605
604 653
604 654
605 606
605 654
605 655
606 607
606 655
606 656
607 608
607 655
607 656
608 609
608 656
608 657
609 657
609 658
610 611
610 659
610 660
610 661
611 612
611 660
611 661
611 662
612 613
612 661
612 662
612 663
613 614
613 662
613 663
613 664
614 615
614 663
614 664
615 616
615 664
615 665
616 617
616 665
616 666
617 618
617 665
617 666
617 667
618 666
618 667
618 668
619 668
619 669
619 670
620 670
620 671
621 622
621 672
622 623
622 672
622 673
623 624
623 673
623 674
624 625
624 673
624 674
624 675
625 626
625 674
625 675
625 676
626 627
626 675
626 676
626 677
627 628
627 676
627 677
627 678
628 677
628 678
629 630
629 679
630 631
630 679
630 680
631 632
631 679
631 680
631 681
632 633
632 680
632 681
632 682
633 634
633 681
633 682
634 635
634 682
635 636
636 637
637 683
638 639
638 686
638 687
638 688
639 640
639 687
639 688
639 689
640 641
640 688
640 689
640 690
641 642
641 689
641 690
642 643
642 690
642 691
643 644
643 691
643 692
644 691
644 692
644 693
645 646
645 693
645 694
646 647
646 694
646 695
647 648
647 695
647 696
648 649
648 695
648 696
649 650
649 696
649 697
650 651
650 697
650 698
651 652
651 697
651 698
651 699
652 653
652 698
652 699
652 700
653 654
653 699
653 700
654 700
654 701
655 656
655 701
655 702
655 703
656 702
656 703
656 704
657 658
657 704
657 705
657 706
658 659
658 705
658 706
658 707
659 660
659 706
659 707
659 708
660 661
660 707
660 708
660 709
661 662
661 708
661 709
661 710
662 663
662 709
662 710
662 711
663 664
663 710
663 711
663 712
664 711
664 712
664 713
665 666
665 713
665 714
666 667
666 714
666 715
667 668
667 714
667 715
667 716
668 669
668 715
668 716
668 717
669 670
669 716
669 717
669 718
670 671
670 717
670 718
670 719
671 718
671 719
672 720
672 721
673 674
673 721
673 722
673 723
674 675
674 722
674 723
674 724
675 676
675 723
675 724
676 677
676 724
676 725
677 678
677 725
677 726
678 725
678 726
679 680
679 727
679 728
680 681
680 728
680 729
681 682
681 729
682 729
682 730
683 684
683 733
683 734
684 685
684 734
684 735
685 686
685 735
686 687
686 735
686 736
687 688
687 736
687 737
688 689
688 736
688 737
688 738
689 690
689 737
689 738
690 738
690 739
691 692
691 739
691 740
691 741
692 693
692 740
692 741
692 742
693 694
693 741
693 742
693 743
694 742
694 743
694 744
695 696
695 744
695 745
695 746
696 745
696 746
696 747
697 698
697 747
697 748
698 699
698 748
698 749
699 700
699 748
699 749
699 750
700 749
700 750
701 702
701 751
701 752
702 703
702 751
702 752
702 753
703 704
703 752
703 753
703 754
704 705
704 753
704 754
704 755
705 706
705 754
705 755
706 707
706 755
706 756
707 708
707 756
708 709
708 756
708 757
709 710
709 757
709 758
710 711
710 757
710 758
711 712
711 758
711 759
712 713
712 759
713 759
714 715
714 760
715 716
715 760
715 761
716 717
716 761
716 762
717 718
717 761
717 762
718 719
718 762
720 721
720 763
720 764
721 722
721 763
721 764
722 723
722 764
722 765
723 724
723 765
724 765
724 766
725 726
725 766
725 767
726 767
726 768
727 728
727 768
727 769
727 770
728 769
728 770
728 771
729 771
729 772
730 731
730 772
730 773
730 774
731 732
731 773
731 774
731 775
732 733
732 774
732 775
733 734
733 775
733 776
734 776
735 777
736 737
736 778
736 779
737 738
737 778
737 779
738 779
738 780
739 740
739 780
739 781
740 741
740 781
740 782
741 742
741 782
741 783
742 743
742 782
742 783
742 784
743 744
743 783
743 784
744 745
744 784
744 785
745 746
745 785
745 786
746 747
746 785
746 786
746 787
747 786
747 787
747 788
748 749
748 788
748 789
748 790
749 750
749 789
749 790
749 791
750 790
750 791
750 792
751 752
751 792
751 793
751 794
752 753
752 793
752 794
752 795
753 754
753 794
753 795
753 796
754 755
754 795
754 796
755 796
755 797
756 797
756 798
757 758
757 798
757 799
757 800
758 799
758 800
759 801
760 802
760 803
760 804
761 762
761 804
761 805
762 805
762 806
763 764
763 807
764 807
764 808
765 808
765 809
765 810
766 767
766 810
766 811
766 812
767 811
767 812
767 813
768 769
768 813
768 814
769 770
769 814
770 771
770 815
771 815
771 816
772 773
772 816
772 817
772 818
773 774
773 817
773 818
774 775
774 818
774 819
775 819
775 820
776 820
776 821
776 822
777 822
777 823
777 824
778 779
778 824
778 825
778 826
779 825
779 826
780 781
780 827
781 827
781 828
782 783
782 828
782 829
782 830
783 784
783 829
783 830
784 830
784 831
785 786
785 831
785 832
786 787
786 832
786 833
787 788
787 832
787 833
787 834
788 789
788 833
788 834
789 790
789 834
789 835
790 791
790 835
790 836
791 792
791 835
791 836
791 837
792 793
792 836
792 837
792 838
793 794
793 837
793 838
793 839
794 795
794 838
794 839
794 840
795 796
795 839
795 840
795 841
796 840
796 841
796 842
797 842
797 843
797 844
798 799
798 844
799 800
799 845
800 845
800 846
801 846
801 847
801 848
802 803
802 848
802 849
802 850
803 804
803 849
803 850
804 850
805 806
805 851
805 852
806 851
806 852
806 853
807 854
807 855
808 809
808 855
808 856
808 857
809 810
809 856
809 857
809 858
810 811
810 857
810 858
810 859
811 812
811 858
811 859
811 860
812 813
812 859
812 860
813 814
813 860
813 861
814 861
814 862
815 816
815 863
815 864
816 817
816 864
816 865
817 818
817 864
817 865
817 866
818 865
818 866
818 867
819 820
819 867
819 868
820 821
820 868
821 822
821 868
821 869
822 823
822 869
822 870
823 824
823 869
823 870
823 871
824 825
824 870
824 871
824 872
825 826
825 871
825 872
825 873
826 872
826 873
826 874
827 828
827 875
827 876
827 877
828 829
828 876
828 877
829 830
829 877
829 878
830 878
830 879
831 879
831 880
831 881
832 833
832 881
832 882
832 883
833 834
833 882
833 883
833 884
834 883
834 884
834 885
835 836
835 885
835 886
835 887
836 837
836 886
836 887
836 888
837 838
837 887
837 888
837 889
838 839
838 888
838 889
838 890
839 840
839 889
839 890
839 891
840 841
840 890
840 891
840 892
841 842
841 891
841 892
841 893
842 843
842 892
842 893
842 894
843 844
843 893
843 894
844 894
844 895
845 846
845 896
845 897
845 898
846 847
846 897
846 898
847 848
847 898
847 899
848 849
848 899
848 900
849 850
849 899
849 900
849 901
850 900
850 901
850 902
851 852
851 903
851 904
851 905
852 853
852 904
852 905
852 906
853 905
853 906
854 855
854 907
854 908
855 856
855 907
855 908
855 909
856 857
856 908
856 909
856 910
857 858
857 909
857 910
857 911
858 859
858 910
858 911
858 912
859 860
859 911
859 912
859 913
860 912
860 913
860 914
861 862
861 914
861 915
862 863
862 915
862 916
863 915
863 916
863 917
864 865
864 917
864 918
865 866
865 918
865 919
866 867
866 919
866 920
867 919
867 920
867 921
868 921
868 922
868 923
869 870
869 923
870 871
871 872
871 924
872 873
872 924
873 874
873 924
874 875
874 925
875 876
875 925
875 926
876 877
876 925
876 926
876 927
877 926
877 927
878 879
878 928
879 880
879 928
879 929
880 881
880 928
880 929
880 930
881 882
881 929
881 930
881 931
882 883
882 930
882 931
882 932
883 884
883 931
883 932
883 933
884 885
884 932
884 933
884 934
885 886
885 933
885 934
885 935
886 887
886 934
886 935
886 936
887 888
887 935
887 936
888 889
888 936
888 937
889 890
889 937
889 938
890 891
890 937
890 938
890 939
891 892
891 938
891 939
891 940
892 893
892 939
892 940
892 941
893 894
893 940
893 941
894 941
894 942
895 896
895 942
895 943
896 897
896 943
896 944
897 898
897 944
897 945
898 944
898 945
898 946
899 900
899 946
900 901
900 947
901 902
901 947
901 948
902 903
902 947
902 948
902 949
903 904
903 948
903 949
903 950
904 905
904 949
904 950
904 951
905 906
905 950
905 951
905 952
906 951
906 952
907 908
907 953
908 909
908 953
908 954
909 910
909 954
909 955
910 911
910 954
910 955
910 956
911 912
911 955
911 956
911 957
912 913
912 956
912 957
912 958
913 914
913 957
913 958
913 959
914 958
914 959
914 960
915 916
915 960
915 961
916 917
916 961
916 962
917 918
917 961
917 962
917 963
918 962
918 963
919 920
919 964
919 965
920 921
920 964
920 965
920 966
921 922
921 965
921 966
922 923
922 966
922 967
923 967
923 968
924 970
924 971
924 972
925 926
925 973
925 974
925 975
926 927
926 974
926 975
926 976
927 975
927 976
927 977
928 929
928 978
928 979
928 980
929 930
929 979
929 980
929 981
930 931
930 980
930 981
930 982
931 932
931 981
931 982
931 983
932 933
932 982
932 983
932 984
933 934
933 983
933 984
934 935
934 984
934 985
935 936
935 985
935 986
936 985
936 986
936 987
937 938
937 987
937 988
937 989
938 939
938 988
938 989
939 940
939 989
939 990
940 941
940 990
940 991
941 990
941 991
942 943
942 992
942 993
943 992
943 993
943 994
944 945
944 994
944 995
945 946
945 995
945 996
946 995
946 996
946 997
947 948
947 998
947 999
947 1000
948 949
948 999
948 1000
949 950
949 1000
949 1001
950 951
950 1001
950 1002
951 952
951 1001
951 1002
951 1003
952 1002
952 1003
953 1004
954 955
954 1005
954 1006
955 956
955 1005
955 1006
955 1007
956 957
956 1006
956 1007
956 1008
957 958
957 1007
957 1008
957 1009
958 959
958 1008
958 1009
959 960
959 1009
959 1010
960 1010
960 1011
961 962
961 1011
961 1012
961 1013
962 963
962 1012
962 1013
963 1013
963 1014
964 965
964 1014
964 1015
964 1016
965 966
965 1015
965 1016
965 1017
966 1016
966 1017
966 1018
967 968
967 1018
967 1019
967 1020
968 969
968 1019
968 1020
968 1021
969 970
969 1020
969 1021
969 1022
970 971
970 1021
970 1022
971 972
971 1022
971 1023
972 973
972 1023
972 1024
973 974
973 1023
973 1024
973 1025
974 975
974 1024
974 1025
974 1026
975 976
975 1025
975 1026
975 1027
976 977
976 1026
976 1027
976 1028
977 978
977 1027
977 1028
977 1029
978 979
978 1028
978 1029
979 980
979 1029
979 1030
980 981
980 1030
981 982
981 1030
981 1031
982 983
982 1031
982 1032
983 984
983 1031
983 1032
983 1033
984 1032
984 1033
984 1034
985 986
985 1034
985 1035
986 987
986 1035
986 1036
987 988
987 1036
987 1037
988 989
988 1036
988 1037
988 1038
989 1037
989 1038
989 1039
990 991
990 1039
990 1040
991 1040
991 1041
992 993
992 1041
992 1042
992 1043
993 994
993 1042
993 1043
993 1044
994 1043
994 1044
995 996
995 1045
995 1046
996 997
996 1045
996 1046
996 1047
997 998
997 1046
997 1047
997 1048
998 999
998 1047
998 1048
998 1049
999 1000
999 1048
999 1049
1000 1049
1000 1050
1001 1002
1001 1050
1001 1051
1001 1052
1002 1003
1002 1051
1002 1052
1002 1053
1003 1052
1003 1053
1004 1054
1004 1055
1005 1006
1005 1055
1005 1056
1005 1057
1006 1007
1006 1056
1006 1057
1006 1058
1007 1008
1007 1057
1007 1058
1008 1009
1008 1058
1008 1059
1009 1059
1009 1060
1010 1011
1010 1060
1010 1061
1010 1062
1011 1012
1011 1061
1011 1062
1011 1063
1012 1013
1012 1062
1012 1063
1013 1063
1013 1064
1014 1015
1014 1064
1014 1065
1014 1066
1015 1016
1015 1065
1015 1066
1015 1067
1016 1017
1016 1066
1016 1067
1016 1068
1017 1018
1017 1067
1017 1068
1017 1069
1018 1019
1018 1068
1018 1069
1018 1070
1019 1020
1019 1069
1019 1070
1019 1071
1020 1021
1020 1070
1020 1071
1021 1022
1021 1071
1021 1072
1022 1072
1023 1024
1023 1073
1023 1074
1024 1025
1024 1073
1024 1074
1025 1026
1025 1074
1025 1075
1026 1027
1026 1075
1026 1076
1027 1028
1027 1075
1027 1076
1027 1077
1028 1029
1028 1076
1028 1077
1028 1078
1029 1077
1029 1078
1030 1079
1031 1032
1031 1079
1031 1080
1032 1033
1032 1080
1032 1081
1033 1034
1033 1081
1033 1082
1034 1035
1034 1081
1034 1082
1034 1083
1035 1082
1035 1083
1035 1084
1036 1037
1036 1084
1036 1085
1037 1038
1037 1085
1037 1086
1038 1039
1038 1085
1038 1086
1038 1087
1039 1086
1039 1087
1039 1088
1040 1041
1040 1088
1040 1089
1040 1090
1041 1042
1041 1089
1041 1090
1041 1091
1042 1043
1042 1090
1042 1091
1042 1092
1043 1044
1043 1091
1043 1092
1043 1093
1044 1092
1044 1093
1044 1094
1045 1046
1045 1094
1045 1095
1045 1096
1046 1047
1046 1095
1046 1096
1046 1097
1047 1048
1047 1096
1047 1097
1047 1098
1048 1049
1048 1097
1048 1098
1048 1099
1049 1098
1049 1099
1050 1051
1050 1100
1050 1101
1051 1052
1051 1100
1051 1101
1052 1053
1052 1101
1052 1102
1053 1102
1054 1055
1054 1103
1055 1056
1055 1103
1055 1104
1056 1057
1056 1103
1056 1104
1056 1105
1057 1058
1057 1104
1057 1105
1057 1106
1058 1105
1058 1106
1058 1107
1059 1060
1059 1107
1060 1061
1060 1108
1061 1062
1061 1108
1061 1109
1062 1063
1062 1108
1062 1109
1062 1110
1063 1109
1063 1110
1063 1111
1064 1065
1064 1111
1064 1112
1064 1113
1065 1066
1065 1112
1065 1113
1065 1114
1066 1067
1066 1113
1066 1114
1066 1115
1067 1068
1067 1114
1067 1115
1067 1116
1068 1069
1068 1115
1068 1116
1068 1117
1069 1070
1069 1116
1069 1117
1069 1118
1070 1071
1070 1117
1070 1118
1070 1119
1071 1118
1071 1119
1072 1120
1072 1121
1073 1074
1073 1121
1073 1122
1074 1122
1074 1123
1075 1076
1075 1123
1075 1124
1075 1125
1076 1077
1076 1124
1076 1125
1077 1078
1077 1125
1077 1126
1078 1126
1078 1127
1079 1080
1079 1128
1079 1129
1079 1130
1080 1129
1080 1130
1080 1131
1081 1082
1081 1131
1081 1132
1081 1133
1082 1083
1082 1132
1082 1133
1082 1134
1083 1084
1083 1133
1083 1134
1083 1135
1084 1134
1084 1135
1084 1136
1085 1086
1085 1136
1085 1137
1086 1087
1086 1137
1086 1138
1087 1088
1087 1137
1087 1138
1087 1139
1088 1089
1088 1138
1088 1139
1088 1140
1089 1090
1089 1139
1089 1140
1090 1091
1090 1140
1090 1141
1091 1092
1091 1141
1091 1142
1092 1093
1092 1141
1092 1142
1092 1143
1093 1094
1093 1142
1093 1143
1093 1144
1094 1095
1094 1143
1094 1144
1094 1145
1095 1096
1095 1144
1095 1145
1095 1146
1096 1097
1096 1145
1096 1146
1097 1098
1097 1146
1097 1147
1098 1099
1098 1147
1098 1148
1099 1147
1099 1148
1099 1149
1100 1101
1100 1149
1100 1150
1101 1150
1101 1151
1102 1151
1102 1152
1103 1104
1103 1153
1103 1154
1103 1155
1104 1105
1104 1154
1104 1155
1104 1156
1105 1106
1105 1155
1105 1156
1105 1157
1106 1107
1106 1156
1106 1157
1106 1158
1107 1157
1107 1158
1108 1109
1108 1159
1109 1110
1109 1159
1109 1160
1110 1111
1110 1160
1110 1161
1111 1112
1111 1160
1111 1161
1111 1162
1112 1113
1112 1161
1112 1162
1112 1163
1113 1114
1113 1162
1113 1163
1113 1164
1114 1115
1114 1163
1114 1164
1114 1165
1115 1116
1115 1164
1115 1165
1115 1166
1116 1117
1116 1165
1116 1166
1116 1167
1117 1118
1117 1166
1117 1167
1117 1168
1118 1119
1118 1167
1118 1168
1118 1169
1119 1168
1119 1169
1119 1170
1120 1121
1120 1170
1120 1171
1120 1172
1121 1171
1121 1172
1121 1173
1122 1123
1122 1173
1122 1174
1122 1175
1123 1124
1123 1174
1123 1175
1123 1176
1124 1125
1124 1175
1124 1176
1125 1176
1125 1177
1126 1127
1126 1177
1126 1178
1126 1179
1127 1128
1127 1178
1127 1179
1127 1180
1128 1129
1128 1179
1128 1180
1128 1181
1129 1130
1129 1180
1129 1181
1130 1131
1130 1181
1130 1182
1131 1132
1131 1182
1131 1183
1132 1133
1132 1182
1132 1183
1132 1184
1133 1134
1133 1183
1133 1184
1133 1185
1134 1135
1134 1184
1134 1185
1134 1186
1135 1136
1135 1185
1135 1186
1135 1187
1136 1186
1136 1187
1136 1188
1137 1138
1137 1188
1137 1189
1137 1190
1138 1139
1138 1189
1138 1190
1138 1191
1139 1140
1139 1190
1139 1191
1140 1191
1140 1192
1141 1142
1141 1192
1141 1193
1142 1143
1142 1193
1143 1144
1143 1193
1144 1145
1144 1194
1145 1146
1145 1194
1145 1195
1146 1194
1146 1195
1147 1148
1147 1196
1147 1197
1148 1149
1148 1196
1148 1197
1149 1197
1150 1151
1150 1198
1150 1199
1151 1152
1151 1198
1151 1199
1151 1200
1152 1199
1152 1200
1153 1154
1153 1201
1154 1155
1154 1201
1154 1202
1155 1156
1155 1201
1155 1202
1155 1203
1156 1157
1156 1202
1156 1203
1156 1204
1157 1158
1157 1203
1157 1204
1157 1205
1158 1204
1158 1205
1158 1206
1159 1207
1159 1208
1159 1209
1160 1161
1160 1209
1160 1210
1160 1211
1161 1162
1161 1210
1161 1211
1162 1163
1162 1211
1162 1212
1163 1164
1163 1212
1163 1213
1164 1165
1164 1212
1164 1213
1164 1214
1165 1166
1165 1213
1165 1214
1166 1167
1166 1214
1166 1215
1167 1168
1167 1215
1168 1169
1168 1215
1168 1216
1169 1170
1169 1216
1169 1217
1170 1171
1170 1216
1170 1217
1170 1218
1171 1172
1171 1217
1171 1218
1171 1219
1172 1173
1172 1218
1172 1219
1172 1220
1173 1174
1173 1219
1173 1220
1173 1221
1174 1175
1174 1220
1174 1221
1175 1176
1175 1221
1175 1222
1176 1222
1176 1223
1177 1178
1177 1223
1177 1224
1177 1225
1178 1179
1178 1224
1178 1225
1178 1226
1179 1180
1179 1225
1179 1226
1179 1227
1180 1181
1180 1226
1180 1227
1181 1227
1181 1228
1182 1183
1182 1228
1182 1229
1182 1230
1183 1184
1183 1229
1183 1230
1184 1185
1184 1230
1184 1231
1185 1186
1185 1231
1185 1232
1186 1187
1186 1231
1186 1232
1186 1233
1187 1188
1187 1232
1187 1233
1187 1234
1188 1189
1188 1233
1188 1234
1188 1235
1189 1190
1189 1234
1189 1235
1189 1236
1190 1191
1190 1235
1190 1236
1190 1237
1191 1236
1191 1237
1192 1238
1192 1239
1193 1239
1193 1240
1193 1241
1194 1195
1194 1242
1194 1243
1194 1244
1195 1243
1195 1244
1195 1245
1196 1197
1196 1245
1196 1246
1197 1246
1198 1199
1198 1247
1198 1248
1199 1200
1199 1247
1199 1248
1199 1249
1200 1248
1200 1249
1201 1202
1201 1250
1201 1251
1202 1203
1202 1251
1202 1252
1203 1204
1203 1251
1203 1252
1203 1253
1204 1205
1204 1252
1204 1253
1204 1254
1205 1206
1205 1253
1205 1254
1205 1255
1206 1207
1206 1254
1206 1255
1206 1256
1207 1208
1207 1255
1207 1256
1207 1257
1208 1209
1208 1256
1208 1257
1209 1210
1209 1257
1209 1258
1210 1211
1210 1258
1210 1259
1211 1258
1211 1259
1211 1260
1212 1213
1212 1260
1212 1261
1212 1262
1213 1214
1213 1261
1213 1262
1213 1263
1214 1262
1214 1263
1214 1264
1215 1264
1215 1265
1215 1266
1216 1217
1216 1266
1216 1267
1216 1268
1217 1218
1217 1267
1217 1268
1217 1269
1218 1219
1218 1268
1218 1269
1218 1270
1219 1220
1219 1269
1219 1270
1220 1221
1220 1270
1220 1271
1221 1271
1221 1272
1222 1223
1222 1272
1222 1273
1222 1274
1223 1224
1223 1273
1223 1274
1223 1275
1224 1225
1224 1274
1224 1275
1224 1276
1225 1226
1225 1275
1225 1276
1225 1277
1226 1227
1226 1276
1226 1277
1226 1278
1227 1277
1227 1278
1227 1279
1228 1229
1228 1279
1228 1280
1229 1230
1229 1280
1230 1280
1230 1281
1231 1232
1231 1281
1231 1282
1231 1283
1232 1233
1232 1282
1232 1283
1232 1284
1233 1234
1233 1283
1233 1284
1233 1285
1234 1235
1234 1284
1234 1285
1234 1286
1235 1236
1235 1285
1235 1286
1236 1237
1236 1286
1236 1287
1237 1287
1238 1239
1238 1288
1238 1289
1239 1240
1239 1288
1239 1289
1239 1290
1240 1241
1240 1289
1240 1290
1240 1291
1241 1242
1241 1290
1241 1291
1242 1243
1242 1291
1242 1292
1243 1244
1243 1292
1243 1293
1244 1245
1244 1292
1244 1293
1244 1294
1245 1246
1245 1293
1245 1294
1245 1295
1246 1294
1246 1295
1247 1248
1247 1297
1247 1298
1247 1299
1248 1249
1248 1298
1248 1299
1248 1300
1249 1299
1249 1300
1250 1301
1251 1252
1251 1302
1251 1303
1252 1253
1252 1302
1252 1303
1252 1304
1253 1254
1253 1303
1253 1304
1253 1305
1254 1255
1254 1304
1254 1305
1254 1306
1255 1256
1255 1305
1255 1306
1255 1307
1256 1257
1256 1306
1256 1307
1257 1307
1257 1308
1258 1259
1258 1308
1258 1309
1259 1260
1259 1309
1259 1310
1260 1261
1260 1309
1260 1310
1260 1311
1261 1262
1261 1310
1261 1311
1262 1263
1262 1311
1262 1312
1263 1264
1263 1312
1263 1313
1264 1265
1264 1312
1264 1313
1264 1314
1265 1266
1265 1313
1265 1314
1265 1315
1266 1267
1266 1314
1266 1315
1266 1316
1267 1268
1267 1315
1267 1316
1267 1317
1268 1269
1268 1316
1268 1317
1268 1318
1269 1270
1269 1317
1269 1318
1269 1319
1270 1318
1270 1319
1270 1320
1271 1272
1271 1320
1271 1321
1272 1273
1272 1321
1272 1322
1273 1274
1273 1321
1273 1322
1273 1323
1274 1275
1274 1322
1274 1323
1274 1324
1275 1276
1275 1323
1275 1324
1275 1325
1276 1277
1276 1324
1276 1325
1276 1326
1277 1278
1277 1325
1277 1326
1277 1327
1278 1279
1278 1326
1278 1327
1278 1328
1279 1327
1279 1328
1279 1329
1280 1329
1280 1330
1280 1331
1281 1282
1281 1331
1281 1332
1282 1283
1282 1332
1282 1333
1283 1284
1283 1333
1283 1334
1284 1285
1284 1333
1284 1334
1285 1286
1285 1334
1285 1335
1286 1335
1286 1336
1287 1336
1287 1337
1288 1289
1288 1338
1289 1290
1289 1338
1289 1339
1290 1291
1290 1338
1290 1339
1290 1340
1291 1339
1291 1340
1291 1341
1292 1293
1292 1341
1292 1342
1293 1294
1293 1342
1293 1343
1294 1295
1294 1343
1294 1344
1295 1343
1295 1344
1295 1345
1296 1297
1296 1345
1296 1346
1296 1347
1297 1298
1297 1346
1297 1347
1297 1348
1298 1299
1298 1347
1298 1348
1298 1349
1299 1300
1299 1348
1299 1349
1299 1350
1300 1349
1300 1350
1301 1351
1301 1352
1302 1303
1302 1352
1302 1353
1303 1304
1303 1353
1303 1354
1304 1305
1304 1354
1304 1355
1305 1306
1305 1354
1305 1355
1305 1356
1306 1307
1306 1355
1306 1356
1306 1357
1307 1356
1307 1357
1307 1358
1308 1358
1308 1359
1308 1360
1309 1310
1309 1360
1309 1361
1309 1362
1310 1311
1310 1361
1310 1362
1311 1362
1311 1363
1312 1313
1312 1363
1312 1364
1313 1314
1313 1364
1313 1365
1314 1315
1314 1364
1314 1365
1315 1316
1315 1365
1315 1366
1316 1317
1316 1366
1316 1367
1317 1318
1317 1366
1317 1367
1317 1368
1318 1319
1318 1367
1318 1368
1318 1369
1319 1320
1319 1368
1319 1369
1319 1370
1320 1369
1320 1370
1321 1322
1321 1371
1321 1372
1322 1323
1322 1371
1322 1372
1322 1373
1323 1324
1323 1372
1323 1373
1323 1374
1324 1325
1324 1373
1324 1374
1324 1375
1325 1326
1325 1374
1325 1375
1325 1376
1326 1327
1326 1375
1326 1376
1326 1377
1327 1328
1327 1376
1327 1377
1327 1378
1328 1329
1328 1377
1328 1378
1328 1379
1329 1330
1329 1378
1329 1379
1329 1380
1330 1331
1330 1379
1330 1380
1330 1381
1331 1332
1331 1380
1331 1381
1331 1382
1332 1381
1332 1382
1332 1383
1333 1334
1333 1383
1333 1384
1333 1385
1334 1384
1334 1385
1334 1386
1335 1336
1335 1386
1335 1387
1335 1388
1336 1337
1336 1387
1336 1388
1336 1389
1337 1388
1337 1389
1338 1339
1338 1390
1338 1391
1339 1340
1339 1391
1340 1341
1341 1342
1341 1392
1342 1392
1342 1393
1343 1344
1343 1393
1343 1394
1343 1395
1344 1345
1344 1394
1344 1395
1345 1346
1345 1395
1345 1396
1346 1347
1346 1396
1347 1348
1347 1396
1347 1397
1348 1349
1348 1397
1348 1398
1349 1350
1349 1397
1349 1398
1349 1399
1350 1398
1350 1399
1351 1352
1351 1400
1351 1401
1352 1353
1352 1400
1352 1401
1352 1402
1353 1401
1353 1402
1353 1403
1354 1355
1354 1403
1354 1404
1354 1405
1355 1356
1355 1404
1355 1405
1355 1406
1356 1357
1356 1405
1356 1406
1356 1407
1357 1358
1357 1406
1357 1407
1357 1408
1358 1359
1358 1407
1358 1408
1358 1409
1359 1360
1359 1408
1359 1409
1359 1410
1360 1361
1360 1409
1360 1410
1360 1411
1361 1362
1361 1410
1361 1411
1361 1412
1362 1411
1362 1412
1362 1413
1363 1413
1363 1414
1363 1415
1364 1365
1364 1415
1364 1416
1364 1417
1365 1416
1365 1417
1365 1418
1366 1367
1366 1418
1366 1419
1366 1420
1367 1368
1367 1419
1367 1420
1367 1421
1368 1369
1368 1420
1368 1421
1368 1422
1369 1370
1369 1421
1369 1422
1370 1422
1370 1423
1371 1372
1371 1423
1371 1424
1372 1373
1372 1424
1372 1425
1373 1374
1373 1424
1373 1425
1373 1426
1374 1375
1374 1425
1374 1426
1374 1427
1375 1376
1375 1426
1375 1427
1376 1377
1376 1427
1376 1428
1377 1378
1377 1428
1377 1429
1378 1379
1378 1428
1378 1429
1378 1430
1379 1380
1379 1429
1379 1430
1379 1431
1380 1381
1380 1430
1380 1431
1380 1432
1381 1382
1381 1431
1381 1432
1381 1433
1382 1383
1382 1432
1382 1433
1382 1434
1383 1384
1383 1433
1383 1434
1383 1435
1384 1385
1384 1434
1384 1435
1384 1436
1385 1386
1385 1435
1385 1436
1385 1437
1386 1387
1386 1436
1386 1437
1386 1438
1387 1388
1387 1437
1387 1438
1387 1439
1388 1389
1388 1438
1388 1439
1389 1439
1389 1440
1390 1391
1390 1440
1390 1441
1390 1442
1391 1441
1391 1442
1391 1443
1392 1393
1392 1444
1392 1445
1393 1394
1393 1445
1394 1395
1394 1446
1395 1446
1395 1447
1396 1447
1397 1398
1397 1448
1397 1449
1398 1399
1398 1448
1398 1449
1398 1450
1399 1449
1399 1450
1400 1401
1400 1451
1400 1452
1401 1402
1401 1451
1401 1452
1402 1403
1402 1452
1403 1404
1403 1453
1404 1405
1404 1453
1405 1406
1405 1453
1406 1407
1406 1454
1407 1408
1407 1454
1407 1455
1408 1409
1408 1454
1408 1455
1408 1456
1409 1410
1409 1455
1409 1456
1409 1457
1410 1411
1410 1456
1410 1457
1410 1458
1411 1412
1411 1457
1411 1458
1412 1413
1412 1458
1413 1414
1413 1459
1414 1415
1414 1459
1414 1460
1415 1416
1415 1459
1415 1460
1415 1461
1416 1417
1416 1460
1416 1461
1416 1462
1417 1418
1417 1461
1417 1462
1417 1463
1418 1419
1418 1462
1418 1463
1419 1420
1419 1463
1420 1421
1420 1464
1421 1422
1421 1464
1421 1465
1422 1464
1422 1465
1422 1466
1423 1466
1423 1467
1424 1425
1424 1467
1424 1468
1424 1469
1425 1426
1425 1468
1425 1469
1425 1470
1426 1427
1426 1469
1426 1470
1426 1471
1427 1470
1427 1471
1427 1472
1428 1429
1428 1472
1428 1473
1429 1430
1429 1473
1429 1474
1430 1431
1430 1473
1430 1474
1430 1475
1431 1432
1431 1474
1431 1475
1431 1476
1432 1433
1432 1475
1432 1476
1432 1477
1433 1434
1433 1476
1433 1477
1433 1478
1434 1435
1434 1477
1434 1478
1434 1479
1435 1436
1435 1478
1435 1479
1435 1480
1436 1437
1436 1479
1436 1480
1436 1481
1437 1438
1437 1480
1437 1481
1438 1439
1438 1481
1439 1482
1440 1441
1440 1482
1440 1483
1440 1484
1441 1442
1441 1483
1441 1484
1441 1485
1442 1443
1442 1484
1442 1485
1442 1486
1443 1485
1443 1486
1443 1487
1444 1445
1444 1487
1444 1488
1444 1489
1445 1488
1445 1489
1445 1490
1446 1447
1446 1491
1446 1492
1446 1493
1447 1492
1447 1493
1447 1494
1448 1449
1448 1495
1448 1496
1449 1450
1449 1495
1449 1496
1449 1497
1450 1496
1450 1497
1451 1452
1452 1498
1453 1499
1453 1500
1454 1455
1454 1501
1454 1502
1454 1503
1455 1456
1455 1502
1455 1503
1455 1504
1456 1457
1456 1503
1456 1504
1457 1458
1457 1504
1457 1505
1458 1505
1458 1506
1459 1460
1459 1507
1459 1508
1459 1509
1460 1461
1460 1508
1460 1509
1460 1510
1461 1462
1461 1509
1461 1510
1461 1511
1462 1463
1462 1510
1462 1511
1462 1512
1463 1511
1463 1512
1463 1513
1464 1465
1464 1514
1464 1515
1465 1466
1465 1515
1466 1516
1467 1468
1467 1516
1467 1517
1467 1518
1468 1469
1468 1517
1468 1518
1469 1470
1469 1518
1469 1519
1470 1471
1470 1519
1470 1520
1471 1472
1471 1519
1471 1520
1472 1520
1472 1521
1473 1474
1473 1521
1473 1522
1473 1523
1474 1475
1474 1522
1474 1523
1474 1524
1475 1476
1475 1523
1475 1524
1475 1525
1476 1477
1476 1524
1476 1525
1476 1526
1477 1478
1477 1525
1477 1526
1477 1527
1478 1479
1478 1526
1478 1527
1478 1528
1479 1480
1479 1527
1479 1528
1479 1529
1480 1481
1480 1528
1480 1529
1481 1529
1481 1530
1482 1483
1482 1531
1482 1532
1482 1533
1483 1484
1483 1532
1483 1533
1484 1485
1484 1533
1484 1534
1485 1486
1485 1534
1485 1535
1486 1487
1486 1534
1486 1535
1486 1536
1487 1488
1487 1535
1487 1536
1488 1489
1488 1536
1489 1490
1489 1537
1490 1491
1490 1537
1490 1538
1491 1492
1491 1537
1491 1538
1491 1539
1492 1493
1492 1538
1492 1539
1493 1494
1493 1539
1493 1540
1494 1540
1494 1541
1495 1496
1495 1541
1495 1542
1496 1497
1496 1542
1496 1543
1497 1542
1497 1543
1498 1499
1498 1545
1498 1546
1498 1547
1499 1500
1499 1546
1499 1547
1499 1548
1500 1547
1500 1548
1500 1549
1501 1502
1501 1549
1501 1550
1501 1551
1502 1503
1502 1550
1502 1551
1502 1552
1503 1504
1503 1551
1503 1552
1503 1553
1504 1552
1504 1553
1504 1554
1505 1506
1505 1554
1505 1555
1505 1556
1506 1507
1506 1555
1506 1556
1506 1557
1507 1508
1507 1556
1507 1557
1507 1558
1508 1509
1508 1557
1508 1558
1508 1559
1509 1510
1509 1558
1509 1559
1509 1560
1510 1511
1510 1559
1510 1560
1510 1561
1511 1512
1511 1560
1511 1561
1511 1562
1512 1513
1512 1561
1512 1562
1513 1514
1513 1562
1513 1563
1514 1515
1514 1563
1514 1564
1515 1563
1515 1564
1515 1565
1516 1517
1516 1566
1516 1567
1516 1568
1517 1518
1517 1567
1517 1568
1517 1569
1518 1568
1518 1569
1519 1520
1519 1570
1519 1571
1520 1570
1520 1571
1520 1572
1521 1522
1521 1572
1521 1573
1521 1574
1522 1523
1522 1573
1522 1574
1522 1575
1523 1524
1523 1574
1523 1575
1523 1576
1524 1525
1524 1575
1524 1576
1524 1577
1525 1526
1525 1576
1525 1577
1525 1578
1526 1527
1526 1577
1526 1578
1526 1579
1527 1528
1527 1578
1527 1579
1527 1580
1528 1529
1528 1579
1528 1580
1528 1581
1529 1580
1529 1581
1529 1582
1530 1531
1530 1582
1530 1583
1530 1584
1531 1532
1531 1583
1531 1584
1531 1585
1532 1533
1532 1584
1532 1585
1532 1586
1533 1585
1533 1586
1533 1587
1534 1535
1534 1587
1534 1588
1534 1589
1535 1536
1535 1588
1535 1589
1535 1590
1536 1589
1536 1590
1536 1591
1537 1538
1537 1592
1537 1593
1538 1539
1538 1592
1538 1593
1539 1593
1540 1541
1540 1594
1540 1595
1541 1594
1541 1595
1541 1596
1542 1543
1542 1596
1542 1597
1543 1597
1544 1545
1544 1598
1544 1599
1545 1546
1545 1598
1545 1599
1545 1600
1546 1547
1546 1599
1546 1600
1547 1548
1547 1600
1547 1601
1548 1549
1548 1601
1549 1550
1549 1601
1549 1602
1550 1551
1550 1602
1550 1603
1551 1552
1551 1602
1551 1603
1552 1553
1552 1603
1552 1604
1553 1554
1553 1604
1553 1605
1554 1555
1554 1604
1554 1605
1554 1606
1555 1556
1555 1605
1555 1606
1555 1607
1556 1557
1556 1606
1556 1607
1556 1608
1557 1558
1557 1607
1557 1608
1557 1609
1558 1559
1558 1608
1558 1609
1558 1610
1559 1560
1559 1609
1559 1610
1559 1611
1560 1561
1560 1610
1560 1611
1560 1612
1561 1562
1561 1611
1561 1612
1561 1613
1562 1612
1562 1613
1562 1614
1563 1564
1563 1614
1563 1615
1563 1616
1564 1565
1564 1615
1564 1616
1564 1617
1565 1566
1565 1616
1565 1617
1566 1567
1566 1617
1567 1568
1567 1618
1568 1569
1568 1618
1568 1619
1569 1618
1569 1619
1570 1571
1570 1620
1570 1621
1571 1572
1571 1620
1571 1621
1571 1622
1572 1573
1572 1621
1572 1622
1572 1623
1573 1574
1573 1622
1573 1623
1573 1624
1574 1575
1574 1623
1574 1624
1574 1625
1575 1576
1575 1624
1575 1625
1575 1626
1576 1577
1576 1625
1576 1626
1576 1627
1577 1578
1577 1626
1577 1627
1577 1628
1578 1579
1578 1627
1578 1628
1578 1629
1579 1580
1579 1628
1579 1629
1579 1630
1580 1581
1580 1629
1580 1630
1580 1631
1581 1582
1581 1630
1581 1631
1581 1632
1582 1583
1582 1631
1582 1632
1582 1633
1583 1584
1583 1632
1583 1633
1583 1634
1584 1585
1584 1633
1584 1634
1584 1635
1585 1586
1585 1634
1585 1635
1586 1587
1586 1635
1586 1636
1587 1588
1587 1636
1587 1637
1588 1589
1588 1636
1588 1637
1588 1638
1589 1590
1589 1637
1589 1638
1590 1591
1590 1638
1590 1639
1591 1639
1592 1593
1592 1640
1592 1641
1593 1640
1593 1641
1593 1642
1594 1595
1594 1643
1594 1644
1595 1596
1595 1644
1596 1644
1596 1645
1597 1645
1598 1599
1598 1646
1598 1647
1599 1600
1599 1646
1599 1647
1599 1648
1600 1647
1600 1648
1601 1649
1602 1603
1602 1649
1602 1650
1602 1651
1603 1650
1603 1651
1603 1652
1604 1605
1604 1652
1604 1653
1605 1606
1605 1653
1605 1654
1606 1607
1606 1654
1606 1655
1607 1608
1607 1654
1607 1655
1607 1656
1608 1609
1608 1655
1608 1656
1608 1657
1609 1610
1609 1656
1609 1657
1609 1658
1610 1611
1610 1657
1610 1658
1610 1659
1611 1612
1611 1658
1611 1659
1611 1660
1612 1613
1612 1659
1612 1660
1613 1614
1613 1660
1613 1661
1614 1615
1614 1661
1614 1662
1615 1616
1615 1661
1615 1662
1616 1617
1616 1662
1616 1663
1617 1663
1617 1664
1618 1619
1618 1665
1618 1666
1618 1667
1619 1666
1619 1667
1619 1668
1620 1621
1620 1668
1620 1669
1620 1670
1621 1622
1621 1669
1621 1670
1622 1623
1622 1670
1623 1624
1624 1625
1624 1671
1625 1626
1625 1671
1625 1672
1626 1627
1626 1671
1626 1672
1626 1673
1627 1628
1627 1672
1627 1673
1627 1674
1628 1629
1628 1673
1628 1674
1628 1675
1629 1630
1629 1674
1629 1675
1629 1676
1630 1631
1630 1675
1630 1676
1630 1677
1631 1632
1631 1676
1631 1677
1631 1678
1632 1633
1632 1677
1632 1678
1633 1634
1633 1678
1634 1635
1634 1679
1635 1679
1635 1680
1636 1637
1636 1680
1636 1681
1636 1682
1637 1638
1637 1681
1637 1682
1637 1683
1638 1682
1638 1683
1639 1684
1639 1685
1640 1641
1640 1685
1640 1686
1640 1687
1641 1642
1641 1686
1641 1687
1642 1643
1642 1687
1642 1688
1643 1688
1644 1689
1644 1690
1645 1690
1645 1691
1645 1692
1646 1647
1646 1693
1646 1694
1647 1648
1647 1693
1647 1694
1648 1694
1648 1695
1649 1650
1649 1696
1650 1651
1650 1696
1650 1697
1651 1652
1651 1696
1651 1697
1651 1698
1652 1653
1652 1697
1652 1698
1652 1699
1653 1698
1653 1699
1653 1700
1654 1655
1654 1700
1654 1701
1654 1702
1655 1656
1655 1701
1655 1702
1655 1703
1656 1657
1656 1702
1656 1703
1657 1658
1657 1703
1657 1704
1658 1659
1658 1704
1658 1705
1659 1660
1659 1704
1659 1705
1660 1705
1660 1706
1661 1662
1661 1706
1661 1707
1661 1708
1662 1707
1662 1708
1663 1664
1663 1709
1664 1665
1664 1709
1665 1666
1665 1710
1666 1667
1666 1710
1666 1711
1667 1668
1667 1710
1667 1711
1667 1712
1668 1669
1668 1711
1668 1712
1668 1713
1669 1670
1669 1712
1669 1713
1669 1714
1670 1713
1670 1714
1671 1672
1671 1716
1672 1673
1672 1716
1673 1674
1673 1716
1673 1717
1674 1675
1674 1717
1674 1718
1675 1676
1675 1717
1675 1718
1675 1719
1676 1677
1676 1718
1676 1719
1677 1678
1677 1719
1678 1720
1679 1680
1679 1721
1679 1722
1679 1723
1680 1681
1680 1722
1680 1723
1680 1724
1681 1682
1681 1723
1681 1724
1681 1725
1682 1683
1682 1724
1682 1725
1683 1725
1683 1726
1684 1685
1684 1726
1684 1727
1685 1686
1685 1727
1685 1728
1686 1687
1686 1727
1686 1728
1686 1729
1687 1728
1687 1729
1687 1730
1688 1730
1688 1731
1688 1732
1689 1690
1689 1732
1689 1733
1689 1734
1690 1691
1690 1733
1690 1734
1691 1692
1691 1734
1691 1735
1692 1735
1693 1694
1693 1736
1693 1737
1694 1736
1694 1737
1694 1738
1695 1738
1695 1739
1696 1697
1696 1740
1696 1741
1696 1742
1697 1698
1697 1741
1697 1742
1697 1743
1698 1699
1698 1742
1698 1743
1698 1744
1699 1700
1699 1743
1699 1744
1699 1745
1700 1701
1700 1744
1700 1745
1701 1702
1701 1745
1701 1746
1702 1703
1702 1746
1703 1746
1703 1747
1704 1705
1704 1747
1704 1748
1704 1749
1705 1748
1705 1749
1705 1750
1706 1707
1706 1750
1706 1751
1706 1752
1707 1708
1707 1751
1707 1752
1707 1753
1708 1752
1708 1753
1708 1754
1709 1754
1709 1755
1709 1756
1710 1711
1710 1757
1710 1758
1711 1712
1711 1758
1711 1759
1712 1713
1712 1758
1712 1759
1712 1760
1713 1714
1713 1759
1713 1760
1713 1761
1714 1760
1714 1761
1714 1762
1715 1762
1715 1763
1715 1764
1716 1765
1716 1766
1716 1767
1717 1718
1717 1767
1717 1768
1718 1719
1718 1768
1718 1769
1719 1769
1720 1721
1720 1770
1721 1722
1721 1770
1721 1771
1722 1723
1722 1771
1722 1772
1723 1724
1723 1771
1723 1772
1724 1725
1724 1772
1724 1773
1725 1773
1725 1774
1726 1774
1726 1775
1726 1776
1727 1728
1727 1776
1728 1729
1728 1777
1729 1730
1729 1777
1729 1778
1730 1731
1730 1777
1730 1778
1730 1779
1731 1732
1731 1778
1731 1779
1731 1780
1732 1733
1732 1779
1732 1780
1732 1781
1733 1734
1733 1780
1733 1781
1733 1782
1734 1781
1734 1782
1734 1783
1735 1783
1735 1784
1736 1737
1736 1785
1737 1738
1737 1785
1737 1786
1738 1785
1738 1786
1738 1787
1739 1740
1739 1787
1739 1788
1740 1741
1740 1788
1740 1789
1741 1742
1741 1788
1741 1789
1742 1743
1742 1789
1742 1790
1743 1744
1743 1790
1744 1745
1744 1790
1744 1791
1745 1791
1745 1792
1746 1792
1746 1793
1746 1794
1747 1748
1747 1794
1747 1795
1748 1749
1748 1795
1748 1796
1749 1750
1749 1795
1749 1796
1749 1797
1750 1751
1750 1796
1750 1797
1750 1798
1751 1752
1751 1797
1751 1798
1751 1799
1752 1753
1752 1798
1752 1799
1752 1800
1753 1754
1753 1799
1753 1800
1753 1801
1754 1755
1754 1800
1754 1801
1754 1802
1755 1756
1755 1801
1755 1802
1755 1803
1756 1757
1756 1802
1756 1803
1757 1803
1757 1804
1758 1759
1758 1804
1758 1805
1758 1806
1759 1760
1759 1805
1759 1806
1759 1807
1760 1761
1760 1806
1760 1807
1761 1762
1761 1807
1761 1808
1762 1763
1762 1808
1762 1809
1763 1764
1763 1808
1763 1809
1763 1810
1764 1765
1764 1809
1764 1810
1764 1811
1765 1766
1765 1810
1765 1811
1766 1767
1766 1811
1766 1812
1767 1768
1767 1812
1767 1813
1768 1812
1768 1813
1768 1814
1769 1814
1769 1815
1769 1816
1770 1817
1770 1818
1770 1819
1771 1772
1771 1819
1771 1820
1772 1820
1773 1774
1773 1821
1773 1822
1774 1775
1774 1821
1774 1822
1774 1823
1775 1776
1775 1822
1775 1823
1775 1824
1776 1823
1776 1824
1776 1825
1777 1778
1777 1826
1777 1827
1778 1779
1778 1827
1779 1780
1779 1827
1779 1828
1780 1781
1780 1828
1780 1829
1781 1782
1781 1828
1781 1829
1781 1830
1782 1783
1782 1829
1782 1830
1783 1784
1783 1830
1783 1831
1784 1831
1785 1786
1785 1832
1785 1833
1786 1787
1786 1832
1786 1833
1786 1834
1787 1833
1787 1834
1787 1835
1788 1789
1788 1835
1788 1836
1788 1837
1789 1836
1789 1837
1790 1838
1791 1792
1791 1838
1792 1793
1793 1794
1793 1839
1794 1839
1794 1840
1795 1796
1795 1840
1795 1841
1795 1842
1796 1797
1796 1841
1796 1842
1796 1843
1797 1798
1797 1842
1797 1843
1797 1844
1798 1799
1798 1843
1798 1844
1798 1845
1799 1800
1799 1844
1799 1845
1799 1846
1800 1801
1800 1845
1800 1846
1801 1802
1801 1846
1801 1847
1802 1803
1802 1847
1802 1848
1803 1847
1803 1848
1803 1849
1804 1805
1804 1849
1804 1850
1804 1851
1805 1806
1805 1850
1805 1851
1805 1852
1806 1807
1806 1851
1806 1852
1806 1853
1807 1852
1807 1853
1807 1854
1808 1809
1808 1854
1808 1855
1808 1856
1809 1810
1809 1855
1809 1856
1810 1811
1810 1856
1810 1857
1811 1857
1811 1858
1812 1813
1812 1858
1812 1859
1813 1814
1813 1859
1813 1860
1814 1815
1814 1859
1814 1860
1814 1861
1815 1816
1815 1860
1815 1861
1815 1862
1816 1817
1816 1861
1816 1862
1816 1863
1817 1818
1817 1862
1817 1863
1818 1819
1818 1863
1818 1864
1819 1820
1819 1864
1819 1865
1820 1864
1820 1865
1820 1866
1821 1822
1821 1867
1821 1868
1821 1869
1822 1823
1822 1868
1822 1869
1822 1870
1823 1824
1823 1869
1823 1870
1823 1871
1824 1825
1824 1870
1824 1871
1824 1872
1825 1826
1825 1871
1825 1872
1825 1873
1826 1872
1826 1873
1826 1874
1827 1874
1827 1875
1827 1876
1828 1829
1828 1876
1828 1877
1828 1878
1829 1830
1829 1877
1829 1878
1829 1879
1830 1878
1830 1879
1830 1880
1831 1880
1831 1881
1832 1833
1832 1882
1833 1834
1833 1882
1833 1883
1834 1835
1834 1882
1834 1883
1834 1884
1835 1836
1835 1883
1835 1884
1835 1885
1836 1837
1836 1884
1836 1885
1836 1886
1837 1885
1837 1886
1837 1887
1838 1888
1838 1889
1838 1890
1839 1840
1839 1892
1839 1893
1840 1841
1840 1892
1840 1893
1840 1894
1841 1842
1841 1893
1841 1894
1841 1895
1842 1843
1842 1894
1842 1895
1842 1896
1843 1844
1843 1895
1843 1896
1843 1897
1844 1845
1844 1896
1844 1897
1845 1846
1845 1897
1845 1898
1846 1898
1846 1899
1847 1848
1847 1899
1847 1900
1847 1901
1848 1849
1848 1900
1848 1901
1849 1850
1849 1901
1849 1902
1850 1851
1850 1902
1851 1852
1851 1902
1851 1903
1852 1853
1852 1903
1852 1904
1853 1854
1853 1903
1853 1904
1853 1905
1854 1855
1854 1904
1854 1905
1855 1856
1855 1905
1855 1906
1856 1906
1856 1907
1857 1858
1857 1907
1857 1908
1858 1908
1858 1909
1859 1860
1859 1909
1859 1910
1859 1911
1860 1861
1860 1910
1860 1911
1860 1912
1861 1862
1861 1911
1861 1912
1861 1913
1862 1863
1862 1912
1862 1913
1862 1914
1863 1913
1863 1914
1863 1915
1864 1865
1864 1915
1865 1866
1865 1916
1866 1867
1866 1916
1866 1917
1867 1868
1867 1916
1867 1917
1867 1918
1868 1869
1868 1917
1868 1918
1868 1919
1869 1870
1869 1918
1869 1919
1870 1871
1870 1919
1870 1920
1871 1872
1871 1920
1871 1921
1872 1873
1872 1920
1872 1921
1872 1922
1873 1874
1873 1921
1873 1922
1874 1875
1874 1922
1874 1923
1875 1876
1875 1923
1875 1924
1876 1877
1876 1923
1876 1924
1877 1878
1877 1924
1877 1925
1878 1879
1878 1925
1878 1926
1879 1880
1879 1925
1879 1926
1880 1881
1880 1926
1880 1927
1881 1927
1882 1883
1882 1929
1882 1930
1882 1931
1883 1884
1883 1930
1883 1931
1883 1932
1884 1885
1884 1931
1884 1932
1884 1933
1885 1886
1885 1932
1885 1933
1885 1934
1886 1887
1886 1933
1886 1934
1886 1935
1887 1888
1887 1934
1887 1935
1887 1936
1888 1889
1888 1935
1888 1936
1888 1937
1889 1890
1889 1936
1889 1937
1889 1938
1890 1891
1890 1937
1890 1938
1890 1939
1891 1938
1891 1939
1892 1893
1892 1940
1893 1894
1893 1940
1893 1941
1894 1895
1894 1941
1894 1942
1895 1896
1895 1941
1895 1942
1895 1943
1896 1897
1896 1942
1896 1943
1896 1944
1897 1943
1897 1944
1897 1945
1898 1899
1898 1945
1898 1946
1898 1947
1899 1900
1899 1946
1899 1947
1900 1901
1900 1947
1900 1948
1901 1948
1901 1949
1902 1949
1902 1950
1902 1951
1903 1904
1903 1951
1903 1952
1903 1953
1904 1905
1904 1952
1904 1953
1904 1954
1905 1953
1905 1954
1905 1955
1906 1907
1906 1955
1906 1956
1907 1908
1907 1956
1907 1957
1908 1957
1908 1958
1909 1910
1909 1958
1909 1959
1909 1960
1910 1911
1910 1959
1910 1960
1910 1961
1911 1912
1911 1960
1911 1961
1911 1962
1912 1913
1912 1961
1912 1962
1912 1963
1913 1914
1913 1962
1913 1963
1913 1964
1914 1915
1914 1963
1914 1964
1914 1965
1915 1964
1915 1965
1915 1966
1916 1917
1916 1967
1916 1968
1916 1969
1917 1918
1917 1968
1917 1969
1918 1919
1918 1969
1918 1970
1919 1970
1919 1971
1920 1921
1920 1971
1920 1972
1921 1922
1921 1972
1922 1973
1923 1924
1923 1973
1923 1974
1923 1975
1924 1974
1924 1975
1924 1976
1925 1926
1925 1976
1925 1977
1926 1977
1926 1978
1927 1978
1927 1979
1928 1929
1928 1980
1928 1981
1929 1930
1929 1980
1929 1981
1929 1982
1930 1931
1930 1981
1930 1982
1930 1983
1931 1932
1931 1982
1931 1983
1931 1984
1932 1933
1932 1983
1932 1984
1933 1934
1933 1984
1933 1985
1934 1935
1934 1985
1934 1986
1935 1936
1935 1985
1935 1986
1935 1987
1936 1937
1936 1986
1936 1987
1936 1988
1937 1938
1937 1987
1937 1988
1937 1989
1938 1939
1938 1988
1938 1989
1938 1990
1939 1989
1939 1990
1939 1991
1940 1991
1940 1992
1940 1993
1941 1942
1941 1993
1941 1994
1942 1943
1942 1994
1942 1995
1943 1944
1943 1995
1943 1996
1944 1945
1944 1995
1944 1996
1945 1946
1945 1996
1945 1997
1946 1947
1946 1997
1946 1998
1947 1997
1947 1998
1947 1999
1948 1949
1948 1999
1948 2000
1948 2001
1949 1950
1949 2000
1949 2001
1949 2002
1950 1951
1950 2001
1950 2002
1950 2003
1951 1952
1951 2002
1951 2003
1951 2004
1952 1953
1952 2003
1952 2004
1952 2005
1953 1954
1953 2004
1953 2005
1954 1955
1954 2005
1954 2006
1955 1956
1955 2006
1956 2006
1956 2007
1957 1958
1957 2007
1957 2008
1958 1959
1958 2008
1959 1960
1959 2008
1959 2009
1960 1961
1960 2009
1960 2010
1961 1962
1961 2009
1961 2010
1961 2011
1962 1963
1962 2010
1962 2011
1962 2012
1963 1964
1963 2011
1963 2012
1964 1965
1964 2012
1964 2013
1965 1966
1965 2013
1965 2014
1966 1967
1966 2013
1966 2014
1967 1968
1967 2014
1968 1969
1968 2015
1969 2015
1969 2016
1970 1971
1970 2016
1970 2017
1971 1972
1971 2017
1971 2018
1972 2018
1972 2019
1973 1974
1973 2020
1973 2021
1973 2022
1974 1975
1974 2021
1974 2022
1974 2023
1975 1976
1975 2022
1975 2023
1975 2024
1976 2023
1976 2024
1976 2025
1977 1978
1977 2025
1977 2026
1978 1979
1978 2026
1978 2027
1979 2027
1980 1981
1980 2028
1981 1982
1981 2028
1981 2029
1982 1983
1982 2029
1982 2030
1983 1984
1983 2029
1983 2030
1984 2030
1985 1986
1985 2031
1985 2032
1986 1987
1986 2031
1986 2032
1986 2033
1987 1988
1987 2032
1987 2033
1988 1989
1988 2033
1988 2034
1989 1990
1989 2034
1989 2035
1990 1991
1990 2034
1990 2035
1990 2036
1991 1992
1991 2035
1991 2036
1991 2037
1992 1993
1992 2036
1992 2037
1992 2038
1993 1994
1993 2037
1993 2038
1993 2039
1994 2038
1994 2039
1994 2040
1995 1996
1995 2040
1995 2041
1995 2042
1996 2041
1996 2042
1996 2043
1997 1998
1997 2043
1998 1999
1998 2044
1999 2000
1999 2044
1999 2045
2000 2001
2000 2044
2000 2045
2000 2046
2001 2002
2001 2045
2001 2046
2001 2047
2002 2003
2002 2046
2002 2047
2002 2048
2003 2004
2003 2047
2003 2048
2003 2049
2004 2005
2004 2048
2004 2049
2004 2050
2005 2049
2005 2050
2005 2051
2006 2051
2006 2052
2006 2053
2007 2053
2007 2054
2007 2055
2008 2055
2008 2056
2009 2010
2009 2057
2009 2058
2010 2011
2010 2057
2010 2058
2010 2059
2011 2012
2011 2058
2011 2059
2011 2060
2012 2059
2012 2060
2012 2061
2013 2014
2013 2061
2014 2062
2015 2016
2015 2063
2015 2064
2015 2065
2016 2017
2016 2064
2016 2065
2017 2065
2017 2066
2018 2019
2018 2066
2018 2067
2018 2068
2019 2020
2019 2067
2019 2068
2019 2069
2020 2021
2020 2068
2020 2069
2021 2022
2021 2069
2021 2070
2022 2023
2022 2070
2022 2071
2023 2024
2023 2070
2023 2071
2023 2072
2024 2025
2024 2071
2024 2072
2024 2073
2025 2026
2025 2072
2025 2073
2025 2074
2026 2073
2026 2074
2028 2075
2029 2030
2029 2075
2029 2076
2029 2077
2030 2076
2030 2077
2030 2078
2031 2032
2031 2079
2031 2080
2032 2033
2032 2079
2032 2080
2033 2080
2033 2081
2034 2035
2034 2081
2034 2082
2034 2083
2035 2036
2035 2082
2035 2083
2035 2084
2036 2037
2036 2083
2036 2084
2036 2085
2037 2038
2037 2084
2037 2085
2038 2039
2038 2085
2038 2086
2039 2040
2039 2086
2040 2041
2040 2086
2040 2087
2041 2042
2041 2087
2041 2088
2042 2043
2042 2087
2042 2088
2043 2088
2043 2089
2044 2045
2044 2090
2044 2091
2044 2092
2045 2046
2045 2091
2045 2092
2045 2093
2046 2047
2046 2092
2046 2093
2047 2048
2047 2093
2047 2094
2048 2049
2048 2094
2048 2095
2049 2050
2049 2094
2049 2095
2049 2096
2050 2051
2050 2095
2050 2096
2050 2097
2051 2052
2051 2096
2051 2097
2051 2098
2052 2053
2052 2097
2052 2098
2052 2099
2053 2054
2053 2098
2053 2099
2053 2100
2054 2055
2054 2099
2054 2100
2055 2056
2055 2100
2055 2101
2056 2101
2056 2102
2057 2058
2057 2102
2058 2059
2059 2060
2059 2103
2060 2061
2060 2103
2061 2103
2061 2104
2062 2063
2062 2105
2062 2106
2062 2107
2063 2064
2063 2106
2063 2107
2063 2108
2064 2065
2064 2107
2064 2108
2064 2109
2065 2108
2065 2109
2066 2067
2066 2110
2067 2068
2067 2110
2067 2111
2068 2069
2068 2111
2068 2112
2069 2111
2069 2112
2069 2113
2070 2071
2070 2113
2070 2114
2070 2115
2071 2072
2071 2114
2071 2115
2072 2073
2072 2115
2072 2116
2073 2074
2073 2116
2073 2117
2074 2116
2074 2117
2074 2118
2075 2076
2075 2120
2075 2121
2076 2077
2076 2120
2076 2121
2077 2078
2077 2121
2077 2122
2078 2122
2078 2123
2079 2080
2079 2123
2079 2124
2080 2124
2080 2125
2081 2082
2081 2125
2081 2126
2081 2127
2082 2083
2082 2126
2082 2127
2083 2084
2083 2127
2083 2128
2084 2085
2084 2128
2084 2129
2085 2128
2085 2129
2085 2130
2086 2130
2086 2131
2087 2088
2087 2132
2087 2133
2088 2132
2088 2133
2088 2134
2089 2090
2089 2134
2089 2135
2089 2136
2090 2091
2090 2135
2090 2136
2091 2092
2091 2136
2092 2093
2092 2137
2093 2137
2093 2138
2094 2095
2094 2138
2094 2139
2094 2140
2095 2096
2095 2139
2095 2140
2095 2141
2096 2097
2096 2140
2096 2141
2097 2098
2097 2141
2097 2142
2098 2099
2098 2142
2098 2143
2099 2100
2099 2142
2099 2143
2100 2143
2100 2144
2101 2102
2101 2144
2101 2145
2101 2146
2102 2145
2102 2146
2103 2147
2103 2148
2103 2149
2104 2105
2104 2149
2104 2150
2105 2106
2105 2150
2105 2151
2106 2107
2106 2151
2106 2152
2107 2108
2107 2151
2107 2152
2107 2153
2108 2109
2108 2152
2108 2153
2109 2153
2109 2154
2110 2154
2110 2155
2110 2156
2111 2112
2111 2156
2111 2157
2111 2158
2112 2113
2112 2157
2112 2158
2112 2159
2113 2114
2113 2158
2113 2159
2113 2160
2114 2115
2114 2159
2114 2160
2114 2161
2115 2160
2115 2161
2115 2162
2116 2117
2116 2162
2116 2163
2116 2164
2117 2118
2117 2163
2117 2164
2117 2165
2118 2119
2118 2164
2118 2165
2119 2165
2120 2121
2120 2166
2120 2167
2121 2167
2121 2168
2122 2123
2122 2168
2122 2169
2122 2170
2123 2169
2123 2170
2123 2171
2124 2125
2124 2171
2124 2172
2124 2173
2125 2126
2125 2172
2125 2173
2125 2174
2126 2127
2126 2173
2126 2174
2126 2175
2127 2174
2127 2175
2127 2176
2128 2129
2128 2176
2128 2177
2128 2178
2129 2130
2129 2177
2129 2178
2129 2179
2130 2131
2130 2178
2130 2179
2130 2180
2131 2179
2131 2180
2131 2181
2132 2133
2132 2181
2132 2182
2133 2134
2133 2182
2133 2183
2134 2135
2134 2183
2134 2184
2135 2136
2135 2183
2135 2184
2135 2185
2136 2184
2136 2185
2136 2186
2137 2138
2137 2187
2137 2188
2137 2189
2138 2139
2138 2188
2138 2189
2138 2190
2139 2140
2139 2189
2139 2190
2140 2141
2140 2190
2140 2191
2141 2191
2141 2192
2142 2143
2142 2192
2142 2193
2142 2194
2143 2193
2143 2194
2143 2195
2144 2145
2144 2195
2144 2196
2144 2197
2145 2146
2145 2196
2145 2197
2145 2198
2146 2197
2146 2198
2146 2199
2147 2148
2147 2200
2147 2201
2147 2202
2148 2149
2148 2201
2148 2202
2149 2150
2149 2202
2149 2203
2150 2203
2151 2152
2151 2204
2151 2205
2152 2153
2152 2204
2152 2205
2152 2206
2153 2205
2153 2206
2153 2207
2154 2155
2154 2207
2154 2208
2154 2209
2155 2156
2155 2208
2155 2209
2155 2210
2156 2157
2156 2209
2156 2210
2156 2211
2157 2158
2157 2210
2157 2211
2157 2212
2158 2159
2158 2211
2158 2212
2158 2213
2159 2160
2159 2212
2159 2213
2160 2161
2160 2213
2161 2162
2161 2214
2162 2163
2162 2214
2162 2215
2163 2164
2163 2214
2163 2215
2164 2165
2164 2215
2164 2216
2165 2216
2165 2217
2166 2218
2166 2219
2167 2168
2167 2219
2167 2220
2167 2221
2168 2169
2168 2220
2168 2221
2168 2222
2169 2170
2169 2221
2169 2222
2169 2223
2170 2171
2170 2222
2170 2223
2170 2224
2171 2172
2171 2223
2171 2224
2171 2225
2172 2173
2172 2224
2172 2225
2172 2226
2173 2174
2173 2225
2173 2226
2173 2227
2174 2175
2174 2226
2174 2227
2174 2228
2175 2176
2175 2227
2175 2228
2175 2229
2176 2177
2176 2228
2176 2229
2177 2178
2177 2229
2178 2179
2178 2230
2179 2180
2179 2230
2179 2231
2180 2181
2180 2230
2180 2231
2180 2232
2181 2182
2181 2231
2181 2232
2181 2233
2182 2232
2182 2233
2182 2234
2183 2184
2183 2234
2183 2235
2183 2236
2184 2185
2184 2235
2184 2236
2184 2237
2185 2186
2185 2236
2185 2237
2185 2238
2186 2187
2186 2237
2186 2238
2186 2239
2187 2188
2187 2238
2187 2239
2187 2240
2188 2189
2188 2239
2188 2240
2188 2241
2189 2190
2189 2240
2189 2241
2189 2242
2190 2241
2190 2242
2191 2192
2192 2193
2192 2243
2193 2194
2193 2243
2193 2244
2194 2195
2194 2243
2194 2244
2195 2196
2195 2244
2195 2245
2196 2197
2196 2245
2196 2246
2197 2198
2197 2245
2197 2246
2197 2247
2198 2199
2198 2246
2198 2247
2198 2248
2199 2200
2199 2247
2199 2248
2200 2201
2200 2248
2200 2249
2201 2202
2201 2249
2201 2250
2202 2249
2202 2250
2202 2251
2203 2251
2203 2252
2204 2205
2204 2252
2204 2253
2205 2206
2205 2253
2205 2254
2206 2207
2206 2254
2206 2255
2207 2208
2207 2254
2207 2255
2207 2256
2208 2209
2208 2255
2208 2256
2208 2257
2209 2210
2209 2256
2209 2257
2209 2258
2210 2211
2210 2257
2210 2258
2211 2212
2211 2258
2211 2259
2212 2213
2212 2259
2212 2260
2213 2259
2213 2260
2214 2215
2214 2261
2214 2262
2215 2261
2215 2262
2216 2217
2216 2263
2217 2263
2218 2219
2218 2264
2218 2265
2219 2220
2219 2264
2219 2265
2219 2266
2220 2221
2220 2265
2220 2266
2220 2267
2221 2222
2221 2266
2221 2267
2221 2268
2222 2223
2222 2267
2222 2268
2222 2269
2223 2224
2223 2268
2223 2269
2223 2270
2224 2225
2224 2269
2224 2270
2224 2271
2225 2226
2225 2270
2225 2271
2225 2272
2226 2227
2226 2271
2226 2272
2227 2228
2227 2272
2227 2273
2228 2229
2228 2273
2229 2273
2229 2274
2230 2231
2230 2275
2230 2276
2231 2232
2231 2276
2231 2277
2232 2233
2232 2276
2232 2277
2232 2278
2233 2234
2233 2277
2233 2278
2233 2279
2234 2235
2234 2278
2234 2279
2234 2280
2235 2236
2235 2279
2235 2280
2236 2237
2236 2280
2237 2238
2238 2239
2238 2281
2239 2240
2239 2281
2240 2241
2240 2281
2241 2242
2241 2282
2242 2282
2243 2244
2243 2284
2243 2285
2244 2285
2244 2286
2245 2246
2245 2286
2245 2287
2245 2288
2246 2247
2246 2287
2246 2288
2246 2289
2247 2248
2247 2288
2247 2289
2247 2290
2248 2289
2248 2290
2249 2250
2249 2291
2250 2251
2250 2291
2250 2292
2251 2291
2251 2292
2251 2293
2252 2253
2252 2293
2252 2294
2252 2295
2253 2294
2253 2295
2253 2296
2254 2255
2254 2296
2254 2297
2254 2298
2255 2256
2255 2297
2255 2298
2255 2299
2256 2257
2256 2298
2256 2299
2256 2300
2257 2258
2257 2299
2257 2300
2258 2300
2258 2301
2259 2260
2259 2301
2259 2302
2259 2303
2260 2302
2260 2303
2260 2304
2261 2262
2261 2305
2261 2306
2262 2305
2262 2306
2263 2307
2264 2265
2264 2308
2265 2266
2265 2308
2265 2309
2266 2267
2266 2308
2266 2309
2267 2268
2267 2309
2267 2310
2268 2269
2268 2310
2269 2270
2269 2310
2269 2311
2270 2271
2270 2311
2270 2312
2271 2272
2271 2311
2271 2312
2271 2313
2272 2312
2272 2313
2272 2314
2273 2314
2273 2315
2274 2275
2275 2316
2276 2277
2276 2316
2276 2317
2276 2318
2277 2278
2277 2317
2277 2318
2277 2319
2278 2279
2278 2318
2278 2319
2278 2320
2279 2280
2279 2319
2279 2320
2279 2321
2280 2320
2280 2321
2281 2323
2281 2324
2282 2325
2282 2326
2283 2284
2283 2326
2283 2327
2283 2328
2284 2285
2284 2327
2284 2328
2284 2329
2285 2328
2285 2329
2285 2330
2286 2287
2286 2330
2286 2331
2286 2332
2287 2288
2287 2331
2287 2332
2288 2289
2288 2332
2288 2333
2289 2290
2289 2333
2289 2334
2290 2333
2290 2334
2290 2335
2291 2292
2291 2336
2291 2337
2291 2338
2292 2293
2292 2337
2292 2338
2292 2339
2293 2294
2293 2338
2293 2339
2294 2295
2294 2339
2294 2340
2295 2296
2295 2340
2295 2341
2296 2297
2296 2340
2296 2341
2296 2342
2297 2298
2297 2341
2297 2342
2297 2343
2298 2299
2298 2342
2298 2343
2298 2344
2299 2300
2299 2343
2299 2344
2299 2345
2300 2344
2300 2345
2300 2346
2301 2302
2301 2346
2301 2347
2301 2348
2302 2303
2302 2347
2302 2348
2302 2349
2303 2304
2303 2348
2303 2349
2303 2350
2304 2349
2304 2350
2304 2351
2305 2306
2305 2351
2305 2352
2305 2353
2306 2352
2306 2353
2306 2354
2307 2354
2307 2355
2307 2356
2308 2309
2308 2357
2308 2358
2308 2359
2309 2358
2309 2359
2309 2360
2310 2360
2310 2361
2310 2362
2311 2312
2311 2362
2311 2363
2311 2364
2312 2313
2312 2363
2312 2364
2312 2365
2313 2314
2313 2364
2313 2365
2313 2366
2314 2315
2314 2365
2314 2366
2314 2367
2315 2366
2315 2367
2316 2317
2316 2368
2317 2318
2317 2368
2317 2369
2318 2319
2318 2369
2318 2370
2319 2320
2319 2369
2319 2370
2319 2371
2320 2321
2320 2370
2320 2371
2320 2372
2321 2371
2321 2372
2321 2373
2322 2373
2322 2374
2322 2375
2323 2324
2323 2375
2323 2376
2323 2377
2324 2376
2324 2377
2325 2326
2325 2378
2326 2327
2326 2378
2326 2379
2327 2328
2327 2379
2327 2380
2328 2329
2328 2379
2328 2380
2328 2381
2329 2330
2329 2380
2329 2381
2329 2382
2330 2331
2330 2381
2330 2382
2330 2383
2331 2332
2331 2382
2331 2383
2332 2383
2332 2384
2333 2334
2333 2384
2333 2385
2333 2386
2334 2335
2334 2385
2334 2386
2334 2387
2335 2336
2335 2386
2335 2387
2335 2388
2336 2337
2336 2387
2336 2388
2336 2389
2337 2338
2337 2388
2337 2389
2337 2390
2338 2339
2338 2389
2338 2390
2338 2391
2339 2390
2339 2391
2339 2392
2340 2341
2340 2392
2340 2393
2340 2394
2341 2342
2341 2393
2341 2394
2341 2395
2342 2343
2342 2394
2342 2395
2343 2344
2343 2395
2344 2345
2345 2346
2345 2396
2346 2347
2346 2396
2346 2397
2347 2348
2347 2396
2347 2397
2348 2349
2348 2397
2348 2398
2349 2350
2349 2398
2350 2351
2350 2398
2350 2399
2351 2352
2351 2399
2351 2400
2352 2353
2352 2399
2352 2400
2352 2401
2353 2354
2353 2400
2353 2401
2353 2402
2354 2355
2354 2401
2354 2402
2355 2356
2355 2402
2355 2403
2356 2403
2357 2358
2357 2404
2358 2359
2358 2404
2358 2405
2359 2360
2359 2404
2359 2405
2360 2361
2360 2405
2361 2362
2361 2406
2362 2363
2362 2406
2362 2407
2363 2364
2363 2406
2363 2407
2363 2408
2364 2365
2364 2407
2364 2408
2365 2366
2365 2408
2365 2409
2366 2367
2366 2409
2366 2410
2367 2409
2367 2410
2367 2411
2368 2413
2368 2414
2369 2370
2370 2371
2370 2415
2371 2372
2371 2415
2371 2416
2372 2373
2372 2415
2372 2416
2372 2417
2373 2374
2373 2416
2373 2417
2373 2418
2374 2375
2374 2417
2374 2418
2374 2419
2375 2376
2375 2418
2375 2419
2375 2420
2376 2377
2376 2419
2376 2420
2376 2421
2377 2420
2377 2421
2377 2422
2378 2422
2379 2380
2379 2423
2379 2424
2380 2381
2380 2423
2380 2424
2380 2425
2381 2382
2381 2424
2381 2425
2381 2426
2382 2383
2382 2425
2382 2426
2382 2427
2383 2426
2383 2427
2383 2428
2384 2385
2384 2428
2384 2429
2385 2386
2385 2429
2385 2430
2386 2387
2386 2429
2386 2430
2386 2431
2387 2388
2387 2430
2387 2431
2388 2389
2388 2431
2388 2432
2389 2390
2389 2432
2389 2433
2390 2391
2390 2432
2390 2433
2390 2434
2391 2392
2391 2433
2391 2434
2391 2435
2392 2393
2392 2434
2392 2435
2392 2436
2393 2394
2393 2435
2393 2436
2393 2437
2394 2395
2394 2436
2394 2437
2394 2438
2395 2437
2395 2438
2395 2439
2396 2397
2396 2441
2396 2442
2396 2443
2397 2442
2397 2443
2397 2444
2398 2444
2398 2445
2399 2400
2399 2446
2399 2447
2400 2401
2400 2446
2400 2447
2400 2448
2401 2402
2401 2447
2401 2448
2401 2449
2402 2448
2402 2449
2402 2450
2403 2450
2404 2405
2404 2451
2404 2452
2405 2452
2405 2453
2406 2407
2406 2454
2406 2455
2407 2408
2407 2455
2407 2456
2408 2456
2408 2457
2409 2410
2409 2457
2409 2458
2410 2411
2410 2458
2411 2412
2411 2458
2411 2459
2412 2413
2412 2459
2412 2460
2413 2414
2413 2459
2413 2460
2413 2461
2414 2460
2414 2461
2414 2462
2415 2416
2415 2464
2415 2465
2416 2417
2416 2464
2416 2465
2416 2466
2417 2418
2417 2465
2417 2466
2417 2467
2418 2419
2418 2466
2418 2467
2418 2468
2419 2420
2419 2467
2419 2468
2419 2469
2420 2421
2420 2468
2420 2469
2420 2470
2421 2422
2421 2469
2421 2470
2421 2471
2422 2470
2422 2471
2422 2472
2423 2424
2423 2473
2423 2474
2424 2425
2424 2474
2424 2475
2425 2426
2425 2475
2425 2476
2426 2427
2426 2475
2426 2476
2427 2428
2427 2476
2428 2477
2429 2430
2429 2477
2429 2478
2429 2479
2430 2431
2430 2478
2430 2479
2431 2479
2432 2433
2432 2480
2432 2481
2433 2434
2433 2480
2433 2481
2433 2482
2434 2435
2434 2481
2434 2482
2434 2483
2435 2436
2435 2482
2435 2483
2435 2484
2436 2437
2436 2483
2436 2484
2436 2485
2437 2438
2437 2484
2437 2485
2437 2486
2438 2439
2438 2485
2438 2486
2438 2487
2439 2440
2439 2486
2439 2487
2439 2488
2440 2441
2440 2487
2440 2488
2440 2489
2441 2442
2441 2488
2441 2489
2441 2490
2442 2443
2442 2489
2442 2490
2442 2491
2443 2444
2443 2490
2443 2491
2443 2492
2444 2445
2444 2491
2444 2492
2444 2493
2445 2492
2445 2493
2445 2494
2446 2447
2446 2494
2446 2495
2447 2448
2447 2495
2447 2496
2448 2449
2448 2496
2448 2497
2449 2450
2449 2496
2449 2497
2450 2497
2451 2452
2451 2498
2451 2499
2452 2498
2452 2499
2452 2500
2453 2454
2453 2500
2453 2501
2453 2502
2454 2455
2454 2501
2454 2502
2454 2503
2455 2502
2455 2503
2455 2504
2456 2457
2456 2504
2456 2505
2456 2506
2457 2505
2457 2506
2457 2507
2458 2507
2458 2508
2459 2460
2459 2509
2459 2510
2460 2461
2460 2509
2460 2510
2460 2511
2461 2462
2461 2510
2461 2511
2461 2512
2462 2463
2462 2511
2462 2512
2462 2513
2463 2512
2463 2513
2463 2514
2464 2465
2464 2514
2464 2515
2464 2516
2465 2466
2465 2515
2465 2516
2465 2517
2466 2467
2466 2516
2466 2517
2467 2468
2467 2517
2467 2518
2468 2469
2468 2518
2468 2519
2469 2470
2469 2518
2469 2519
2470 2471
2470 2519
2470 2520
2471 2472
2471 2520
2471 2521
2472 2473
2472 2520
2472 2521
2472 2522
2473 2474
2473 2521
2473 2522
2473 2523
2474 2522
2474 2523
2474 2524
2475 2476
2475 2524
2475 2525
2475 2526
2476 2525
2476 2526
2476 2527
2477 2478
2477 2528
2477 2529
2477 2530
2478 2479
2478 2529
2478 2530
2478 2531
2479 2530
2479 2531
2480 2481
2480 2532
2480 2533
2480 2534
2481 2482
2481 2533
2481 2534
2482 2483
2482 2534
2482 2535
2483 2484
2483 2535
2483 2536
2484 2485
2484 2535
2484 2536
2484 2537
2485 2486
2485 2536
2485 2537
2485 2538
2486 2487
2486 2537
2486 2538
2486 2539
2487 2488
2487 2538
2487 2539
2487 2540
2488 2489
2488 2539
2488 2540
2488 2541
2489 2490
2489 2540
2489 2541
2489 2542
2490 2491
2490 2541
2490 2542
2490 2543
2491 2492
2491 2542
2491 2543
2491 2544
2492 2493
2492 2543
2492 2544
2492 2545
2493 2494
2493 2544
2493 2545
2493 2546
2494 2495
2494 2545
2494 2546
2494 2547
2495 2546
2495 2547
2495 2548
2496 2497
2496 2548
2496 2549
2497 2549
2497 2550
2498 2499
2498 2552
2499 2500
2499 2552
2500 2501
2500 2552
2500 2553
2501 2502
2501 2553
2502 2503
2502 2553
2502 2554
2503 2504
2503 2554
2504 2505
2504 2554
2505 2506
2505 2555
2506 2507
2506 2555
2506 2556
2507 2508
2507 2555
2507 2556
2507 2557
2508 2556
2508 2557
2508 2558
2509 2510
2509 2558
2509 2559
2509 2560
2510 2511
2510 2559
2510 2560
2510 2561
2511 2512
2511 2560
2511 2561
2511 2562
2512 2513
2512 2561
2512 2562
2513 2514
2513 2562
2513 2563
2514 2515
2514 2563
2515 2516
2515 2563
2515 2564
2516 2517
2516 2564
2516 2565
2517 2564
2517 2565
2517 2566
2518 2519
2518 2566
2518 2567
2518 2568
2519 2567
2519 2568
2519 2569
2520 2521
2520 2569
2520 2570
2521 2522
2521 2570
2521 2571
2522 2523
2522 2570
2522 2571
2522 2572
2523 2524
2523 2571
2523 2572
2524 2525
2524 2572
2524 2573
2525 2526
2525 2573
2525 2574
2526 2527
2526 2573
2526 2574
2526 2575
2527 2528
2527 2574
2527 2575
2527 2576
2528 2529
2528 2575
2528 2576
2529 2530
2529 2576
2529 2577
2530 2531
2530 2577
2530 2578
2531 2577
2531 2578
2531 2579
2532 2533
2532 2579
2532 2580
2532 2581
2533 2534
2533 2580
2533 2581
2533 2582
2534 2581
2534 2582
2534 2583
2535 2536
2535 2583
2535 2584
2536 2537
2536 2584
2537 2538
2537 2585
2538 2539
2538 2585
2538 2586
2539 2540
2539 2585
2539 2586
2539 2587
2540 2541
2540 2586
2540 2587
2540 2588
2541 2542
2541 2587
2541 2588
2541 2589
2542 2543
2542 2588
2542 2589
2542 2590
2543 2544
2543 2589
2543 2590
2543 2591
2544 2545
2544 2590
2544 2591
2545 2546
2545 2591
2545 2592
2546 2547
2546 2592
2546 2593
2547 2548
2547 2592
2547 2593
2547 2594
2548 2593
2548 2594
2548 2595
2549 2550
2549 2595
2549 2596
2549 2597
2550 2551
2550 2596
2550 2597
2550 2598
2551 2597
2551 2598
2552 2599
2552 2600
2552 2601
2553 2601
2553 2602
2554 2602
2554 2603
2554 2604
2555 2556
2555 2605
2555 2606
2556 2557
2556 2606
2557 2558
2557 2606
2558 2559
2559 2560
2560 2561
2560 2607
2561 2562
2561 2607
2561 2608
2562 2607
2562 2608
2563 2609
2563 2610
2564 2565
2564 2610
2564 2611
2564 2612
2565 2566
2565 2611
2565 2612
2566 2567
2566 2612
2567 2568
2567 2613
2568 2569
2568 2613
2569 2613
2569 2614
2570 2571
2570 2614
2570 2615
2570 2616
2571 2572
2571 2615
2571 2616
2571 2617
2572 2616
2572 2617
2572 2618
2573 2574
2573 2618
2573 2619
2573 2620
2574 2575
2574 2619
2574 2620
2574 2621
2575 2576
2575 2620
2575 2621
2575 2622
2576 2621
2576 2622
2577 2578
2577 2623
2578 2579
2578 2623
2578 2624
2579 2580
2579 2624
2580 2581
2580 2624
2580 2625
2581 2582
2581 2625
2581 2626
2582 2583
2582 2625
2582 2626
2583 2584
2583 2626
2583 2627
2584 2627
2584 2628
2585 2586
2585 2629
2585 2630
2585 2631
2586 2587
2586 2630
2586 2631
2586 2632
2587 2588
2587 2631
2587 2632
2587 2633
2588 2589
2588 2632
2588 2633
2588 2634
2589 2590
2589 2633
2589 2634
2590 2591
2590 2634
2590 2635
2591 2635
2591 2636
2592 2593
2592 2636
2593 2594
2593 2637
2594 2595
2594 2637
2595 2596
2595 2637
2595 2638
2596 2597
2596 2638
2596 2639
2597 2598
2597 2638
2597 2639
2598 2639
2599 2600
2599 2640
2599 2641
2600 2601
2600 2640
2600 2641
2600 2642
2601 2641
2601 2642
2601 2643
2602 2603
2602 2643
2602 2644
2602 2645
2603 2604
2603 2644
2603 2645
2603 2646
2604 2605
2604 2645
2604 2646
2604 2647
2605 2646
2605 2647
2606 2648
2606 2649
2607 2608
2607 2652
2607 2653
2608 2652
2608 2653
2608 2654
2609 2610
2609 2654
2609 2655
2609 2656
2610 2611
2610 2655
2610 2656
2610 2657
2611 2612
2611 2656
2611 2657
2611 2658
2612 2657
2612 2658
2613 2659
2613 2660
2613 2661
2614 2615
2614 2661
2614 2662
2614 2663
2615 2616
2615 2662
2615 2663
2615 2664
2616 2617
2616 2663
2616 2664
2616 2665
2617 2618
2617 2664
2617 2665
2617 2666
2618 2619
2618 2665
2618 2666
2619 2620
2619 2666
2619 2667
2620 2621
2620 2667
2620 2668
2621 2622
2621 2667
2621 2668
2622 2668
2622 2669
2623 2669
2623 2670
2623 2671
2624 2671
2624 2672
2624 2673
2625 2626
2625 2673
2626 2674
2627 2628
2627 2674
2627 2675
2628 2629
2628 2675
2628 2676
2629 2630
2629 2676
2629 2677
2630 2631
2630 2676
2630 2677
2630 2678
2631 2632
2631 2677
2631 2678
2632 2633
2632 2678
2633 2634
2633 2679
2634 2679
2634 2680
2635 2636
2635 2680
2635 2681
2635 2682
2636 2681
2636 2682
2637 2683
2637 2684
2638 2639
2638 2685
2638 2686
2639 2685
2639 2686
2639 2687
2640 2641
2640 2688
2641 2642
2641 2688
2641 2689
2642 2643
2642 2689
2642 2690
2643 2644
2643 2689
2643 2690
2643 2691
2644 2645
2644 2690
2644 2691
2644 2692
2645 2646
2645 2691
2645 2692
2645 2693
2646 2647
2646 2692
2646 2693
2646 2694
2647 2693
2647 2694
2647 2695
2648 2649
2648 2695
2648 2696
2648 2697
2649 2650
2649 2696
2649 2697
2650 2651
2650 2697
2650 2698
2651 2698
2652 2653
2652 2699
2652 2700
2653 2654
2653 2699
2653 2700
2653 2701
2654 2655
2654 2700
2654 2701
2654 2702
2655 2656
2655 2701
2655 2702
2655 2703
2656 2657
2656 2702
2656 2703
2656 2704
2657 2658
2657 2703
2657 2704
2657 2705
2658 2704
2658 2705
2658 2706
2659 2660
2659 2706
2659 2707
2659 2708
2660 2661
2660 2707
2660 2708
2660 2709
2661 2662
2661 2708
2661 2709
2661 2710
2662 2663
2662 2709
2662 2710
2663 2664
2663 2710
2663 2711
2664 2665
2664 2711
2664 2712
2665 2666
2665 2711
2665 2712
2665 2713
2666 2712
2666 2713
2666 2714
2667 2668
2667 2714
2667 2715
2667 2716
2668 2715
2668 2716
2669 2670
2669 2717
2670 2671
2670 2717
2670 2718
2671 2672
2671 2718
2672 2673
2672 2718
2672 2719
2673 2719
2674 2675
2674 2720
2674 2721
2674 2722
2675 2721
2675 2722
2675 2723
2676 2677
2676 2723
2676 2724
2677 2678
2677 2724
2677 2725
2678 2724
2678 2725
2678 2726
2679 2680
2679 2727
2679 2728
2679 2729
2680 2681
2680 2728
2680 2729
2680 2730
2681 2682
2681 2729
2681 2730
2681 2731
2682 2730
2682 2731
2682 2732
2683 2684
2683 2732
2683 2733
2683 2734
2684 2733
2684 2734
2684 2735
2685 2686
2685 2735
2685 2736
2685 2737
2686 2687
2686 2736
2686 2737
2686 2738
2687 2737
2687 2738
2688 2739
2689 2690
2689 2740
2690 2691
2690 2740
2690 2741
2691 2692
2691 2741
2691 2742
2692 2693
2692 2741
2692 2742
2692 2743
2693 2694
2693 2742
2693 2743
2693 2744
2694 2695
2694 2743
2694 2744
2694 2745
2695 2696
2695 2744
2695 2745
2696 2697
2696 2745
2696 2746
2697 2746
2697 2747
2698 2747
2698 2748
2699 2700
2699 2749
2699 2750
2700 2701
2700 2749
2700 2750
2700 2751
2701 2702
2701 2750
2701 2751
2701 2752
2702 2703
2702 2751
2702 2752
2703 2704
2703 2752
2704 2705
2704 2753
2705 2706
2705 2753
2705 2754
2706 2707
2706 2753
2706 2754
2706 2755
2707 2708
2707 2754
2707 2755
2707 2756
2708 2709
2708 2755
2708 2756
2708 2757
2709 2710
2709 2756
2709 2757
2709 2758
2710 2757
2710 2758
2710 2759
2711 2712
2711 2759
2711 2760
2711 2761
2712 2713
2712 2760
2712 2761
2712 2762
2713 2714
2713 2761
2713 2762
2713 2763
2714 2715
2714 2762
2714 2763
2714 2764
2715 2716
2715 2763
2715 2764
2715 2765
2716 2764
2716 2765
2716 2766
2717 2766
2718 2767
2718 2768
2719 2768
2719 2769
2720 2721
2720 2770
2720 2771
2721 2722
2721 2770
2721 2771
2721 2772
2722 2723
2722 2771
2722 2772
2722 2773
2723 2772
2723 2773
2723 2774
2724 2725
2724 2774
2724 2775
2724 2776
2725 2726
2725 2775
2725 2776
2726 2727
2726 2776
2726 2777
2727 2728
2727 2777
2727 2778
2728 2729
2728 2777
2728 2778
2729 2730
2729 2778
2730 2731
2730 2779
2731 2732
2731 2779
2731 2780
2732 2733
2732 2779
2732 2780
2733 2734
2733 2780
2733 2781
2734 2735
2734 2781
2735 2736
2735 2781
2736 2737
2736 2782
2737 2738
2737 2782
2737 2783
2738 2782
2738 2783
2739 2784
2740 2785
2740 2786
2741 2742
2741 2786
2741 2787
2741 2788
2742 2743
2742 2787
2742 2788
2742 2789
2743 2744
2743 2788
2743 2789
2743 2790
2744 2745
2744 2789
2744 2790
2744 2791
2745 2790
2745 2791
2745 2792
2746 2747
2746 2792
2746 2793
2746 2794
2747 2748
2747 2793
2747 2794
2747 2795
2748 2794
2748 2795
2748 2796
2749 2750
2749 2796
2749 2797
2750 2751
2750 2797
2750 2798
2751 2752
2751 2798
2751 2799
2752 2798
2752 2799
2752 2800
2753 2754
2753 2801
2753 2802
2753 2803
2754 2755
2754 2802
2754 2803
2755 2756
2755 2803
2756 2757
2756 2804
2757 2758
2757 2804
2757 2805
2758 2759
2758 2804
2758 2805
2759 2760
2759 2805
2759 2806
2760 2761
2760 2806
2760 2807
2761 2762
2761 2806
2761 2807
2761 2808
2762 2763
2762 2807
2762 2808
2762 2809
2763 2764
2763 2808
2763 2809
2763 2810
2764 2765
2764 2809
2764 2810
2765 2766
2765 2810
2765 2811
2766 2811
2767 2768
2767 2812
2767 2813
2767 2814
2768 2769
2768 2813
2768 2814
2768 2815
2769 2814
2769 2815
2770 2771
2770 2816
2771 2772
2771 2816
2771 2817
2772 2773
2772 2817
2773 2774
2773 2817
2773 2818
2774 2775
2774 2818
2775 2776
2775 2818
2775 2819
2776 2819
2776 2820
2777 2778
2777 2820
2777 2821
2777 2822
2778 2821
2778 2822
2778 2823
2779 2780
2779 2824
2779 2825
2779 2826
2780 2825
2780 2826
2780 2827
2781 2827
2781 2828
2781 2829
2782 2783
2782 2830
2782 2831
2782 2832
2783 2831
2783 2832
2784 2833
2784 2834
2785 2786
2785 2834
2785 2835
2786 2787
2786 2835
2786 2836
2787 2788
2787 2836
2788 2789
2788 2836
2788 2837
2789 2790
2789 2837
2789 2838
2790 2791
2790 2837
2790 2838
2790 2839
2791 2792
2791 2838
2791 2839
2791 2840
2792 2793
2792 2839
2792 2840
2792 2841
2793 2794
2793 2840
2793 2841
2793 2842
2794 2795
2794 2841
2794 2842
2795 2796
2795 2842
2795 2843
2796 2797
2796 2843
2796 2844
2797 2843
2797 2844
2797 2845
2798 2799
2798 2845
2798 2846
2798 2847
2799 2800
2799 2846
2799 2847
2799 2848
2800 2801
2800 2847
2800 2848
2800 2849
2801 2802
2801 2848
2801 2849
2801 2850
2802 2803
2802 2849
2802 2850
2802 2851
2803 2850
2803 2851
2804 2805
2804 2852
2804 2853
2804 2854
2805 2853
2805 2854
2805 2855
2806 2807
2806 2855
2806 2856
2806 2857
2807 2808
2807 2856
2807 2857
2807 2858
2808 2809
2808 2857
2808 2858
2808 2859
2809 2810
2809 2858
2809 2859
2809 2860
2810 2859
2810 2860
2810 2861
2811 2861
2811 2862
2812 2813
2812 2862
2812 2863
2813 2814
2813 2863
2813 2864
2814 2815
2814 2863
2814 2864
2814 2865
2815 2864
2815 2865
2816 2866
2816 2867
2817 2867
2817 2868
2818 2868
2818 2869
2819 2820
2819 2869
2819 2870
2820 2821
2820 2870
2820 2871
2821 2822
2821 2871
2821 2872
2822 2823
2822 2871
2822 2872
2822 2873
2823 2824
2823 2872
2823 2873
2823 2874
2824 2825
2824 2873
2824 2874
2824 2875
2825 2826
2825 2874
2825 2875
2826 2827
2826 2875
2827 2828
2827 2876
2828 2829
2828 2876
2828 2877
2829 2830
2829 2876
2829 2877
2829 2878
2830 2831
2830 2877
2830 2878
2830 2879
2831 2832
2831 2878
2831 2879
2831 2880
2832 2879
2832 2880
2833 2834
2834 2835
2837 2838
2838 2839
2839 2840
2840 2841
2841 2842
2843 2844
2844 2845
2845 2846
2846 2847
2847 2848
2848 2849
2849 2850
2850 2851
2852 2853
2853 2854
2854 2855
2855 2856
2856 2857
2857 2858
2858 2859
2859 2860
2860 2861
2863 2864
2864 2865
2866 2867
2869 2870
2871 2872
2872 2873
2873 2874
2874 2875
2876 2877
2877 2878
2878 2879
2879 2880
