# Random KSG graph
n = 60
seed = 4
type = random_ksg

vertices: 2880
edges:
1 2
1 54
1 55
2 3
2 54
2 55
2 56
3 4
3 55
3 56
3 57
4 56
4 57
5 6
5 58
5 59
6 7
6 58
6 59
6 60
7 8
7 59
7 60
7 61
8 9
8 60
8 61
8 62
9 10
9 61
9 62
9 63
10 11
10 62
10 63
10 64
11 12
11 63
11 64
12 64
12 65
13 14
13 65
13 66
13 67
14 15
14 66
14 67
15 16
15 67
15 68
16 17
16 68
16 69
17 68
17 69
18 19
18 70
18 71
19 20
19 70
19 71
19 72
20 21
20 71
20 72
20 73
21 22
21 72
21 73
21 74
22 23
22 73
22 74
22 75
23 24
23 74
23 75
23 76
24 25
24 75
24 76
24 77
25 26
25 76
25 77
25 78
26 27
26 77
26 78
27 28
27 78
27 79
28 29
28 79
28 80
29 30
29 79
29 80
29 81
30 31
30 80
30 81
30 82
31 32
31 81
31 82
31 83
32 33
32 82
32 83
33 34
33 83
33 84
34 35
34 84
34 85
35 36
35 84
35 85
35 86
36 37
36 85
36 86
36 87
37 38
37 86
37 87
37 88
38 39
38 87
38 88
38 89
39 40
39 88
39 89
39 90
40 41
40 89
40 90
40 91
41 42
41 90
41 91
41 92
42 43
42 91
42 92
42 93
43 44
43 92
43 93
43 94
44 45
44 93
44 94
44 95
45 94
45 95
46 47
46 96
47 48
47 96
47 97
48 96
48 97
48 98
49 98
49 99
50 51
50 99
50 100
50 101
51 100
51 101
51 102
52 53
52 102
52 103
52 104
53 103
53 104
54 55
54 105
54 106
55 56
55 105
55 106
55 107
56 57
56 106
56 107
57 107
57 108
58 59
58 108
58 109
58 110
59 60
59 109
59 110
59 111
60 61
60 110
60 111
60 112
61 62
61 111
61 112
61 113
62 63
62 112
62 113
63 64
63 113
63 114
64 114
64 115
65 66
65 115
65 116
65 117
66 67
66 116
66 117
67 117
67 118
68 69
68 118
68 119
68 120
69 119
69 120
70 71
70 121
70 122
71 72
71 121
71 122
71 123
72 73
72 122
72 123
72 124
73 74
73 123
73 124
74 75
74 124
75 76
76 77
76 125
77 78
77 125
77 126
78 125
78 126
78 127
79 80
79 127
79 128
79 129
80 81
80 128
80 129
80 130
81 82
81 129
81 130
81 131
82 83
82 130
82 131
82 132
83 131
83 132
83 133
84 85
84 133
84 134
85 86
85 134
86 87
86 134
86 135
87 88
87 135
87 136
88 89
88 135
88 136
88 137
89 90
89 136
89 137
90 91
90 137
90 138
91 92
91 138
91 139
92 93
92 138
92 139
92 140
93 94
93 139
93 140
93 141
94 95
94 140
94 141
94 142
95 141
95 142
95 143
96 97
96 144
96 145
96 146
97 98
97 145
97 146
97 147
98 146
98 147
98 148
99 100
99 148
99 149
100 101
100 149
100 150
101 102
101 150
101 151
102 103
102 150
102 151
102 152
103 104
103 151
103 152
103 153
104 152
104 153
105 106
105 154
106 107
106 154
106 155
107 155
107 156
108 109
108 156
108 157
109 110
109 157
110 111
110 158
111 112
111 158
111 159
112 113
112 158
112 159
112 160
113 159
113 160
113 161
114 115
114 161
114 162
115 116
115 162
116 117
118 119
118 163
118 164
119 120
119 163
119 164
119 165
120 164
120 165
120 166
121 122
121 166
121 167
121 168
122 123
122 167
122 168
122 169
123 124
123 168
123 169
123 170
124 169
124 170
124 171
125 126
125 173
125 174
125 175
126 127
126 174
126 175
126 176
127 128
127 175
127 176
128 129
128 176
128 177
129 130
129 177
130 131
130 177
130 178
131 132
131 178
131 179
132 133
132 178
132 179
132 180
133 179
133 180
133 181
134 181
134 182
134 183
135 136
135 183
135 184
135 185
136 137
136 184
136 185
136 186
137 185
137 186
137 187
138 139
138 187
138 188
138 189
139 140
139 188
139 189
139 190
140 141
140 189
140 190
140 191
141 142
141 190
141 191
141 192
142 143
142 191
142 192
142 193
143 144
143 192
143 193
143 194
144 145
144 193
144 194
144 195
145 146
145 194
145 195
145 196
146 147
146 195
146 196
146 197
147 148
147 196
147 197
147 198
148 149
148 197
148 198
148 199
149 198
149 199
149 200
150 151
150 200
150 201
150 202
151 152
151 201
151 202
151 203
152 153
152 202
152 203
152 204
153 203
153 204
154 205
154 206
155 156
155 206
156 157
156 207
157 207
157 208
158 159
158 209
158 210
158 211
159 160
159 210
159 211
160 161
160 211
160 212
161 162
161 212
161 213
162 212
162 213
162 214
163 164
163 216
163 217
163 218
164 165
164 217
164 218
164 219
165 166
165 218
165 219
166 167
166 219
166 220
167 168
167 220
167 221
168 169
168 220
168 221
168 222
169 170
169 221
169 222
169 223
170 171
170 222
170 223
171 172
171 223
171 224
172 173
172 224
172 225
173 174
173 224
173 225
173 226
174 175
174 225
174 226
174 227
175 176
175 226
175 227
175 228
176 227
176 228
176 229
177 229
177 230
178 179
178 230
178 231
179 180
179 231
179 232
180 181
180 231
180 232
180 233
181 182
181 232
181 233
181 234
182 183
182 233
182 234
182 235
183 184
183 234
183 235
183 236
184 185
184 235
184 236
184 237
185 186
185 236
185 237
185 238
186 187
186 237
186 238
186 239
187 188
187 238
187 239
188 189
188 239
189 190
189 240
190 191
190 240
190 241
191 192
191 240
191 241
192 193
192 241
192 242
193 194
193 242
194 195
194 242
194 243
195 196
195 243
196 197
196 243
196 244
197 198
197 244
197 245
198 199
198 244
198 245
198 246
199 200
199 245
199 246
200 201
200 246
200 247
201 202
201 247
201 248
202 203
202 247
202 248
203 204
203 248
205 206
206 249
207 208
207 250
207 251
208 209
208 250
208 251
208 252
209 210
209 251
209 252
209 253
210 211
210 252
210 253
210 254
211 253
211 254
211 255
212 213
212 255
212 256
212 257
213 214
213 256
213 257
213 258
214 215
214 257
214 258
214 259
215 258
215 259
215 260
216 217
216 260
216 261
216 262
217 218
217 261
217 262
217 263
218 219
218 262
218 263
218 264
219 263
219 264
219 265
220 221
220 265
220 266
220 267
221 222
221 266
221 267
222 223
222 267
222 268
223 268
223 269
224 225
224 269
224 270
224 271
225 226
225 270
225 271
225 272
226 227
226 271
226 272
227 228
227 272
227 273
228 229
228 273
228 274
229 273
229 274
229 275
230 275
230 276
230 277
231 232
231 277
231 278
232 233
232 278
233 234
233 279
234 235
234 279
234 280
235 236
235 279
235 280
235 281
236 237
236 280
236 281
236 282
237 238
237 281
237 282
237 283
238 239
238 282
238 283
238 284
239 283
239 284
239 285
240 241
240 286
240 287
240 288
241 287
241 288
241 289
242 289
242 290
242 291
243 291
243 292
244 245
244 293
244 294
245 246
245 293
245 294
245 295
246 294
246 295
246 296
247 248
247 296
247 297
247 298
248 297
248 298
249 301
249 302
249 303
250 251
250 303
250 304
250 305
251 252
251 304
251 305
252 253
252 305
253 254
253 306
254 255
254 306
255 256
255 306
256 257
256 307
257 258
257 307
257 308
258 259
258 307
258 308
258 309
259 260
259 308
259 309
259 310
260 261
260 309
260 310
260 311
261 262
261 310
261 311
261 312
262 263
262 311
262 312
262 313
263 264
263 312
263 313
263 314
264 265
264 313
264 314
264 315
265 266
265 314
265 315
266 267
266 315
266 316
267 316
267 317
268 269
268 317
268 318
268 319
269 270
269 318
269 319
269 320
270 271
270 319
270 320
270 321
271 272
271 320
271 321
271 322
272 321
272 322
272 323
273 274
273 323
273 324
273 325
274 275
274 324
274 325
274 326
275 276
275 325
275 326
276 277
276 326
276 327
277 278
277 327
277 328
278 327
278 328
278 329
279 280
279 330
279 331
279 332
280 281
280 331
280 332
280 333
281 282
281 332
281 333
282 283
282 333
283 284
283 334
284 285
284 334
284 335
285 286
285 334
285 335
285 336
286 287
286 335
286 336
286 337
287 288
287 336
287 337
288 289
288 337
288 338
289 290
289 338
289 339
290 291
290 338
290 339
290 340
291 292
291 339
291 340
291 341
292 340
292 341
292 342
293 294
293 342
293 343
294 295
294 343
294 344
295 296
295 343
295 344
295 345
296 297
296 344
296 345
296 346
297 298
297 345
297 346
297 347
298 346
298 347
299 348
300 301
300 349
300 350
301 302
301 349
301 350
302 303
302 350
302 351
303 304
303 351
304 305
304 351
304 352
305 352
305 353
306 354
306 355
306 356
307 308
307 357
308 309
308 358
309 310
309 358
309 359
310 311
310 358
310 359
311 312
311 359
311 360
312 313
312 360
312 361
313 314
313 360
313 361
313 362
314 315
314 361
314 362
314 363
315 362
315 363
315 364
316 317
316 364
316 365
316 366
317 318
317 365
317 366
317 367
318 319
318 366
318 367
318 368
319 320
319 367
319 368
319 369
320 321
320 368
320 369
320 370
321 322
321 369
321 370
321 371
322 323
322 370
322 371
323 324
323 371
323 372
324 325
324 372
324 373
325 326
325 372
325 373
325 374
326 373
326 374
326 375
327 328
327 375
327 376
328 329
328 376
328 377
329 330
329 377
329 378
330 331
330 377
330 378
331 332
331 378
332 333
332 379
333 379
333 380
334 335
334 381
334 382
334 383
335 336
335 382
335 383
335 384
336 337
336 383
336 384
337 384
337 385
338 339
338 385
338 386
338 387
339 340
339 386
339 387
339 388
340 341
340 387
340 388
341 342
341 388
341 389
342 389
342 390
343 344
343 390
343 391
343 392
344 345
344 391
344 392
345 346
345 392
345 393
346 347
346 393
346 394
347 393
347 394
348 395
349 350
349 396
349 397
350 396
350 397
350 398
351 398
352 353
352 399
353 354
353 399
353 400
354 355
354 400
354 401
355 356
355 400
355 401
355 402
356 357
356 401
356 402
357 402
357 403
358 359
358 404
358 405
359 405
359 406
360 361
360 406
360 407
360 408
361 362
361 407
361 408
361 409
362 363
362 408
362 409
362 410
363 364
363 409
363 410
363 411
364 365
364 410
364 411
365 366
365 411
366 367
366 412
367 368
367 412
367 413
368 369
368 412
368 413
369 370
369 413
369 414
370 371
370 414
371 414
371 415
372 373
372 415
372 416
372 417
373 374
373 416
373 417
374 375
374 417
374 418
375 376
375 418
375 419
376 418
376 419
376 420
377 378
377 420
377 421
377 422
378 421
378 422
378 423
379 380
379 424
379 425
379 426
380 381
380 425
380 426
380 427
381 382
381 426
381 427
381 428
382 383
382 427
382 428
383 384
383 428
383 429
384 429
384 430
385 386
385 430
385 431
385 432
386 387
386 431
386 432
386 433
387 388
387 432
387 433
387 434
388 433
388 434
388 435
389 390
389 435
389 436
390 391
390 436
390 437
391 392
391 437
391 438
392 437
392 438
392 439
393 394
393 439
393 440
393 441
394 440
394 441
394 442
395 442
395 443
396 397
396 444
396 445
397 398
397 444
397 445
397 446
398 445
398 446
398 447
399 448
399 449
399 450
400 401
400 450
400 451
401 402
401 451
401 452
402 451
402 452
402 453
403 404
403 453
403 454
403 455
404 405
404 454
404 455
404 456
405 455
405 456
405 457
406 407
406 457
406 458
406 459
407 408
407 458
407 459
407 460
408 409
408 459
408 460
408 461
409 410
409 460
409 461
410 411
410 461
410 462
411 462
411 463
412 413
412 464
412 465
413 465
413 466
414 466
414 467
414 468
415 416
415 468
415 469
416 417
416 469
417 469
418 419
418 470
418 471
419 420
419 470
419 471
419 472
420 421
420 471
420 472
421 422
421 472
421 473
422 423
422 473
422 474
423 424
423 473
423 474
424 425
424 474
424 475
425 426
425 475
426 427
426 475
426 476
427 428
427 476
427 477
428 476
428 477
429 430
429 478
429 479
430 431
430 478
430 479
431 432
431 479
431 480
432 433
432 480
432 481
433 434
433 480
433 481
433 482
434 435
434 481
434 482
434 483
435 436
435 482
435 483
435 484
436 483
436 484
437 438
437 485
438 439
438 485
438 486
439 440
439 485
439 486
439 487
440 441
440 486
440 487
441 442
441 487
441 488
442 443
442 488
442 489
443 488
443 489
444 445
444 490
444 491
445 446
445 490
445 491
445 492
446 447
446 491
446 492
446 493
447 448
447 492
447 493
448 449
448 493
448 494
449 450
449 494
449 495
450 494
450 495
450 496
451 452
451 496
451 497
451 498
452 453
452 497
452 498
452 499
453 454
453 498
453 499
453 500
454 455
454 499
454 500
454 501
455 456
455 500
455 501
455 502
456 457
456 501
456 502
456 503
457 458
457 502
457 503
457 504
458 459
458 503
458 504
458 505
459 460
459 504
459 505
460 461
460 505
461 506
462 463
462 506
462 507
462 508
463 464
463 507
463 508
463 509
464 465
464 508
464 509
464 510
465 509
465 510
465 511
466 467
466 511
466 512
466 513
467 468
467 512
467 513
467 514
468 513
468 514
468 515
469 515
469 516
469 517
470 471
470 518
471 472
471 518
471 519
472 519
473 474
473 520
473 521
474 520
474 521
474 522
475 522
475 523
475 524
476 477
476 524
476 525
477 525
477 526
478 479
478 526
478 527
479 527
479 528
480 481
480 528
480 529
481 482
481 529
481 530
482 483
482 530
482 531
483 484
483 530
483 531
483 532
484 531
484 532
484 533
485 486
485 534
485 535
486 487
486 535
486 536
487 535
487 536
488 489
488 537
488 538
489 537
489 538
490 491
490 539
491 492
491 539
491 540
492 493
492 540
492 541
493 540
493 541
493 542
494 495
494 542
494 543
494 544
495 496
495 543
495 544
495 545
496 497
496 544
496 545
496 546
497 498
497 545
497 546
497 547
498 499
498 546
498 547
498 548
499 500
499 547
499 548
499 549
500 501
500 548
500 549
500 550
501 502
501 549
501 550
501 551
502 503
502 550
502 551
502 552
503 504
503 551
503 552
503 553
504 505
504 552
504 553
504 554
505 553
505 554
506 507
507 508
507 555
508 509
508 555
508 556
509 510
509 555
509 556
509 557
510 511
510 556
510 557
510 558
511 512
511 557
511 558
512 513
512 558
512 559
513 514
513 559
513 560
514 515
514 559
514 560
514 561
515 516
515 560
515 561
515 562
516 517
516 561
516 562
516 563
517 562
517 563
517 564
518 564
518 565
519 565
519 566
519 567
520 521
520 567
520 568
520 569
521 522
521 568
521 569
521 570
522 523
522 569
522 570
522 571
523 524
523 570
523 571
524 571
524 572
525 526
525 572
525 573
525 574
526 527
526 573
526 574
526 575
527 574
527 575
527 576
528 529
528 576
528 577
529 577
529 578
530 531
530 578
530 579
531 532
531 579
531 580
532 533
532 579
532 580
532 581
533 534
533 580
533 581
534 581
534 582
535 536
535 582
535 583
535 584
536 583
536 584
536 585
537 538
537 585
537 586
537 587
538 586
538 587
539 588
540 541
540 589
540 590
541 542
541 589
541 590
541 591
542 543
542 590
542 591
542 592
543 544
543 591
543 592
543 593
544 545
544 592
544 593
544 594
545 546
545 593
545 594
546 547
546 594
546 595
547 548
547 595
547 596
548 549
548 595
548 596
548 597
549 550
549 596
549 597
550 551
550 597
551 552
551 598
552 553
552 598
552 599
553 554
553 598
553 599
553 600
554 599
554 600
554 601
555 556
555 604
555 605
555 606
556 557
556 605
556 606
556 607
557 558
557 606
557 607
558 607
558 608
559 560
559 608
559 609
559 610
560 561
560 609
560 610
560 611
561 562
561 610
561 611
561 612
562 563
562 611
562 612
562 613
563 564
563 612
563 613
563 614
564 613
564 614
564 615
565 566
565 615
565 616
565 617
566 567
566 616
566 617
566 618
567 568
567 617
567 618
568 569
568 618
568 619
569 570
569 619
569 620
570 571
570 619
570 620
570 621
571 620
571 621
571 622
572 573
572 622
572 623
573 574
573 623
573 624
574 575
574 624
574 625
575 576
575 624
575 625
575 626
576 625
576 626
576 627
577 578
577 627
577 628
577 629
578 628
578 629
578 630
579 580
579 630
579 631
580 581
580 631
580 632
581 632
581 633
582 583
582 633
583 584
583 634
584 585
584 634
584 635
585 586
585 634
585 635
586 587
586 635
586 636
587 636
588 637
588 638
589 590
589 638
589 639
590 591
590 639
591 592
591 639
591 640
592 593
592 640
592 641
593 594
593 640
593 641
593 642
594 641
594 642
594 643
595 596
595 643
595 644
595 645
596 597
596 644
596 645
596 646
597 645
597 646
597 647
598 599
598 648
598 649
599 600
599 648
599 649
600 601
600 649
600 650
601 602
601 650
601 651
602 603
602 650
602 651
602 652
603 604
603 651
603 652
604 605
604 652
604 653
605 606
605 653
605 654
606 607
606 653
606 654
606 655
607 654
607 655
607 656
608 609
608 656
608 657
608 658
609 610
609 657
609 658
609 659
610 611
610 658
610 659
610 660
611 612
611 659
611 660
611 661
612 613
612 660
612 661
612 662
613 614
613 661
613 662
613 663
614 615
614 662
614 663
614 664
615 616
615 663
615 664
616 617
616 664
616 665
617 618
617 665
618 665
618 666
619 620
619 666
619 667
620 621
620 667
620 668
621 622
621 668
621 669
622 623
622 668
622 669
622 670
623 669
623 670
624 625
624 671
624 672
625 626
625 671
625 672
625 673
626 627
626 672
626 673
626 674
627 628
627 673
627 674
627 675
628 629
628 674
628 675
629 630
629 675
630 631
630 676
631 676
631 677
632 633
632 677
632 678
632 679
633 678
633 679
633 680
634 635
634 681
634 682
635 682
635 683
636 683
636 684
637 638
637 685
638 685
638 686
639 686
639 687
639 688
640 641
640 688
640 689
640 690
641 642
641 689
641 690
641 691
642 643
642 690
642 691
642 692
643 644
643 691
643 692
643 693
644 645
644 692
644 693
644 694
645 646
645 693
645 694
645 695
646 647
646 694
646 695
646 696
647 695
647 696
648 649
648 697
649 697
649 698
650 651
650 698
650 699
651 652
651 699
651 700
652 700
653 654
653 701
654 655
654 701
654 702
655 656
655 702
655 703
656 657
656 702
656 703
656 704
657 658
657 703
657 704
657 705
658 659
658 704
658 705
658 706
659 660
659 705
659 706
659 707
660 661
660 706
660 707
660 708
661 662
661 707
661 708
661 709
662 663
662 708
662 709
662 710
663 664
663 709
663 710
663 711
664 710
664 711
664 712
665 712
665 713
666 667
666 713
667 714
668 669
668 714
668 715
669 670
669 715
670 715
671 672
671 716
671 717
672 673
672 716
672 717
673 674
673 717
673 718
674 675
674 718
674 719
675 718
675 719
676 677
676 720
676 721
677 678
677 721
678 679
678 721
679 680
679 722
680 681
680 722
680 723
681 722
681 723
682 683
682 724
682 725
683 684
683 724
683 725
684 725
685 726
685 727
686 687
686 727
686 728
686 729
687 688
687 728
687 729
688 689
688 729
688 730
689 690
689 730
689 731
690 691
690 730
690 731
690 732
691 692
691 731
691 732
691 733
692 693
692 732
692 733
693 694
693 733
694 695
694 734
695 696
695 734
695 735
696 734
696 735
696 736
697 698
697 737
697 738
698 699
698 737
698 738
698 739
699 738
699 739
699 740
700 740
700 741
700 742
701 742
701 743
702 703
702 744
703 704
703 744
703 745
704 705
704 745
704 746
705 706
705 745
705 746
705 747
706 707
706 746
706 747
706 748
707 708
707 747
707 748
707 749
708 709
708 748
708 749
709 710
709 749
709 750
710 711
710 750
710 751
711 712
711 750
711 751
711 752
712 751
712 752
712 753
713 753
713 754
713 755
714 756
714 757
715 758
716 717
716 759
716 760
716 761
717 760
717 761
717 762
718 719
718 762
718 763
718 764
719 763
719 764
719 765
720 765
720 766
720 767
721 767
721 768
721 769
722 723
722 770
722 771
723 771
723 772
724 725
724 772
724 773
725 773
725 774
726 727
726 775
726 776
727 728
727 775
727 776
727 777
728 729
728 776
728 777
728 778
729 777
729 778
729 779
730 731
730 779
731 732
731 780
732 733
732 780
732 781
733 780
733 781
733 782
734 735
734 783
734 784
735 736
735 784
735 785
736 784
736 785
736 786
737 738
737 786
737 787
737 788
738 739
738 787
738 788
738 789
739 740
739 788
739 789
740 741
740 789
741 742
741 790
742 743
742 790
742 791
743 790
743 791
743 792
744 792
744 793
745 746
745 793
745 794
745 795
746 747
746 794
746 795
746 796
747 748
747 795
747 796
747 797
748 749
748 796
748 797
748 798
749 797
749 798
749 799
750 751
750 799
750 800
751 752
751 800
751 801
752 753
752 801
752 802
753 754
753 801
753 802
753 803
754 755
754 802
754 803
754 804
755 756
755 803
755 804
755 805
756 757
756 804
756 805
756 806
757 805
757 806
757 807
758 807
758 808
758 809
759 760
759 809
759 810
759 811
760 761
760 810
760 811
760 812
761 762
761 811
761 812
761 813
762 763
762 812
762 813
762 814
763 764
763 813
763 814
763 815
764 765
764 814
764 815
764 816
765 766
765 815
765 816
765 817
766 767
766 816
766 817
766 818
767 768
767 817
767 818
768 769
768 818
768 819
769 770
769 819
769 820
770 771
770 819
770 820
771 820
771 821
772 773
772 821
772 822
772 823
773 822
773 823
773 824
774 824
775 776
775 825
775 826
776 777
776 825
776 826
777 778
777 826
778 779
778 827
779 827
779 828
780 781
780 829
780 830
781 782
781 830
781 831
782 783
782 830
782 831
782 832
783 831
783 832
784 785
785 786
785 833
786 787
786 833
786 834
787 788
787 833
787 834
787 835
788 789
788 834
788 835
788 836
789 835
789 836
789 837
790 791
790 838
790 839
791 792
791 839
791 840
792 839
792 840
792 841
793 794
793 841
793 842
793 843
794 795
794 842
794 843
794 844
795 796
795 843
795 844
795 845
796 797
796 844
796 845
796 846
797 798
797 845
797 846
798 799
798 846
798 847
799 800
799 847
799 848
800 847
800 848
801 802
801 849
802 803
802 849
803 804
803 850
804 805
804 850
804 851
805 806
805 850
805 851
805 852
806 807
806 851
806 852
806 853
807 808
807 852
807 853
807 854
808 809
808 853
808 854
808 855
809 810
809 854
809 855
809 856
810 811
810 855
810 856
811 812
811 856
811 857
812 813
812 857
812 858
813 814
813 857
813 858
813 859
814 815
814 858
814 859
815 816
815 859
815 860
816 817
816 860
816 861
817 818
817 860
817 861
818 861
818 862
819 820
819 862
819 863
820 863
820 864
821 822
821 864
821 865
821 866
822 823
822 865
822 866
823 824
823 866
823 867
824 867
824 868
825 826
825 869
825 870
826 869
826 870
826 871
827 828
827 872
827 873
828 829
828 872
828 873
828 874
829 873
829 874
830 831
830 875
830 876
831 832
831 875
831 876
831 877
832 876
832 877
832 878
833 834
833 880
834 835
834 880
834 881
835 836
835 880
835 881
836 837
836 881
836 882
837 838
837 882
837 883
838 882
838 883
838 884
839 840
839 884
839 885
839 886
840 841
840 885
840 886
840 887
841 842
841 886
841 887
841 888
842 843
842 887
842 888
842 889
843 844
843 888
843 889
844 845
844 889
844 890
845 846
845 890
845 891
846 890
846 891
846 892
847 848
847 892
847 893
847 894
848 893
848 894
848 895
849 895
849 896
849 897
850 851
850 898
850 899
851 852
851 899
851 900
852 853
852 900
852 901
853 854
853 900
853 901
853 902
854 855
854 901
854 902
855 856
855 902
855 903
856 903
856 904
857 858
857 904
857 905
857 906
858 859
858 905
858 906
859 906
859 907
860 861
860 907
860 908
860 909
861 908
861 909
861 910
862 910
862 911
862 912
863 864
863 912
863 913
863 914
864 865
864 913
864 914
865 866
865 914
865 915
866 915
866 916
867 868
867 916
867 917
868 917
869 870
869 918
869 919
870 871
870 918
870 919
870 920
871 919
871 920
871 921
872 873
872 921
872 922
873 874
873 922
873 923
874 922
874 923
874 924
875 876
875 924
875 925
875 926
876 877
876 925
876 926
876 927
877 878
877 926
877 927
877 928
878 879
878 927
878 928
879 928
879 929
880 881
880 930
880 931
880 932
881 931
881 932
881 933
882 883
882 933
882 934
882 935
883 884
883 934
883 935
883 936
884 885
884 935
884 936
884 937
885 886
885 936
885 937
885 938
886 887
886 937
886 938
886 939
887 888
887 938
887 939
887 940
888 889
888 939
888 940
888 941
889 940
889 941
889 942
890 891
890 942
890 943
891 892
891 943
891 944
892 893
892 944
893 894
893 944
893 945
894 895
894 945
894 946
895 896
895 945
895 946
895 947
896 897
896 946
896 947
896 948
897 898
897 947
897 948
897 949
898 899
898 948
898 949
899 949
900 901
900 950
900 951
901 902
901 950
901 951
901 952
902 951
902 952
903 904
903 953
903 954
904 905
904 953
904 954
904 955
905 906
905 954
905 955
905 956
906 955
906 956
907 908
907 957
907 958
908 909
908 957
908 958
909 910
909 958
910 911
910 959
911 912
911 959
911 960
912 913
912 959
912 960
912 961
913 914
913 960
913 961
913 962
914 961
914 962
914 963
915 916
915 963
915 964
915 965
916 964
916 965
916 966
917 966
918 919
918 967
918 968
919 920
919 967
919 968
920 921
920 968
920 969
921 969
921 970
922 923
922 970
922 971
922 972
923 924
923 971
923 972
924 925
924 972
924 973
925 926
925 973
925 974
926 927
926 973
926 974
926 975
927 928
927 974
927 975
927 976
928 975
928 976
928 977
929 930
929 977
929 978
929 979
930 931
930 978
930 979
930 980
931 932
931 979
931 980
931 981
932 933
932 980
932 981
933 934
933 981
933 982
934 935
934 982
935 936
935 982
935 983
936 937
936 983
936 984
937 938
937 983
937 984
938 939
938 984
939 940
940 941
940 985
941 942
941 985
941 986
942 943
942 985
942 986
942 987
943 986
943 987
943 988
944 988
944 989
944 990
945 946
945 990
945 991
946 947
946 991
946 992
947 948
947 991
947 992
947 993
948 949
948 992
948 993
948 994
949 993
949 994
950 951
950 995
950 996
951 952
951 995
951 996
951 997
952 996
952 997
953 954
953 998
953 999
954 955
954 998
954 999
955 956
955 999
955 1000
956 1000
957 958
957 1001
958 1001
958 1002
959 960
959 1003
959 1004
960 961
960 1003
960 1004
960 1005
961 962
961 1004
961 1005
962 963
962 1005
962 1006
963 964
963 1006
963 1007
964 965
964 1006
964 1007
964 1008
965 966
965 1007
965 1008
965 1009
966 1008
966 1009
966 1010
967 968
967 1011
968 1011
968 1012
969 970
969 1012
969 1013
969 1014
970 971
970 1013
970 1014
970 1015
971 972
971 1014
971 1015
971 1016
972 1015
972 1016
972 1017
973 974
973 1017
973 1018
973 1019
974 975
974 1018
974 1019
975 976
975 1019
976 977
976 1020
977 978
977 1020
977 1021
978 979
978 1020
978 1021
978 1022
979 980
979 1021
979 1022
980 981
980 1022
980 1023
981 1023
982 1024
982 1025
983 984
983 1025
983 1026
984 1026
984 1027
985 986
985 1029
985 1030
986 987
986 1030
986 1031
987 988
987 1031
987 1032
988 989
988 1031
988 1032
988 1033
989 990
989 1032
989 1033
989 1034
990 1033
990 1034
990 1035
991 992
991 1035
991 1036
992 993
992 1036
992 1037
993 994
993 1037
994 1037
995 996
995 1038
995 1039
995 1040
996 997
996 1039
996 1040
996 1041
997 1040
997 1041
998 999
998 1042
999 1042
999 1043
1000 1043
1000 1044
1001 1045
1001 1046
1002 1046
1002 1047
1002 1048
1003 1004
1003 1048
1003 1049
1004 1005
1004 1049
1004 1050
1005 1050
1005 1051
1006 1007
1006 1051
1006 1052
1006 1053
1007 1008
1007 1052
1007 1053
1007 1054
1008 1009
1008 1053
1008 1054
1008 1055
1009 1010
1009 1054
1009 1055
1009 1056
1010 1055
1010 1056
1011 1057
1011 1058
1012 1013
1012 1058
1012 1059
1012 1060
1013 1014
1013 1059
1013 1060
1013 1061
1014 1015
1014 1060
1014 1061
1014 1062
1015 1016
1015 1061
1015 1062
1015 1063
1016 1017
1016 1062
1016 1063
1016 1064
1017 1018
1017 1063
1017 1064
1018 1019
1018 1064
1018 1065
1019 1065
1019 1066
1020 1021
1020 1067
1020 1068
1020 1069
1021 1022
1021 1068
1021 1069
1021 1070
1022 1069
1022 1070
1022 1071
1023 1071
1023 1072
1023 1073
1024 1025
1024 1073
1024 1074
1024 1075
1025 1026
1025 1074
1025 1075
1025 1076
1026 1075
1026 1076
1026 1077
1027 1028
1027 1077
1028 1029
1028 1078
1029 1030
1029 1078
1029 1079
1030 1078
1030 1079
1030 1080
1031 1032
1031 1080
1031 1081
1032 1033
1032 1081
1032 1082
1033 1034
1033 1081
1033 1082
1034 1035
1034 1082
1034 1083
1035 1036
1035 1083
1035 1084
1036 1083
1036 1084
1036 1085
1037 1085
1037 1086
1038 1039
1038 1087
1038 1088
1038 1089
1039 1040
1039 1088
1039 1089
1040 1041
1040 1089
1040 1090
1041 1090
1041 1091
1042 1043
1042 1092
1042 1093
1042 1094
1043 1044
1043 1093
1043 1094
1044 1094
1044 1095
1045 1046
1045 1095
1045 1096
1046 1047
1046 1096
1046 1097
1047 1048
1047 1096
1047 1097
1047 1098
1048 1049
1048 1097
1048 1098
1048 1099
1049 1098
1049 1099
1049 1100
1050 1051
1050 1100
1051 1052
1051 1101
1052 1053
1052 1101
1052 1102
1053 1054
1053 1101
1053 1102
1053 1103
1054 1055
1054 1102
1054 1103
1054 1104
1055 1056
1055 1103
1055 1104
1055 1105
1056 1104
1056 1105
1057 1058
1057 1106
1057 1107
1058 1059
1058 1106
1058 1107
1058 1108
1059 1060
1059 1107
1059 1108
1059 1109
1060 1061
1060 1108
1060 1109
1060 1110
1061 1062
1061 1109
1061 1110
1061 1111
1062 1063
1062 1110
1062 1111
1062 1112
1063 1064
1063 1111
1063 1112
1063 1113
1064 1112
1064 1113
1065 1066
1065 1114
1066 1067
1066 1114
1066 1115
1067 1068
1067 1114
1067 1115
1067 1116
1068 1069
1068 1115
1068 1116
1069 1070
1069 1116
1069 1117
1070 1071
1070 1117
1070 1118
1071 1072
1071 1117
1071 1118
1071 1119
1072 1073
1072 1118
1072 1119
1072 1120
1073 1074
1073 1119
1073 1120
1073 1121
1074 1075
1074 1120
1074 1121
1074 1122
1075 1076
1075 1121
1075 1122
1075 1123
1076 1077
1076 1122
1076 1123
1076 1124
1077 1123
1077 1124
1077 1125
1078 1079
1078 1126
1079 1080
1079 1127
1080 1127
1081 1082
1081 1128
1082 1128
1082 1129
1083 1084
1083 1129
1083 1130
1083 1131
1084 1085
1084 1130
1084 1131
1084 1132
1085 1086
1085 1131
1085 1132
1085 1133
1086 1132
1086 1133
1086 1134
1087 1088
1087 1134
1087 1135
1087 1136
1088 1089
1088 1135
1088 1136
1088 1137
1089 1136
1089 1137
1089 1138
1090 1091
1090 1138
1091 1092
1092 1093
1092 1139
1093 1094
1093 1139
1094 1139
1094 1140
1095 1140
1095 1141
1095 1142
1096 1097
1096 1142
1096 1143
1096 1144
1097 1098
1097 1143
1097 1144
1097 1145
1098 1099
1098 1144
1098 1145
1098 1146
1099 1100
1099 1145
1099 1146
1099 1147
1100 1146
1100 1147
1100 1148
1101 1102
1101 1149
1101 1150
1102 1103
1102 1150
1102 1151
1103 1104
1103 1150
1103 1151
1103 1152
1104 1105
1104 1151
1104 1152
1104 1153
1105 1152
1105 1153
1106 1107
1106 1154
1106 1155
1107 1108
1107 1154
1107 1155
1108 1109
1108 1155
1108 1156
1109 1110
1109 1156
1109 1157
1110 1111
1110 1156
1110 1157
1110 1158
1111 1112
1111 1157
1111 1158
1111 1159
1112 1113
1112 1158
1112 1159
1112 1160
1113 1159
1113 1160
1114 1115
1114 1161
1114 1162
1115 1116
1115 1162
1115 1163
1116 1163
1117 1118
1117 1164
1117 1165
1118 1119
1118 1164
1118 1165
1119 1120
1119 1165
1119 1166
1120 1121
1120 1166
1120 1167
1121 1122
1121 1166
1121 1167
1121 1168
1122 1123
1122 1167
1122 1168
1122 1169
1123 1124
1123 1168
1123 1169
1123 1170
1124 1125
1124 1169
1124 1170
1124 1171
1125 1126
1125 1170
1125 1171
1125 1172
1126 1171
1126 1172
1127 1173
1127 1174
1128 1175
1128 1176
1129 1130
1129 1176
1129 1177
1130 1131
1130 1177
1130 1178
1131 1132
1131 1177
1131 1178
1131 1179
1132 1133
1132 1178
1132 1179
1132 1180
1133 1134
1133 1179
1133 1180
1134 1135
1134 1180
1135 1136
1135 1181
1136 1137
1136 1181
1136 1182
1137 1138
1137 1181
1137 1182
1137 1183
1138 1182
1138 1183
1138 1184
1139 1186
1139 1187
1139 1188
1140 1141
1140 1188
1140 1189
1141 1142
1141 1189
1141 1190
1142 1143
1142 1190
1143 1144
1143 1190
1143 1191
1144 1145
1144 1191
1144 1192
1145 1146
1145 1191
1145 1192
1145 1193
1146 1147
1146 1192
1146 1193
1146 1194
1147 1148
1147 1193
1147 1194
1148 1149
1148 1194
1148 1195
1149 1195
1150 1151
1150 1196
1151 1152
1151 1196
1152 1153
1152 1196
1152 1197
1153 1197
1154 1155
1154 1198
1154 1199
1155 1198
1155 1199
1155 1200
1156 1157
1156 1200
1156 1201
1156 1202
1157 1158
1157 1201
1157 1202
1157 1203
1158 1159
1158 1202
1158 1203
1158 1204
1159 1160
1159 1203
1159 1204
1159 1205
1160 1204
1160 1205
1160 1206
1161 1162
1161 1206
1161 1207
1161 1208
1162 1207
1162 1208
1162 1209
1163 1209
1163 1210
1163 1211
1164 1165
1164 1211
1164 1212
1165 1212
1165 1213
1166 1167
1166 1213
1166 1214
1166 1215
1167 1168
1167 1214
1167 1215
1167 1216
1168 1169
1168 1215
1168 1216
1168 1217
1169 1170
1169 1216
1169 1217
1170 1171
1170 1217
1170 1218
1171 1172
1171 1218
1171 1219
1172 1218
1172 1219
1173 1174
1173 1220
1174 1220
1174 1221
1175 1176
1175 1221
1175 1222
1176 1222
1176 1223
1177 1178
1177 1223
1177 1224
1177 1225
1178 1179
1178 1224
1178 1225
1179 1180
1179 1225
1180 1226
1181 1182
1181 1227
1181 1228
1181 1229
1182 1183
1182 1228
1182 1229
1183 1184
1183 1229
1183 1230
1184 1185
1184 1230
1184 1231
1185 1186
1185 1230
1185 1231
1185 1232
1186 1187
1186 1231
1186 1232
1186 1233
1187 1188
1187 1232
1187 1233
1188 1189
1188 1233
1188 1234
1189 1234
1190 1235
1191 1192
1191 1235
1191 1236
1192 1193
1192 1236
1192 1237
1193 1194
1193 1237
1193 1238
1194 1237
1194 1238
1195 1239
1196 1240
1196 1241
1197 1241
1198 1199
1198 1242
1198 1243
1199 1200
1199 1242
1199 1243
1199 1244
1200 1201
1200 1243
1200 1244
1200 1245
1201 1202
1201 1244
1201 1245
1201 1246
1202 1203
1202 1245
1202 1246
1202 1247
1203 1204
1203 1246
1203 1247
1203 1248
1204 1205
1204 1247
1204 1248
1205 1206
1205 1248
1205 1249
1206 1207
1206 1249
1206 1250
1207 1208
1207 1249
1207 1250
1207 1251
1208 1209
1208 1250
1208 1251
1208 1252
1209 1210
1209 1251
1209 1252
1209 1253
1210 1211
1210 1252
1210 1253
1210 1254
1211 1253
1211 1254
1211 1255
1212 1213
1212 1255
1212 1256
1213 1214
1213 1256
1213 1257
1214 1215
1214 1257
1214 1258
1215 1216
1215 1257
1215 1258
1215 1259
1216 1217
1216 1258
1216 1259
1216 1260
1217 1259
1217 1260
1218 1219
1218 1261
1219 1261
1220 1262
1220 1263
1221 1263
1221 1264
1222 1223
1222 1264
1223 1224
1223 1265
1224 1225
1224 1265
1224 1266
1225 1265
1225 1266
1226 1227
1226 1267
1226 1268
1226 1269
1227 1228
1227 1268
1227 1269
1227 1270
1228 1229
1228 1269
1228 1270
1228 1271
1229 1270
1229 1271
1229 1272
1230 1231
1230 1272
1230 1273
1230 1274
1231 1232
1231 1273
1231 1274
1232 1233
1232 1274
1232 1275
1233 1275
1233 1276
1234 1276
1234 1277
1235 1236
1235 1278
1235 1279
1235 1280
1236 1279
1236 1280
1236 1281
1237 1238
1237 1281
1237 1282
1237 1283
1238 1282
1238 1283
1238 1284
1239 1284
1239 1285
1239 1286
1240 1286
1240 1287
1240 1288
1241 1288
1241 1289
1242 1243
1242 1290
1243 1244
1243 1290
1243 1291
1244 1245
1244 1291
1244 1292
1245 1246
1245 1291
1245 1292
1246 1247
1246 1292
1246 1293
1247 1248
1247 1293
1248 1293
1248 1294
1249 1250
1249 1294
1249 1295
1249 1296
1250 1251
1250 1295
1250 1296
1250 1297
1251 1252
1251 1296
1251 1297
1252 1253
1252 1297
1252 1298
1253 1254
1253 1298
1253 1299
1254 1255
1254 1298
1254 1299
1255 1256
1255 1299
1256 1300
1257 1258
1257 1300
1257 1301
1257 1302
1258 1259
1258 1301
1258 1302
1258 1303
1259 1260
1259 1302
1259 1303
1260 1303
1260 1304
1261 1305
1261 1306
1262 1263
1262 1306
1262 1307
1262 1308
1263 1307
1263 1308
1263 1309
1264 1309
1264 1310
1264 1311
1265 1266
1265 1312
1265 1313
1265 1314
1266 1313
1266 1314
1266 1315
1267 1268
1267 1315
1267 1316
1268 1269
1268 1316
1268 1317
1269 1270
1269 1317
1269 1318
1270 1271
1270 1317
1270 1318
1271 1272
1271 1318
1271 1319
1272 1273
1272 1319
1272 1320
1273 1274
1273 1319
1273 1320
1273 1321
1274 1320
1274 1321
1274 1322
1275 1276
1275 1322
1275 1323
1275 1324
1276 1323
1276 1324
1276 1325
1277 1278
1277 1325
1277 1326
1277 1327
1278 1279
1278 1326
1278 1327
1278 1328
1279 1280
1279 1327
1279 1328
1279 1329
1280 1281
1280 1328
1280 1329
1280 1330
1281 1282
1281 1329
1281 1330
1281 1331
1282 1283
1282 1330
1282 1331
1282 1332
1283 1284
1283 1331
1283 1332
1284 1285
1284 1332
1284 1333
1285 1286
1285 1333
1285 1334
1286 1287
1286 1333
1286 1334
1286 1335
1287 1288
1287 1334
1287 1335
1288 1335
1288 1336
1289 1336
1290 1337
1290 1338
1291 1292
1291 1338
1291 1339
1292 1339
1292 1340
1293 1340
1293 1341
1293 1342
1294 1295
1294 1342
1294 1343
1295 1296
1295 1343
1295 1344
1296 1297
1296 1343
1296 1344
1296 1345
1297 1344
1297 1345
1297 1346
1298 1299
1298 1346
1298 1347
1299 1347
1300 1301
1300 1348
1300 1349
1300 1350
1301 1302
1301 1349
1301 1350
1301 1351
1302 1303
1302 1350
1302 1351
1303 1351
1303 1352
1304 1352
1304 1353
1305 1306
1305 1354
1306 1307
1306 1354
1307 1308
1307 1354
1307 1355
1308 1309
1308 1355
1308 1356
1309 1310
1309 1355
1309 1356
1309 1357
1310 1311
1310 1356
1310 1357
1311 1312
1311 1357
1312 1313
1313 1314
1313 1358
1314 1315
1314 1358
1314 1359
1315 1316
1315 1358
1315 1359
1315 1360
1316 1359
1316 1360
1316 1361
1317 1318
1317 1361
1317 1362
1317 1363
1318 1362
1318 1363
1318 1364
1319 1320
1319 1364
1319 1365
1319 1366
1320 1321
1320 1365
1320 1366
1320 1367
1321 1322
1321 1366
1321 1367
1322 1323
1322 1367
1322 1368
1323 1324
1323 1368
1323 1369
1324 1325
1324 1368
1324 1369
1324 1370
1325 1326
1325 1369
1325 1370
1325 1371
1326 1327
1326 1370
1326 1371
1326 1372
1327 1328
1327 1371
1327 1372
1327 1373
1328 1329
1328 1372
1328 1373
1328 1374
1329 1330
1329 1373
1329 1374
1329 1375
1330 1331
1330 1374
1330 1375
1331 1332
1331 1375
1331 1376
1332 1376
1333 1334
1333 1377
1333 1378
1334 1335
1334 1377
1334 1378
1334 1379
1335 1378
1335 1379
1336 1380
1336 1381
1337 1338
1337 1382
1338 1339
1338 1382
1338 1383
1339 1383
1339 1384
1340 1341
1340 1384
1340 1385
1341 1342
1341 1385
1341 1386
1342 1385
1342 1386
1342 1387
1343 1344
1343 1387
1343 1388
1343 1389
1344 1345
1344 1388
1344 1389
1344 1390
1345 1346
1345 1389
1345 1390
1345 1391
1346 1347
1346 1390
1346 1391
1346 1392
1347 1391
1347 1392
1347 1393
1348 1349
1348 1394
1348 1395
1349 1350
1349 1394
1349 1395
1350 1351
1350 1395
1350 1396
1351 1396
1351 1397
1352 1353
1352 1397
1353 1398
1354 1399
1354 1400
1355 1356
1355 1400
1355 1401
1355 1402
1356 1357
1356 1401
1356 1402
1356 1403
1357 1402
1357 1403
1357 1404
1358 1359
1358 1406
1358 1407
1358 1408
1359 1360
1359 1407
1359 1408
1359 1409
1360 1361
1360 1408
1360 1409
1361 1362
1361 1409
1361 1410
1362 1363
1362 1410
1363 1364
1363 1410
1363 1411
1364 1365
1364 1411
1364 1412
1365 1366
1365 1411
1365 1412
1365 1413
1366 1367
1366 1412
1366 1413
1366 1414
1367 1413
1367 1414
1367 1415
1368 1369
1368 1415
1368 1416
1368 1417
1369 1370
1369 1416
1369 1417
1369 1418
1370 1371
1370 1417
1370 1418
1370 1419
1371 1372
1371 1418
1371 1419
1371 1420
1372 1373
1372 1419
1372 1420
1372 1421
1373 1374
1373 1420
1373 1421
1373 1422
1374 1375
1374 1421
1374 1422
1375 1422
1376 1423
1376 1424
1377 1378
1377 1424
1377 1425
1377 1426
1378 1379
1378 1425
1378 1426
1379 1426
1379 1427
1380 1381
1380 1427
1380 1428
1380 1429
1381 1428
1381 1429
1382 1430
1383 1384
1383 1431
1384 1431
1384 1432
1385 1386
1385 1432
1385 1433
1385 1434
1386 1387
1386 1433
1386 1434
1386 1435
1387 1388
1387 1434
1387 1435
1387 1436
1388 1389
1388 1435
1388 1436
1388 1437
1389 1390
1389 1436
1389 1437
1389 1438
1390 1391
1390 1437
1390 1438
1391 1392
1391 1438
1391 1439
1392 1393
1392 1439
1392 1440
1393 1439
1393 1440
1393 1441
1394 1395
1394 1441
1395 1442
1396 1397
1396 1442
1396 1443
1396 1444
1397 1443
1397 1444
1398 1399
1398 1445
1399 1446
1400 1401
1400 1446
1400 1447
1400 1448
1401 1402
1401 1447
1401 1448
1401 1449
1402 1403
1402 1448
1402 1449
1402 1450
1403 1404
1403 1449
1403 1450
1403 1451
1404 1405
1404 1450
1404 1451
1405 1406
1405 1451
1405 1452
1406 1407
1406 1452
1406 1453
1407 1408
1407 1452
1407 1453
1408 1409
1408 1453
1408 1454
1409 1454
1409 1455
1410 1455
1410 1456
1410 1457
1411 1412
1411 1457
1411 1458
1411 1459
1412 1413
1412 1458
1412 1459
1412 1460
1413 1414
1413 1459
1413 1460
1413 1461
1414 1415
1414 1460
1414 1461
1414 1462
1415 1416
1415 1461
1415 1462
1415 1463
1416 1417
1416 1462
1416 1463
1416 1464
1417 1418
1417 1463
1417 1464
1418 1419
1418 1464
1419 1420
1419 1465
1420 1421
1420 1465
1420 1466
1421 1422
1421 1465
1421 1466
1421 1467
1422 1466
1422 1467
1422 1468
1423 1424
1423 1469
1423 1470
1423 1471
1424 1425
1424 1470
1424 1471
1424 1472
1425 1426
1425 1471
1425 1472
1426 1472
1426 1473
1427 1428
1427 1473
1427 1474
1427 1475
1428 1429
1428 1474
1428 1475
1428 1476
1429 1475
1429 1476
1430 1477
1430 1478
1431 1478
1431 1479
1431 1480
1432 1433
1432 1480
1432 1481
1432 1482
1433 1434
1433 1481
1433 1482
1433 1483
1434 1435
1434 1482
1434 1483
1435 1436
1435 1483
1435 1484
1436 1437
1436 1484
1436 1485
1437 1438
1437 1484
1437 1485
1437 1486
1438 1485
1438 1486
1438 1487
1439 1440
1439 1487
1439 1488
1440 1441
1440 1488
1440 1489
1441 1489
1441 1490
1442 1443
1442 1491
1442 1492
1442 1493
1443 1444
1443 1492
1443 1493
1444 1493
1444 1494
1445 1494
1445 1495
1445 1496
1446 1447
1446 1497
1446 1498
1446 1499
1447 1448
1447 1498
1447 1499
1447 1500
1448 1449
1448 1499
1448 1500
1449 1450
1449 1500
1449 1501
1450 1451
1450 1501
1450 1502
1451 1501
1451 1502
1451 1503
1452 1453
1452 1503
1452 1504
1452 1505
1453 1504
1453 1505
1453 1506
1454 1455
1454 1506
1454 1507
1454 1508
1455 1456
1455 1507
1455 1508
1455 1509
1456 1457
1456 1508
1456 1509
1456 1510
1457 1458
1457 1509
1457 1510
1457 1511
1458 1459
1458 1510
1458 1511
1458 1512
1459 1460
1459 1511
1459 1512
1459 1513
1460 1461
1460 1512
1460 1513
1460 1514
1461 1462
1461 1513
1461 1514
1461 1515
1462 1463
1462 1514
1462 1515
1462 1516
1463 1464
1463 1515
1463 1516
1463 1517
1464 1516
1464 1517
1464 1518
1465 1466
1465 1519
1465 1520
1465 1521
1466 1467
1466 1520
1466 1521
1466 1522
1467 1468
1467 1521
1467 1522
1467 1523
1468 1469
1468 1522
1468 1523
1468 1524
1469 1470
1469 1523
1469 1524
1469 1525
1470 1471
1470 1524
1470 1525
1470 1526
1471 1472
1471 1525
1471 1526
1471 1527
1472 1526
1472 1527
1472 1528
1473 1474
1473 1528
1473 1529
1473 1530
1474 1475
1474 1529
1474 1530
1474 1531
1475 1476
1475 1530
1475 1531
1475 1532
1476 1531
1476 1532
1477 1478
1477 1533
1477 1534
1478 1479
1478 1533
1478 1534
1478 1535
1479 1480
1479 1534
1479 1535
1479 1536
1480 1481
1480 1535
1480 1536
1481 1482
1481 1536
1481 1537
1482 1483
1482 1537
1483 1537
1483 1538
1484 1485
1484 1538
1484 1539
1485 1486
1485 1539
1485 1540
1486 1487
1486 1540
1486 1541
1487 1488
1487 1540
1487 1541
1487 1542
1488 1541
1488 1542
1489 1490
1489 1543
1490 1491
1490 1543
1490 1544
1491 1492
1491 1543
1491 1544
1491 1545
1492 1493
1492 1544
1492 1545
1493 1545
1493 1546
1494 1495
1494 1546
1495 1496
1496 1497
1497 1498
1497 1547
1498 1499
1498 1547
1498 1548
1499 1500
1499 1547
1499 1548
1499 1549
1500 1548
1500 1549
1500 1550
1501 1502
1501 1550
1501 1551
1501 1552
1502 1503
1502 1551
1502 1552
1502 1553
1503 1504
1503 1552
1503 1553
1503 1554
1504 1505
1504 1553
1504 1554
1505 1506
1505 1554
1505 1555
1506 1507
1506 1555
1506 1556
1507 1508
1507 1555
1507 1556
1507 1557
1508 1509
1508 1556
1508 1557
1509 1510
1509 1557
1509 1558
1510 1511
1510 1558
1510 1559
1511 1512
1511 1558
1511 1559
1511 1560
1512 1513
1512 1559
1512 1560
1512 1561
1513 1514
1513 1560
1513 1561
1513 1562
1514 1515
1514 1561
1514 1562
1514 1563
1515 1516
1515 1562
1515 1563
1515 1564
1516 1517
1516 1563
1516 1564
1516 1565
1517 1518
1517 1564
1517 1565
1517 1566
1518 1519
1518 1565
1518 1566
1519 1520
1519 1566
1519 1567
1520 1521
1520 1567
1520 1568
1521 1522
1521 1567
1521 1568
1521 1569
1522 1523
1522 1568
1522 1569
1522 1570
1523 1524
1523 1569
1523 1570
1524 1525
1524 1570
1524 1571
1525 1526
1525 1571
1525 1572
1526 1527
1526 1571
1526 1572
1526 1573
1527 1528
1527 1572
1527 1573
1527 1574
1528 1529
1528 1573
1528 1574
1528 1575
1529 1530
1529 1574
1529 1575
1529 1576
1530 1531
1530 1575
1530 1576
1530 1577
1531 1532
1531 1576
1531 1577
1532 1577
1533 1534
1533 1578
1533 1579
1534 1535
1534 1578
1534 1579
1534 1580
1535 1536
1535 1579
1535 1580
1535 1581
1536 1580
1536 1581
1536 1582
1537 1582
1537 1583
1537 1584
1538 1539
1538 1584
1538 1585
1538 1586
1539 1585
1539 1586
1539 1587
1540 1541
1540 1587
1540 1588
1540 1589
1541 1542
1541 1588
1541 1589
1542 1589
1542 1590
1543 1544
1543 1591
1543 1592
1543 1593
1544 1545
1544 1592
1544 1593
1544 1594
1545 1593
1545 1594
1545 1595
1546 1595
1546 1596
1546 1597
1547 1548
1547 1599
1547 1600
1547 1601
1548 1549
1548 1600
1548 1601
1548 1602
1549 1550
1549 1601
1549 1602
1549 1603
1550 1551
1550 1602
1550 1603
1550 1604
1551 1552
1551 1603
1551 1604
1551 1605
1552 1553
1552 1604
1552 1605
1553 1554
1553 1605
1553 1606
1554 1606
1554 1607
1555 1556
1555 1607
1555 1608
1555 1609
1556 1557
1556 1608
1556 1609
1556 1610
1557 1609
1557 1610
1557 1611
1558 1559
1558 1611
1558 1612
1558 1613
1559 1560
1559 1612
1559 1613
1559 1614
1560 1561
1560 1613
1560 1614
1560 1615
1561 1562
1561 1614
1561 1615
1561 1616
1562 1563
1562 1615
1562 1616
1562 1617
1563 1564
1563 1616
1563 1617
1563 1618
1564 1565
1564 1617
1564 1618
1564 1619
1565 1566
1565 1618
1565 1619
1566 1619
1566 1620
1567 1568
1567 1620
1567 1621
1568 1569
1568 1621
1568 1622
1569 1570
1569 1621
1569 1622
1569 1623
1570 1622
1570 1623
1570 1624
1571 1572
1571 1624
1571 1625
1572 1573
1572 1625
1572 1626
1573 1574
1573 1626
1573 1627
1574 1575
1574 1626
1574 1627
1574 1628
1575 1576
1575 1627
1575 1628
1575 1629
1576 1577
1576 1628
1576 1629
1576 1630
1577 1629
1577 1630
1577 1631
1578 1579
1578 1632
1579 1580
1579 1632
1580 1581
1580 1633
1581 1582
1581 1633
1581 1634
1582 1583
1582 1633
1582 1634
1582 1635
1583 1584
1583 1634
1583 1635
1583 1636
1584 1585
1584 1635
1584 1636
1584 1637
1585 1586
1585 1636
1585 1637
1585 1638
1586 1587
1586 1637
1586 1638
1586 1639
1587 1588
1587 1638
1587 1639
1588 1589
1588 1639
1588 1640
1589 1640
1590 1591
1590 1641
1591 1592
1591 1641
1592 1593
1592 1642
1593 1594
1593 1642
1593 1643
1594 1595
1594 1642
1594 1643
1595 1596
1595 1643
1595 1644
1596 1597
1596 1644
1597 1598
1597 1644
1597 1645
1598 1645
1598 1646
1599 1600
1599 1646
1599 1647
1599 1648
1600 1601
1600 1647
1600 1648
1600 1649
1601 1602
1601 1648
1601 1649
1601 1650
1602 1603
1602 1649
1602 1650
1602 1651
1603 1604
1603 1650
1603 1651
1604 1605
1604 1651
1604 1652
1605 1652
1605 1653
1606 1607
1606 1653
1606 1654
1606 1655
1607 1608
1607 1654
1607 1655
1607 1656
1608 1609
1608 1655
1608 1656
1608 1657
1609 1610
1609 1656
1609 1657
1609 1658
1610 1611
1610 1657
1610 1658
1610 1659
1611 1612
1611 1658
1611 1659
1611 1660
1612 1613
1612 1659
1612 1660
1612 1661
1613 1614
1613 1660
1613 1661
1613 1662
1614 1615
1614 1661
1614 1662
1614 1663
1615 1616
1615 1662
1615 1663
1616 1617
1616 1663
1616 1664
1617 1618
1617 1664
1617 1665
1618 1619
1618 1664
1618 1665
1619 1665
1620 1666
1620 1667
1621 1622
1621 1667
1621 1668
1621 1669
1622 1623
1622 1668
1622 1669
1622 1670
1623 1624
1623 1669
1623 1670
1623 1671
1624 1625
1624 1670
1624 1671
1624 1672
1625 1671
1625 1672
1626 1627
1626 1673
1627 1628
1627 1673
1627 1674
1628 1629
1628 1674
1628 1675
1629 1630
1629 1674
1629 1675
1629 1676
1630 1631
1630 1675
1630 1676
1630 1677
1631 1676
1631 1677
1632 1678
1632 1679
1633 1634
1633 1680
1633 1681
1634 1635
1634 1681
1634 1682
1635 1636
1635 1681
1635 1682
1635 1683
1636 1637
1636 1682
1636 1683
1636 1684
1637 1638
1637 1683
1637 1684
1638 1639
1638 1684
1638 1685
1639 1685
1639 1686
1640 1686
1640 1687
1640 1688
1641 1688
1641 1689
1642 1643
1642 1690
1642 1691
1643 1690
1643 1691
1644 1692
1644 1693
1645 1646
1645 1693
1645 1694
1645 1695
1646 1647
1646 1694
1646 1695
1646 1696
1647 1648
1647 1695
1647 1696
1648 1649
1648 1696
1648 1697
1649 1650
1649 1697
1649 1698
1650 1651
1650 1697
1650 1698
1650 1699
1651 1698
1651 1699
1651 1700
1652 1653
1652 1700
1652 1701
1652 1702
1653 1654
1653 1701
1653 1702
1653 1703
1654 1655
1654 1702
1654 1703
1654 1704
1655 1656
1655 1703
1655 1704
1655 1705
1656 1657
1656 1704
1656 1705
1656 1706
1657 1658
1657 1705
1657 1706
1657 1707
1658 1659
1658 1706
1658 1707
1658 1708
1659 1660
1659 1707
1659 1708
1660 1661
1660 1708
1661 1662
1661 1709
1662 1663
1662 1709
1663 1709
1663 1710
1664 1665
1664 1710
1664 1711
1665 1711
1665 1712
1666 1667
1666 1713
1666 1714
1666 1715
1667 1668
1667 1714
1667 1715
1667 1716
1668 1669
1668 1715
1668 1716
1668 1717
1669 1670
1669 1716
1669 1717
1669 1718
1670 1671
1670 1717
1670 1718
1670 1719
1671 1672
1671 1718
1671 1719
1671 1720
1672 1719
1672 1720
1672 1721
1673 1721
1673 1722
1673 1723
1674 1675
1674 1723
1674 1724
1674 1725
1675 1676
1675 1724
1675 1725
1675 1726
1676 1677
1676 1725
1676 1726
1676 1727
1677 1726
1677 1727
1678 1679
1678 1728
1678 1729
1679 1680
1679 1728
1679 1729
1679 1730
1680 1729
1680 1730
1680 1731
1681 1682
1681 1731
1681 1732
1681 1733
1682 1683
1682 1732
1682 1733
1682 1734
1683 1684
1683 1733
1683 1734
1683 1735
1684 1734
1684 1735
1684 1736
1685 1686
1685 1736
1685 1737
1686 1687
1686 1737
1686 1738
1687 1688
1687 1737
1687 1738
1687 1739
1688 1689
1688 1738
1688 1739
1688 1740
1689 1739
1689 1740
1689 1741
1690 1691
1690 1742
1690 1743
1691 1743
1691 1744
1692 1693
1692 1744
1692 1745
1692 1746
1693 1694
1693 1745
1693 1746
1693 1747
1694 1695
1694 1746
1694 1747
1694 1748
1695 1696
1695 1747
1695 1748
1696 1748
1696 1749
1697 1698
1697 1749
1697 1750
1697 1751
1698 1699
1698 1750
1698 1751
1699 1700
1699 1751
1699 1752
1700 1701
1700 1752
1700 1753
1701 1702
1701 1752
1701 1753
1702 1703
1702 1753
1702 1754
1703 1704
1703 1754
1703 1755
1704 1705
1704 1754
1704 1755
1704 1756
1705 1706
1705 1755
1705 1756
1705 1757
1706 1707
1706 1756
1706 1757
1706 1758
1707 1708
1707 1757
1707 1758
1707 1759
1708 1758
1708 1759
1708 1760
1709 1761
1709 1762
1710 1763
1710 1764
1711 1712
1711 1764
1711 1765
1711 1766
1712 1713
1712 1765
1712 1766
1712 1767
1713 1714
1713 1766
1713 1767
1713 1768
1714 1715
1714 1767
1714 1768
1714 1769
1715 1716
1715 1768
1715 1769
1715 1770
1716 1717
1716 1769
1716 1770
1716 1771
1717 1718
1717 1770
1717 1771
1717 1772
1718 1719
1718 1771
1718 1772
1718 1773
1719 1720
1719 1772
1719 1773
1719 1774
1720 1721
1720 1773
1720 1774
1720 1775
1721 1722
1721 1774
1721 1775
1721 1776
1722 1723
1722 1775
1722 1776
1722 1777
1723 1724
1723 1776
1723 1777
1723 1778
1724 1725
1724 1777
1724 1778
1724 1779
1725 1726
1725 1778
1725 1779
1726 1727
1726 1779
1728 1729
1728 1780
1728 1781
1729 1730
1729 1780
1729 1781
1729 1782
1730 1731
1730 1781
1730 1782
1730 1783
1731 1732
1731 1782
1731 1783
1732 1733
1732 1783
1733 1734
1734 1735
1734 1784
1735 1736
1735 1784
1735 1785
1736 1784
1736 1785
1736 1786
1737 1738
1737 1786
1737 1787
1737 1788
1738 1739
1738 1787
1738 1788
1738 1789
1739 1740
1739 1788
1739 1789
1739 1790
1740 1741
1740 1789
1740 1790
1740 1791
1741 1742
1741 1790
1741 1791
1742 1743
1742 1791
1743 1792
1744 1745
1744 1792
1744 1793
1745 1746
1745 1793
1745 1794
1746 1747
1746 1793
1746 1794
1746 1795
1747 1748
1747 1794
1747 1795
1747 1796
1748 1795
1748 1796
1748 1797
1749 1750
1749 1797
1749 1798
1749 1799
1750 1751
1750 1798
1750 1799
1750 1800
1751 1799
1751 1800
1751 1801
1752 1753
1752 1801
1752 1802
1753 1802
1753 1803
1754 1755
1754 1803
1754 1804
1754 1805
1755 1756
1755 1804
1755 1805
1755 1806
1756 1757
1756 1805
1756 1806
1756 1807
1757 1758
1757 1806
1757 1807
1757 1808
1758 1759
1758 1807
1758 1808
1758 1809
1759 1760
1759 1808
1759 1809
1759 1810
1760 1761
1760 1809
1760 1810
1760 1811
1761 1762
1761 1810
1761 1811
1761 1812
1762 1811
1762 1812
1762 1813
1763 1764
1763 1813
1763 1814
1763 1815
1764 1765
1764 1814
1764 1815
1765 1766
1765 1815
1765 1816
1766 1767
1766 1816
1766 1817
1767 1768
1767 1816
1767 1817
1767 1818
1768 1769
1768 1817
1768 1818
1769 1770
1769 1818
1769 1819
1770 1771
1770 1819
1770 1820
1771 1772
1771 1819
1771 1820
1771 1821
1772 1773
1772 1820
1772 1821
1772 1822
1773 1774
1773 1821
1773 1822
1773 1823
1774 1775
1774 1822
1774 1823
1774 1824
1775 1776
1775 1823
1775 1824
1775 1825
1776 1777
1776 1824
1776 1825
1776 1826
1777 1778
1777 1825
1777 1826
1778 1779
1778 1826
1778 1827
1779 1827
1779 1828
1780 1781
1780 1829
1780 1830
1781 1782
1781 1829
1781 1830
1781 1831
1782 1783
1782 1830
1782 1831
1782 1832
1783 1831
1783 1832
1783 1833
1784 1785
1784 1835
1784 1836
1784 1837
1785 1786
1785 1836
1785 1837
1785 1838
1786 1787
1786 1837
1786 1838
1786 1839
1787 1788
1787 1838
1787 1839
1787 1840
1788 1789
1788 1839
1788 1840
1788 1841
1789 1790
1789 1840
1789 1841
1789 1842
1790 1791
1790 1841
1790 1842
1790 1843
1791 1842
1791 1843
1791 1844
1792 1845
1792 1846
1793 1794
1793 1846
1793 1847
1794 1795
1794 1847
1794 1848
1795 1796
1795 1848
1795 1849
1796 1797
1796 1848
1796 1849
1796 1850
1797 1798
1797 1849
1797 1850
1797 1851
1798 1799
1798 1850
1798 1851
1798 1852
1799 1800
1799 1851
1799 1852
1799 1853
1800 1801
1800 1852
1800 1853
1800 1854
1801 1853
1801 1854
1801 1855
1802 1803
1802 1855
1802 1856
1802 1857
1803 1804
1803 1856
1803 1857
1803 1858
1804 1805
1804 1857
1804 1858
1804 1859
1805 1806
1805 1858
1805 1859
1805 1860
1806 1807
1806 1859
1806 1860
1806 1861
1807 1808
1807 1860
1807 1861
1807 1862
1808 1809
1808 1861
1808 1862
1808 1863
1809 1810
1809 1862
1809 1863
1809 1864
1810 1811
1810 1863
1810 1864
1811 1812
1811 1864
1811 1865
1812 1813
1812 1865
1813 1814
1813 1865
1813 1866
1814 1815
1814 1866
1814 1867
1815 1866
1815 1867
1815 1868
1816 1817
1816 1868
1816 1869
1816 1870
1817 1818
1817 1869
1817 1870
1817 1871
1818 1870
1818 1871
1818 1872
1819 1820
1819 1872
1819 1873
1820 1821
1820 1873
1820 1874
1821 1822
1821 1874
1821 1875
1822 1823
1822 1874
1822 1875
1822 1876
1823 1824
1823 1875
1823 1876
1823 1877
1824 1825
1824 1876
1824 1877
1824 1878
1825 1826
1825 1877
1825 1878
1826 1878
1826 1879
1827 1828
1827 1879
1827 1880
1827 1881
1828 1880
1828 1881
1829 1830
1829 1882
1830 1831
1830 1882
1831 1832
1831 1882
1831 1883
1832 1833
1832 1883
1833 1834
1833 1883
1833 1884
1834 1835
1834 1884
1834 1885
1835 1836
1835 1884
1835 1885
1835 1886
1836 1837
1836 1885
1836 1886
1836 1887
1837 1838
1837 1886
1837 1887
1837 1888
1838 1839
1838 1887
1838 1888
1838 1889
1839 1840
1839 1888
1839 1889
1840 1841
1840 1889
1840 1890
1841 1842
1841 1890
1841 1891
1842 1843
1842 1890
1842 1891
1842 1892
1843 1844
1843 1891
1843 1892
1844 1845
1844 1892
1845 1893
1846 1847
1846 1893
1846 1894
1846 1895
1847 1894
1847 1895
1848 1849
1848 1896
1849 1850
1849 1896
1849 1897
1850 1851
1850 1897
1850 1898
1851 1852
1851 1897
1851 1898
1851 1899
1852 1853
1852 1898
1852 1899
1853 1854
1853 1899
1853 1900
1854 1855
1854 1900
1855 1856
1855 1900
1855 1901
1856 1857
1856 1901
1856 1902
1857 1858
1857 1901
1857 1902
1857 1903
1858 1859
1858 1902
1858 1903
1858 1904
1859 1860
1859 1903
1859 1904
1859 1905
1860 1861
1860 1904
1860 1905
1860 1906
1861 1862
1861 1905
1861 1906
1862 1863
1862 1906
1862 1907
1863 1864
1863 1907
1863 1908
1864 1907
1864 1908
1864 1909
1865 1909
1865 1910
1865 1911
1866 1867
1866 1911
1866 1912
1866 1913
1867 1868
1867 1912
1867 1913
1867 1914
1868 1869
1868 1913
1868 1914
1868 1915
1869 1870
1869 1914
1869 1915
1869 1916
1870 1871
1870 1915
1870 1916
1871 1872
1871 1916
1871 1917
1872 1873
1872 1917
1872 1918
1873 1917
1873 1918
1873 1919
1874 1875
1874 1919
1874 1920
1875 1876
1875 1920
1875 1921
1876 1877
1876 1921
1876 1922
1877 1878
1877 1921
1877 1922
1878 1922
1878 1923
1879 1880
1879 1923
1879 1924
1879 1925
1880 1881
1880 1924
1880 1925
1880 1926
1881 1925
1881 1926
1881 1927
1882 1928
1883 1929
1883 1930
1884 1885
1884 1930
1884 1931
1885 1886
1885 1931
1886 1887
1886 1931
1886 1932
1887 1888
1887 1932
1887 1933
1888 1889
1888 1932
1888 1933
1888 1934
1889 1933
1889 1934
1889 1935
1890 1891
1890 1935
1890 1936
1891 1892
1891 1936
1891 1937
1892 1937
1892 1938
1893 1894
1893 1939
1893 1940
1894 1895
1894 1939
1894 1940
1894 1941
1895 1940
1895 1941
1895 1942
1896 1942
1896 1943
1896 1944
1897 1898
1897 1944
1897 1945
1898 1899
1898 1945
1899 1945
1899 1946
1900 1946
1900 1947
1901 1902
1901 1947
1901 1948
1901 1949
1902 1903
1902 1948
1902 1949
1902 1950
1903 1904
1903 1949
1903 1950
1903 1951
1904 1905
1904 1950
1904 1951
1905 1906
1905 1951
1905 1952
1906 1952
1906 1953
1907 1908
1907 1953
1907 1954
1908 1909
1908 1954
1908 1955
1909 1910
1909 1955
1909 1956
1910 1911
1910 1955
1910 1956
1910 1957
1911 1912
1911 1956
1911 1957
1911 1958
1912 1913
1912 1957
1912 1958
1913 1914
1913 1958
1913 1959
1914 1915
1914 1959
1914 1960
1915 1916
1915 1959
1915 1960
1915 1961
1916 1960
1916 1961
1916 1962
1917 1918
1917 1962
1917 1963
1917 1964
1918 1919
1918 1963
1918 1964
1918 1965
1919 1920
1919 1964
1919 1965
1919 1966
1920 1965
1920 1966
1920 1967
1921 1922
1921 1967
1922 1968
1923 1924
1923 1968
1923 1969
1924 1925
1924 1969
1924 1970
1925 1926
1925 1970
1925 1971
1926 1927
1926 1970
1926 1971
1926 1972
1927 1971
1927 1972
1928 1973
1929 1930
1929 1974
1929 1975
1930 1975
1930 1976
1931 1976
1931 1977
1931 1978
1932 1933
1932 1978
1932 1979
1933 1934
1933 1979
1933 1980
1934 1935
1934 1980
1934 1981
1935 1936
1935 1980
1935 1981
1936 1981
1936 1982
1937 1938
1937 1982
1937 1983
1938 1983
1938 1984
1939 1940
1939 1984
1939 1985
1940 1941
1940 1985
1940 1986
1941 1942
1941 1986
1941 1987
1942 1943
1942 1986
1942 1987
1942 1988
1943 1944
1943 1987
1943 1988
1943 1989
1944 1988
1944 1989
1944 1990
1945 1990
1945 1991
1945 1992
1946 1992
1946 1993
1946 1994
1947 1948
1947 1994
1947 1995
1948 1949
1948 1995
1949 1950
1949 1996
1950 1951
1950 1996
1950 1997
1951 1996
1951 1997
1952 1953
1952 1998
1953 1954
1953 1998
1953 1999
1954 1999
1955 1956
1955 2000
1955 2001
1956 1957
1956 2000
1956 2001
1957 1958
1957 2001
1957 2002
1958 2002
1958 2003
1959 1960
1959 2003
1959 2004
1959 2005
1960 1961
1960 2004
1960 2005
1960 2006
1961 1962
1961 2005
1961 2006
1961 2007
1962 1963
1962 2006
1962 2007
1962 2008
1963 1964
1963 2007
1963 2008
1963 2009
1964 1965
1964 2008
1964 2009
1964 2010
1965 1966
1965 2009
1965 2010
1966 1967
1966 2010
1968 1969
1968 2011
1970 1971
1970 2012
1970 2013
1971 1972
1971 2012
1971 2013
1971 2014
1972 2013
1972 2014
1973 1974
1973 2015
1973 2016
1973 2017
1974 2016
1974 2017
1974 2018
1975 1976
1975 2018
1975 2019
1975 2020
1976 1977
1976 2019
1976 2020
1976 2021
1977 1978
1977 2020
1977 2021
1977 2022
1978 1979
1978 2021
1978 2022
1978 2023
1979 2022
1979 2023
1980 1981
1980 2024
1981 2024
1981 2025
1982 2025
1982 2026
1982 2027
1983 1984
1983 2027
1983 2028
1984 1985
1984 2028
1985 2028
1985 2029
1986 1987
1986 2029
1986 2030
1987 1988
1987 2030
1987 2031
1988 1989
1988 2031
1988 2032
1989 1990
1989 2031
1989 2032
1989 2033
1990 1991
1990 2032
1990 2033
1990 2034
1991 1992
1991 2033
1991 2034
1991 2035
1992 1993
1992 2034
1992 2035
1992 2036
1993 1994
1993 2035
1993 2036
1994 1995
1994 2036
1995 2037
1996 1997
1996 2038
1996 2039
1996 2040
1997 2039
1997 2040
1997 2041
1998 2041
1998 2042
1998 2043
1999 2043
1999 2044
1999 2045
2000 2001
2000 2045
2001 2046
2002 2003
2002 2046
2003 2004
2003 2047
2004 2005
2004 2047
2004 2048
2005 2006
2005 2047
2005 2048
2005 2049
2006 2007
2006 2048
2006 2049
2006 2050
2007 2008
2007 2049
2007 2050
2007 2051
2008 2009
2008 2050
2008 2051
2008 2052
2009 2010
2009 2051
2009 2052
2009 2053
2010 2052
2010 2053
2010 2054
2011 2056
2012 2013
2012 2058
2012 2059
2012 2060
2013 2014
2013 2059
2013 2060
2013 2061
2014 2060
2014 2061
2015 2016
2015 2062
2016 2017
2016 2062
2016 2063
2017 2018
2017 2062
2017 2063
2017 2064
2018 2019
2018 2063
2018 2064
2018 2065
2019 2020
2019 2064
2019 2065
2020 2021
2020 2065
2020 2066
2021 2022
2021 2066
2021 2067
2022 2023
2022 2066
2022 2067
2022 2068
2023 2067
2023 2068
2023 2069
2024 2025
2024 2070
2024 2071
2024 2072
2025 2026
2025 2071
2025 2072
2025 2073
2026 2027
2026 2072
2026 2073
2026 2074
2027 2073
2027 2074
2027 2075
2028 2075
2028 2076
2028 2077
2029 2030
2029 2077
2029 2078
2029 2079
2030 2078
2030 2079
2030 2080
2031 2032
2031 2080
2031 2081
2032 2033
2032 2081
2032 2082
2033 2034
2033 2081
2033 2082
2033 2083
2034 2035
2034 2082
2034 2083
2035 2036
2035 2083
2035 2084
2036 2084
2037 2038
2037 2085
2037 2086
2037 2087
2038 2039
2038 2086
2038 2087
2038 2088
2039 2040
2039 2087
2039 2088
2039 2089
2040 2041
2040 2088
2040 2089
2040 2090
2041 2042
2041 2089
2041 2090
2042 2043
2042 2090
2042 2091
2043 2044
2043 2091
2044 2045
2044 2091
2044 2092
2045 2092
2045 2093
2046 2094
2047 2048
2047 2095
2047 2096
2047 2097
2048 2049
2048 2096
2048 2097
2049 2050
2049 2097
2049 2098
2050 2051
2050 2098
2050 2099
2051 2052
2051 2098
2051 2099
2051 2100
2052 2053
2052 2099
2052 2100
2052 2101
2053 2054
2053 2100
2053 2101
2053 2102
2054 2055
2054 2101
2054 2102
2055 2102
2055 2103
2056 2057
2056 2104
2056 2105
2056 2106
2057 2058
2057 2105
2057 2106
2058 2059
2058 2106
2059 2060
2059 2107
2060 2061
2060 2107
2060 2108
2061 2107
2061 2108
2062 2063
2062 2109
2062 2110
2062 2111
2063 2064
2063 2110
2063 2111
2063 2112
2064 2065
2064 2111
2064 2112
2064 2113
2065 2112
2065 2113
2065 2114
2066 2067
2066 2114
2066 2115
2066 2116
2067 2068
2067 2115
2067 2116
2067 2117
2068 2069
2068 2116
2068 2117
2068 2118
2069 2070
2069 2117
2069 2118
2069 2119
2070 2071
2070 2118
2070 2119
2070 2120
2071 2072
2071 2119
2071 2120
2071 2121
2072 2073
2072 2120
2072 2121
2072 2122
2073 2074
2073 2121
2073 2122
2073 2123
2074 2075
2074 2122
2074 2123
2074 2124
2075 2076
2075 2123
2075 2124
2075 2125
2076 2077
2076 2124
2076 2125
2077 2078
2077 2125
2077 2126
2078 2079
2078 2126
2078 2127
2079 2080
2079 2126
2079 2127
2080 2127
2080 2128
2081 2082
2081 2128
2081 2129
2081 2130
2082 2083
2082 2129
2082 2130
2083 2130
2083 2131
2084 2131
2084 2132
2084 2133
2085 2086
2085 2133
2085 2134
2086 2087
2086 2134
2086 2135
2087 2088
2087 2135
2087 2136
2088 2089
2088 2135
2088 2136
2088 2137
2089 2090
2089 2136
2089 2137
2089 2138
2090 2137
2090 2138
2090 2139
2091 2139
2091 2140
2091 2141
2092 2093
2092 2141
2092 2142
2093 2142
2093 2143
2094 2143
2094 2144
2095 2096
2095 2144
2095 2145
2096 2097
2096 2145
2096 2146
2097 2146
2097 2147
2098 2099
2098 2147
2098 2148
2099 2100
2099 2148
2099 2149
2100 2101
2100 2148
2100 2149
2100 2150
2101 2102
2101 2149
2101 2150
2101 2151
2102 2150
2102 2151
2102 2152
2103 2104
2103 2152
2103 2153
2103 2154
2104 2105
2104 2153
2104 2154
2104 2155
2105 2106
2105 2154
2105 2155
2105 2156
2106 2155
2106 2156
2106 2157
2107 2108
2107 2158
2107 2159
2107 2160
2108 2159
2108 2160
2109 2110
2109 2161
2109 2162
2110 2111
2110 2161
2110 2162
2110 2163
2111 2112
2111 2162
2111 2163
2111 2164
2112 2113
2112 2163
2112 2164
2113 2114
2113 2164
2113 2165
2114 2115
2114 2165
2114 2166
2115 2116
2115 2165
2115 2166
2115 2167
2116 2117
2116 2166
2116 2167
2116 2168
2117 2118
2117 2167
2117 2168
2117 2169
2118 2119
2118 2168
2118 2169
2118 2170
2119 2120
2119 2169
2119 2170
2119 2171
2120 2121
2120 2170
2120 2171
2120 2172
2121 2122
2121 2171
2121 2172
2122 2123
2122 2172
2122 2173
2123 2124
2123 2173
2124 2125
2124 2173
2124 2174
2125 2174
2125 2175
2126 2127
2126 2175
2126 2176
2126 2177
2127 2176
2127 2177
2127 2178
2128 2129
2128 2178
2128 2179
2128 2180
2129 2130
2129 2179
2129 2180
2130 2180
2130 2181
2131 2132
2131 2181
2131 2182
2132 2133
2132 2182
2133 2134
2133 2182
2133 2183
2134 2183
2135 2136
2136 2137
2136 2184
2137 2138
2137 2184
2138 2139
2138 2184
2138 2185
2139 2140
2139 2185
2139 2186
2140 2141
2140 2185
2140 2186
2140 2187
2141 2186
2141 2187
2142 2143
2142 2188
2143 2188
2143 2189
2144 2145
2144 2189
2144 2190
2144 2191
2145 2190
2145 2191
2146 2147
2146 2192
2147 2192
2147 2193
2148 2149
2148 2193
2148 2194
2149 2150
2149 2194
2149 2195
2150 2151
2150 2195
2151 2152
2151 2195
2151 2196
2152 2153
2152 2196
2152 2197
2153 2154
2153 2196
2153 2197
2153 2198
2154 2155
2154 2197
2154 2198
2154 2199
2155 2156
2155 2198
2155 2199
2155 2200
2156 2157
2156 2199
2156 2200
2156 2201
2157 2158
2157 2200
2157 2201
2158 2159
2158 2201
2159 2160
2159 2202
2160 2202
2161 2162
2161 2203
2161 2204
2162 2163
2162 2203
2162 2204
2162 2205
2163 2164
2163 2204
2163 2205
2163 2206
2164 2205
2164 2206
2164 2207
2165 2166
2165 2207
2165 2208
2165 2209
2166 2167
2166 2208
2166 2209
2166 2210
2167 2168
2167 2209
2167 2210
2168 2169
2168 2210
2168 2211
2169 2170
2169 2211
2169 2212
2170 2171
2170 2211
2170 2212
2170 2213
2171 2172
2171 2212
2171 2213
2171 2214
2172 2213
2172 2214
2172 2215
2173 2215
2173 2216
2173 2217
2174 2175
2174 2217
2175 2176
2175 2218
2176 2177
2176 2218
2177 2178
2177 2218
2177 2219
2178 2179
2178 2219
2178 2220
2179 2180
2179 2219
2179 2220
2180 2220
2181 2221
2181 2222
2182 2222
2182 2223
2182 2224
2183 2224
2183 2225
2184 2227
2184 2228
2184 2229
2185 2186
2185 2229
2185 2230
2185 2231
2186 2187
2186 2230
2186 2231
2186 2232
2187 2231
2187 2232
2187 2233
2188 2233
2188 2234
2188 2235
2189 2190
2189 2235
2189 2236
2189 2237
2190 2191
2190 2236
2190 2237
2190 2238
2191 2237
2191 2238
2191 2239
2192 2193
2192 2240
2192 2241
2192 2242
2193 2194
2193 2241
2193 2242
2193 2243
2194 2242
2194 2243
2194 2244
2195 2244
2195 2245
2195 2246
2196 2197
2196 2246
2196 2247
2196 2248
2197 2198
2197 2247
2197 2248
2197 2249
2198 2199
2198 2248
2198 2249
2198 2250
2199 2200
2199 2249
2199 2250
2200 2201
2200 2250
2200 2251
2201 2251
2201 2252
2202 2253
2202 2254
2203 2204
2203 2255
2204 2205
2204 2255
2204 2256
2205 2206
2205 2256
2205 2257
2206 2207
2206 2256
2206 2257
2206 2258
2207 2208
2207 2257
2207 2258
2207 2259
2208 2209
2208 2258
2208 2259
2208 2260
2209 2210
2209 2259
2209 2260
2209 2261
2210 2260
2210 2261
2210 2262
2211 2212
2211 2262
2211 2263
2212 2213
2212 2263
2212 2264
2213 2214
2213 2264
2213 2265
2214 2215
2214 2264
2214 2265
2214 2266
2215 2216
2215 2265
2215 2266
2215 2267
2216 2217
2216 2266
2216 2267
2216 2268
2217 2267
2217 2268
2217 2269
2218 2270
2218 2271
2218 2272
2219 2220
2219 2272
2219 2273
2219 2274
2220 2273
2220 2274
2220 2275
2221 2222
2221 2276
2221 2277
2222 2223
2222 2277
2222 2278
2223 2224
2223 2277
2223 2278
2223 2279
2224 2225
2224 2278
2224 2279
2224 2280
2225 2279
2225 2280
2225 2281
2226 2227
2226 2281
2226 2282
2227 2228
2227 2282
2227 2283
2228 2229
2228 2282
2228 2283
2228 2284
2229 2230
2229 2283
2229 2284
2229 2285
2230 2231
2230 2284
2230 2285
2230 2286
2231 2232
2231 2285
2231 2286
2231 2287
2232 2233
2232 2286
2232 2287
2232 2288
2233 2234
2233 2287
2233 2288
2233 2289
2234 2235
2234 2288
2234 2289
2234 2290
2235 2236
2235 2289
2235 2290
2235 2291
2236 2237
2236 2290
2236 2291
2236 2292
2237 2238
2237 2291
2237 2292
2237 2293
2238 2239
2238 2292
2238 2293
2238 2294
2239 2240
2239 2293
2239 2294
2239 2295
2240 2241
2240 2294
2240 2295
2240 2296
2241 2242
2241 2295
2241 2296
2241 2297
2242 2243
2242 2296
2242 2297
2242 2298
2243 2244
2243 2297
2243 2298
2243 2299
2244 2245
2244 2298
2244 2299
2245 2246
2245 2299
2245 2300
2246 2247
2246 2300
2247 2248
2247 2300
2247 2301
2248 2249
2248 2301
2248 2302
2249 2250
2249 2301
2249 2302
2249 2303
2250 2302
2250 2303
2251 2252
2251 2304
2251 2305
2252 2253
2252 2304
2252 2305
2252 2306
2253 2254
2253 2305
2253 2306
2253 2307
2254 2306
2254 2307
2255 2308
2255 2309
2256 2257
2256 2309
2256 2310
2256 2311
2257 2258
2257 2310
2257 2311
2257 2312
2258 2259
2258 2311
2258 2312
2258 2313
2259 2260
2259 2312
2259 2313
2259 2314
2260 2261
2260 2313
2260 2314
2261 2262
2261 2314
2261 2315
2262 2263
2262 2315
2262 2316
2263 2315
2263 2316
2263 2317
2264 2265
2264 2317
2264 2318
2264 2319
2265 2266
2265 2318
2265 2319
2266 2267
2266 2319
2266 2320
2267 2268
2267 2320
2267 2321
2268 2269
2268 2320
2268 2321
2268 2322
2269 2270
2269 2321
2269 2322
2270 2271
2270 2322
2271 2272
2271 2323
2272 2273
2272 2323
2273 2274
2273 2323
2273 2324
2274 2275
2274 2324
2275 2276
2275 2324
2275 2325
2276 2325
2276 2326
2277 2278
2277 2326
2277 2327
2278 2279
2278 2327
2278 2328
2279 2280
2279 2328
2279 2329
2280 2281
2280 2328
2280 2329
2280 2330
2281 2329
2281 2330
2281 2331
2282 2283
2282 2331
2282 2332
2282 2333
2283 2284
2283 2332
2283 2333
2283 2334
2284 2285
2284 2333
2284 2334
2285 2286
2285 2334
2285 2335
2286 2287
2286 2335
2286 2336
2287 2288
2287 2335
2287 2336
2287 2337
2288 2289
2288 2336
2288 2337
2288 2338
2289 2290
2289 2337
2289 2338
2289 2339
2290 2291
2290 2338
2290 2339
2290 2340
2291 2292
2291 2339
2291 2340
2291 2341
2292 2293
2292 2340
2292 2341
2293 2294
2293 2341
2293 2342
2294 2295
2294 2342
2295 2296
2295 2342
2295 2343
2296 2297
2296 2343
2296 2344
2297 2298
2297 2343
2297 2344
2297 2345
2298 2299
2298 2344
2298 2345
2298 2346
2299 2345
2299 2346
2299 2347
2300 2347
2300 2348
2300 2349
2301 2302
2301 2349
2301 2350
2301 2351
2302 2303
2302 2350
2302 2351
2302 2352
2303 2351
2303 2352
2303 2353
2304 2305
2304 2353
2304 2354
2304 2355
2305 2306
2305 2354
2305 2355
2305 2356
2306 2307
2306 2355
2306 2356
2307 2356
2308 2309
2308 2357
2308 2358
2309 2310
2309 2357
2309 2358
2309 2359
2310 2311
2310 2358
2310 2359
2310 2360
2311 2312
2311 2359
2311 2360
2312 2313
2312 2360
2313 2314
2313 2361
2314 2361
2314 2362
2315 2316
2315 2362
2315 2363
2315 2364
2316 2317
2316 2363
2316 2364
2316 2365
2317 2318
2317 2364
2317 2365
2317 2366
2318 2319
2318 2365
2318 2366
2318 2367
2319 2366
2319 2367
2319 2368
2320 2321
2320 2368
2320 2369
2320 2370
2321 2322
2321 2369
2321 2370
2322 2370
2322 2371
2323 2372
2323 2373
2324 2374
2324 2375
2325 2326
2325 2375
2326 2327
2326 2376
2327 2376
2328 2329
2328 2377
2329 2330
2329 2377
2330 2331
2330 2377
2330 2378
2331 2332
2331 2378
2332 2333
2332 2378
2333 2334
2333 2379
2334 2379
2335 2336
2335 2380
2335 2381
2336 2337
2336 2380
2336 2381
2336 2382
2337 2338
2337 2381
2337 2382
2337 2383
2338 2339
2338 2382
2338 2383
2338 2384
2339 2340
2339 2383
2339 2384
2339 2385
2340 2341
2340 2384
2340 2385
2340 2386
2341 2385
2341 2386
2341 2387
2342 2387
2342 2388
2342 2389
2343 2344
2343 2389
2343 2390
2343 2391
2344 2345
2344 2390
2344 2391
2344 2392
2345 2346
2345 2391
2345 2392
2345 2393
2346 2347
2346 2392
2346 2393
2346 2394
2347 2348
2347 2393
2347 2394
2347 2395
2348 2349
2348 2394
2348 2395
2348 2396
2349 2350
2349 2395
2349 2396
2349 2397
2350 2351
2350 2396
2350 2397
2350 2398
2351 2352
2351 2397
2351 2398
2351 2399
2352 2353
2352 2398
2352 2399
2352 2400
2353 2354
2353 2399
2353 2400
2353 2401
2354 2355
2354 2400
2354 2401
2355 2356
2355 2401
2355 2402
2356 2402
2356 2403
2357 2358
2357 2404
2357 2405
2358 2359
2358 2404
2358 2405
2358 2406
2359 2360
2359 2405
2359 2406
2359 2407
2360 2406
2360 2407
2360 2408
2361 2362
2361 2409
2361 2410
2361 2411
2362 2363
2362 2410
2362 2411
2362 2412
2363 2364
2363 2411
2363 2412
2364 2365
2364 2412
2364 2413
2365 2366
2365 2413
2365 2414
2366 2367
2366 2413
2366 2414
2366 2415
2367 2368
2367 2414
2367 2415
2367 2416
2368 2369
2368 2415
2368 2416
2368 2417
2369 2370
2369 2416
2369 2417
2370 2417
2370 2418
2371 2372
2371 2418
2371 2419
2372 2373
2372 2419
2373 2420
2374 2375
2374 2420
2374 2421
2374 2422
2375 2421
2375 2422
2375 2423
2376 2424
2376 2425
2376 2426
2377 2427
2377 2428
2378 2428
2378 2429
2378 2430
2379 2431
2380 2381
2380 2432
2380 2433
2381 2382
2381 2432
2381 2433
2381 2434
2382 2383
2382 2433
2382 2434
2382 2435
2383 2384
2383 2434
2383 2435
2384 2385
2384 2435
2384 2436
2385 2386
2385 2436
2385 2437
2386 2387
2386 2436
2386 2437
2387 2388
2387 2437
2388 2389
2389 2390
2389 2438
2390 2391
2390 2438
2390 2439
2391 2392
2391 2438
2391 2439
2391 2440
2392 2393
2392 2439
2392 2440
2392 2441
2393 2394
2393 2440
2393 2441
2394 2395
2394 2441
2394 2442
2395 2396
2395 2442
2395 2443
2396 2397
2396 2442
2396 2443
2396 2444
2397 2398
2397 2443
2397 2444
2397 2445
2398 2399
2398 2444
2398 2445
2398 2446
2399 2400
2399 2445
2399 2446
2399 2447
2400 2401
2400 2446
2400 2447
2400 2448
2401 2447
2401 2448
2401 2449
2402 2403
2402 2449
2404 2405
2404 2450
2405 2406
2405 2450
2405 2451
2406 2407
2406 2451
2406 2452
2407 2408
2407 2451
2407 2452
2407 2453
2408 2409
2408 2452
2408 2453
2408 2454
2409 2410
2409 2453
2409 2454
2409 2455
2410 2411
2410 2454
2410 2455
2410 2456
2411 2412
2411 2455
2411 2456
2411 2457
2412 2456
2412 2457
2412 2458
2413 2414
2413 2458
2413 2459
2413 2460
2414 2415
2414 2459
2414 2460
2414 2461
2415 2416
2415 2460
2415 2461
2415 2462
2416 2417
2416 2461
2416 2462
2416 2463
2417 2462
2417 2463
2417 2464
2418 2419
2418 2464
2418 2465
2418 2466
2419 2465
2419 2466
2420 2421
2420 2467
2421 2422
2421 2467
2421 2468
2422 2423
2422 2468
2422 2469
2423 2424
2423 2468
2423 2469
2423 2470
2424 2425
2424 2469
2424 2470
2424 2471
2425 2426
2425 2470
2425 2471
2425 2472
2426 2427
2426 2471
2426 2472
2426 2473
2427 2472
2427 2473
2427 2474
2428 2429
2428 2474
2428 2475
2428 2476
2429 2430
2429 2475
2429 2476
2430 2476
2430 2477
2431 2477
2431 2478
2432 2433
2432 2478
2433 2434
2434 2435
2434 2479
2435 2479
2435 2480
2436 2437
2436 2480
2436 2481
2436 2482
2437 2481
2437 2482
2437 2483
2438 2439
2438 2485
2438 2486
2438 2487
2439 2440
2439 2486
2439 2487
2439 2488
2440 2441
2440 2487
2440 2488
2440 2489
2441 2488
2441 2489
2441 2490
2442 2443
2442 2490
2442 2491
2442 2492
2443 2444
2443 2491
2443 2492
2443 2493
2444 2445
2444 2492
2444 2493
2444 2494
2445 2446
2445 2493
2445 2494
2445 2495
2446 2447
2446 2494
2446 2495
2446 2496
2447 2448
2447 2495
2447 2496
2447 2497
2448 2449
2448 2496
2448 2497
2448 2498
2449 2497
2449 2498
2450 2500
2450 2501
2451 2452
2451 2501
2451 2502
2451 2503
2452 2453
2452 2502
2452 2503
2452 2504
2453 2454
2453 2503
2453 2504
2453 2505
2454 2455
2454 2504
2454 2505
2454 2506
2455 2456
2455 2505
2455 2506
2455 2507
2456 2457
2456 2506
2456 2507
2456 2508
2457 2458
2457 2507
2457 2508
2457 2509
2458 2459
2458 2508
2458 2509
2458 2510
2459 2460
2459 2509
2459 2510
2460 2461
2460 2510
2461 2462
2461 2511
2462 2463
2462 2511
2462 2512
2463 2464
2463 2511
2463 2512
2463 2513
2464 2465
2464 2512
2464 2513
2464 2514
2465 2466
2465 2513
2465 2514
2466 2514
2466 2515
2467 2516
2467 2517
2467 2518
2468 2469
2468 2518
2468 2519
2469 2470
2469 2519
2469 2520
2470 2471
2470 2520
2470 2521
2471 2472
2471 2520
2471 2521
2471 2522
2472 2473
2472 2521
2472 2522
2472 2523
2473 2474
2473 2522
2473 2523
2473 2524
2474 2475
2474 2523
2474 2524
2474 2525
2475 2476
2475 2524
2475 2525
2475 2526
2476 2525
2476 2526
2476 2527
2477 2527
2477 2528
2477 2529
2478 2529
2478 2530
2478 2531
2479 2480
2479 2533
2479 2534
2480 2481
2480 2533
2480 2534
2481 2482
2481 2534
2482 2483
2482 2535
2483 2484
2483 2535
2483 2536
2484 2485
2484 2535
2484 2536
2485 2486
2485 2536
2485 2537
2486 2487
2486 2537
2486 2538
2487 2488
2487 2537
2487 2538
2487 2539
2488 2489
2488 2538
2488 2539
2488 2540
2489 2490
2489 2539
2489 2540
2489 2541
2490 2491
2490 2540
2490 2541
2490 2542
2491 2492
2491 2541
2491 2542
2491 2543
2492 2493
2492 2542
2492 2543
2492 2544
2493 2494
2493 2543
2493 2544
2493 2545
2494 2495
2494 2544
2494 2545
2494 2546
2495 2496
2495 2545
2495 2546
2495 2547
2496 2497
2496 2546
2496 2547
2496 2548
2497 2498
2497 2547
2497 2548
2497 2549
2498 2548
2498 2549
2499 2550
2500 2501
2500 2551
2500 2552
2501 2502
2501 2551
2501 2552
2501 2553
2502 2503
2502 2552
2502 2553
2502 2554
2503 2504
2503 2553
2503 2554
2503 2555
2504 2505
2504 2554
2504 2555
2504 2556
2505 2506
2505 2555
2505 2556
2505 2557
2506 2507
2506 2556
2506 2557
2506 2558
2507 2508
2507 2557
2507 2558
2508 2509
2508 2558
2509 2510
2509 2559
2510 2559
2510 2560
2511 2512
2511 2561
2511 2562
2511 2563
2512 2513
2512 2562
2512 2563
2512 2564
2513 2514
2513 2563
2513 2564
2514 2564
2514 2565
2515 2516
2515 2565
2515 2566
2516 2517
2516 2566
2516 2567
2517 2518
2517 2567
2518 2519
2518 2567
2518 2568
2519 2568
2519 2569
2520 2521
2520 2569
2521 2522
2522 2523
2522 2570
2523 2524
2523 2570
2523 2571
2524 2525
2524 2570
2524 2571
2524 2572
2525 2526
2525 2571
2525 2572
2525 2573
2526 2527
2526 2572
2526 2573
2526 2574
2527 2528
2527 2573
2527 2574
2528 2529
2528 2574
2528 2575
2529 2530
2529 2575
2529 2576
2530 2531
2530 2575
2530 2576
2530 2577
2531 2532
2531 2576
2531 2577
2532 2577
2532 2578
2533 2534
2533 2578
2533 2579
2533 2580
2534 2579
2534 2580
2534 2581
2535 2536
2535 2582
2535 2583
2535 2584
2536 2583
2536 2584
2536 2585
2537 2538
2537 2585
2537 2586
2538 2539
2538 2586
2538 2587
2539 2540
2539 2586
2539 2587
2540 2541
2540 2587
2541 2542
2542 2543
2542 2588
2543 2544
2543 2588
2543 2589
2544 2545
2544 2588
2544 2589
2544 2590
2545 2546
2545 2589
2545 2590
2545 2591
2546 2547
2546 2590
2546 2591
2546 2592
2547 2548
2547 2591
2547 2592
2548 2549
2548 2592
2548 2593
2549 2593
2549 2594
2550 2594
2550 2595
2551 2552
2551 2596
2551 2597
2552 2553
2552 2596
2552 2597
2553 2554
2553 2597
2553 2598
2554 2555
2554 2598
2554 2599
2555 2556
2555 2598
2555 2599
2555 2600
2556 2557
2556 2599
2556 2600
2556 2601
2557 2558
2557 2600
2557 2601
2557 2602
2558 2601
2558 2602
2558 2603
2559 2560
2559 2604
2559 2605
2559 2606
2560 2561
2560 2605
2560 2606
2560 2607
2561 2562
2561 2606
2561 2607
2561 2608
2562 2563
2562 2607
2562 2608
2562 2609
2563 2564
2563 2608
2563 2609
2563 2610
2564 2609
2564 2610
2565 2566
2565 2611
2565 2612
2566 2611
2566 2612
2566 2613
2567 2613
2567 2614
2568 2569
2568 2615
2569 2615
2569 2616
2570 2571
2570 2618
2570 2619
2571 2572
2571 2618
2571 2619
2571 2620
2572 2573
2572 2619
2572 2620
2572 2621
2573 2574
2573 2620
2573 2621
2573 2622
2574 2621
2574 2622
2575 2576
2575 2623
2576 2577
2576 2623
2576 2624
2577 2623
2577 2624
2577 2625
2578 2579
2578 2625
2578 2626
2578 2627
2579 2580
2579 2626
2579 2627
2579 2628
2580 2581
2580 2627
2580 2628
2580 2629
2581 2582
2581 2628
2581 2629
2581 2630
2582 2583
2582 2629
2582 2630
2582 2631
2583 2584
2583 2630
2583 2631
2583 2632
2584 2585
2584 2631
2584 2632
2584 2633
2585 2632
2585 2633
2585 2634
2586 2587
2586 2634
2586 2635
2586 2636
2587 2635
2587 2636
2588 2589
2588 2638
2588 2639
2588 2640
2589 2590
2589 2639
2589 2640
2589 2641
2590 2591
2590 2640
2590 2641
2590 2642
2591 2592
2591 2641
2591 2642
2591 2643
2592 2642
2592 2643
2592 2644
2593 2594
2593 2644
2593 2645
2594 2595
2594 2645
2594 2646
2595 2646
2596 2597
2596 2647
2596 2648
2597 2647
2597 2648
2597 2649
2598 2599
2598 2649
2598 2650
2598 2651
2599 2600
2599 2650
2599 2651
2599 2652
2600 2601
2600 2651
2600 2652
2600 2653
2601 2602
2601 2652
2601 2653
2601 2654
2602 2603
2602 2653
2602 2654
2602 2655
2603 2604
2603 2654
2603 2655
2604 2605
2604 2655
2604 2656
2605 2606
2605 2656
2606 2607
2606 2656
2606 2657
2607 2608
2607 2657
2607 2658
2608 2609
2608 2657
2608 2658
2608 2659
2609 2610
2609 2658
2609 2659
2609 2660
2610 2659
2610 2660
2611 2612
2611 2661
2611 2662
2612 2613
2612 2661
2612 2662
2612 2663
2613 2614
2613 2662
2613 2663
2613 2664
2614 2663
2614 2664
2614 2665
2615 2616
2615 2666
2615 2667
2616 2617
2616 2667
2616 2668
2617 2667
2617 2668
2618 2619
2618 2669
2619 2620
2619 2669
2620 2621
2620 2670
2621 2622
2621 2670
2621 2671
2622 2670
2622 2671
2622 2672
2623 2624
2623 2673
2624 2625
2624 2673
2624 2674
2625 2626
2625 2674
2625 2675
2626 2627
2626 2674
2626 2675
2626 2676
2627 2628
2627 2675
2627 2676
2627 2677
2628 2629
2628 2676
2628 2677
2628 2678
2629 2630
2629 2677
2629 2678
2629 2679
2630 2631
2630 2678
2630 2679
2630 2680
2631 2632
2631 2679
2631 2680
2631 2681
2632 2633
2632 2680
2632 2681
2633 2634
2633 2681
2633 2682
2634 2635
2634 2682
2634 2683
2635 2636
2635 2682
2635 2683
2636 2683
2636 2684
2637 2638
2637 2684
2637 2685
2638 2639
2638 2685
2639 2640
2640 2641
2640 2686
2641 2642
2641 2686
2641 2687
2642 2643
2642 2686
2642 2687
2642 2688
2643 2644
2643 2687
2643 2688
2643 2689
2644 2645
2644 2688
2644 2689
2645 2689
2645 2690
2646 2690
2646 2691
2647 2648
2647 2692
2648 2649
2648 2692
2648 2693
2649 2650
2649 2693
2649 2694
2650 2651
2650 2693
2650 2694
2650 2695
2651 2652
2651 2694
2651 2695
2651 2696
2652 2653
2652 2695
2652 2696
2652 2697
2653 2654
2653 2696
2653 2697
2654 2655
2654 2697
2654 2698
2655 2698
2655 2699
2656 2699
2656 2700
2656 2701
2657 2658
2657 2701
2657 2702
2657 2703
2658 2659
2658 2702
2658 2703
2659 2660
2659 2703
2659 2704
2660 2704
2660 2705
2661 2662
2661 2705
2661 2706
2661 2707
2662 2663
2662 2706
2662 2707
2663 2664
2663 2707
2664 2665
2664 2708
2665 2666
2665 2708
2665 2709
2666 2708
2666 2709
2666 2710
2667 2668
2667 2710
2667 2711
2667 2712
2668 2711
2668 2712
2668 2713
2669 2713
2669 2714
2669 2715
2670 2671
2670 2716
2670 2717
2671 2672
2671 2717
2671 2718
2672 2717
2672 2718
2672 2719
2673 2719
2673 2720
2673 2721
2674 2675
2674 2721
2674 2722
2674 2723
2675 2676
2675 2722
2675 2723
2675 2724
2676 2677
2676 2723
2676 2724
2676 2725
2677 2678
2677 2724
2677 2725
2677 2726
2678 2679
2678 2725
2678 2726
2679 2680
2679 2726
2680 2681
2680 2727
2681 2727
2681 2728
2682 2683
2682 2728
2682 2729
2682 2730
2683 2729
2683 2730
2683 2731
2684 2685
2684 2731
2684 2732
2684 2733
2685 2732
2685 2733
2686 2687
2686 2735
2686 2736
2687 2688
2687 2736
2687 2737
2688 2689
2688 2737
2688 2738
2689 2737
2689 2738
2690 2691
2690 2739
2691 2739
2692 2740
2693 2694
2693 2740
2693 2741
2693 2742
2694 2695
2694 2741
2694 2742
2695 2696
2695 2742
2695 2743
2696 2697
2696 2743
2696 2744
2697 2743
2697 2744
2698 2699
2698 2745
2698 2746
2699 2700
2699 2745
2699 2746
2700 2701
2700 2746
2700 2747
2701 2702
2701 2747
2701 2748
2702 2703
2702 2747
2702 2748
2702 2749
2703 2748
2703 2749
2703 2750
2704 2705
2704 2750
2704 2751
2704 2752
2705 2706
2705 2751
2705 2752
2705 2753
2706 2707
2706 2752
2706 2753
2706 2754
2707 2753
2707 2754
2708 2709
2708 2755
2709 2710
2709 2755
2710 2711
2710 2755
2710 2756
2711 2712
2711 2756
2711 2757
2712 2713
2712 2756
2712 2757
2712 2758
2713 2714
2713 2757
2713 2758
2713 2759
2714 2715
2714 2758
2714 2759
2714 2760
2715 2716
2715 2759
2715 2760
2716 2760
2716 2761
2717 2718
2717 2761
2717 2762
2717 2763
2718 2719
2718 2762
2718 2763
2719 2720
2719 2763
2719 2764
2720 2721
2720 2764
2720 2765
2721 2722
2721 2764
2721 2765
2721 2766
2722 2723
2722 2765
2722 2766
2722 2767
2723 2724
2723 2766
2723 2767
2724 2725
2724 2767
2724 2768
2725 2726
2725 2768
2725 2769
2726 2768
2726 2769
2726 2770
2727 2728
2727 2771
2727 2772
2728 2729
2728 2772
2728 2773
2729 2730
2729 2773
2729 2774
2730 2731
2730 2773
2730 2774
2730 2775
2731 2732
2731 2774
2731 2775
2731 2776
2732 2733
2732 2775
2732 2776
2732 2777
2733 2776
2733 2777
2733 2778
2734 2735
2734 2778
2734 2779
2735 2736
2735 2779
2735 2780
2736 2780
2736 2781
2737 2738
2737 2781
2737 2782
2738 2782
2738 2783
2739 2783
2739 2784
2740 2741
2740 2785
2740 2786
2740 2787
2741 2742
2741 2786
2741 2787
2742 2787
2742 2788
2743 2744
2743 2788
2744 2789
2745 2746
2745 2789
2745 2790
2746 2790
2746 2791
2747 2748
2747 2791
2747 2792
2747 2793
2748 2749
2748 2792
2748 2793
2748 2794
2749 2750
2749 2793
2749 2794
2749 2795
2750 2751
2750 2794
2750 2795
2750 2796
2751 2752
2751 2795
2751 2796
2751 2797
2752 2753
2752 2796
2752 2797
2753 2754
2753 2797
2753 2798
2754 2798
2754 2799
2755 2801
2755 2802
2755 2803
2756 2757
2756 2803
2756 2804
2756 2805
2757 2758
2757 2804
2757 2805
2757 2806
2758 2759
2758 2805
2758 2806
2758 2807
2759 2760
2759 2806
2759 2807
2760 2807
2760 2808
2761 2762
2761 2808
2761 2809
2761 2810
2762 2763
2762 2809
2762 2810
2762 2811
2763 2810
2763 2811
2764 2765
2764 2812
2765 2766
2765 2812
2765 2813
2766 2767
2766 2812
2766 2813
2767 2813
2768 2769
2768 2814
2768 2815
2769 2770
2769 2814
2769 2815
2769 2816
2770 2771
2770 2815
2770 2816
2771 2772
2771 2816
2771 2817
2772 2817
2772 2818
2773 2774
2773 2818
2773 2819
2773 2820
2774 2775
2774 2819
2774 2820
2774 2821
2775 2776
2775 2820
2775 2821
2775 2822
2776 2777
2776 2821
2776 2822
2776 2823
2777 2778
2777 2822
2777 2823
2777 2824
2778 2779
2778 2823
2778 2824
2778 2825
2779 2824
2779 2825
2779 2826
2780 2781
2780 2826
2780 2827
2780 2828
2781 2782
2781 2827
2781 2828
2781 2829
2782 2828
2782 2829
2782 2830
2783 2830
2783 2831
2784 2831
2784 2832
2785 2786
2785 2833
2786 2787
2786 2833
2786 2834
2787 2834
2787 2835
2788 2835
2788 2836
2789 2837
2789 2838
2789 2839
2790 2791
2790 2839
2790 2840
2790 2841
2791 2792
2791 2840
2791 2841
2791 2842
2792 2793
2792 2841
2792 2842
2792 2843
2793 2794
2793 2842
2793 2843
2793 2844
2794 2795
2794 2843
2794 2844
2794 2845
2795 2796
2795 2844
2795 2845
2795 2846
2796 2797
2796 2845
2796 2846
2796 2847
2797 2846
2797 2847
2797 2848
2798 2799
2798 2848
2798 2849
2799 2800
2799 2849
2799 2850
2800 2801
2800 2849
2800 2850
2800 2851
2801 2802
2801 2850
2801 2851
2802 2803
2802 2851
2802 2852
2803 2804
2803 2852
2803 2853
2804 2805
2804 2852
2804 2853
2804 2854
2805 2806
2805 2853
2805 2854
2805 2855
2806 2807
2806 2854
2806 2855
2806 2856
2807 2855
2807 2856
2807 2857
2808 2809
2808 2857
2808 2858
2808 2859
2809 2810
2809 2858
2809 2859
2810 2811
2810 2859
2810 2860
2811 2860
2811 2861
2812 2813
2812 2862
2813 2863
2814 2815
2814 2864
2814 2865
2814 2866
2815 2816
2815 2865
2815 2866
2816 2866
2816 2867
2817 2818
2817 2867
2817 2868
2818 2819
2818 2868
2818 2869
2819 2820
2819 2868
2819 2869
2819 2870
2820 2821
2820 2869
2820 2870
2820 2871
2821 2822
2821 2870
2821 2871
2821 2872
2822 2823
2822 2871
2822 2872
2822 2873
2823 2824
2823 2872
2823 2873
2823 2874
2824 2825
2824 2873
2824 2874
2825 2826
2825 2874
2825 2875
2826 2827
2826 2875
2826 2876
2827 2828
2827 2875
2827 2876
2828 2829
2828 2876
2828 2877
2829 2830
2829 2877
2829 2878
2830 2877
2830 2878
2831 2832
2831 2879
2831 2880
2832 2879
2832 2880
2834 2835
2836 2837
2837 2838
2838 2839
2839 2840
2840 2841
2841 2842
2842 2843
2843 2844
2844 2845
2845 2846
2846 2847
2847 2848
2849 2850
2850 2851
2852 2853
2853 2854
2854 2855
2855 2856
2856 2857
2857 2858
2858 2859
2860 2861
2861 2862
2863 2864
2864 2865
2865 2866
2868 2869
2869 2870
2870 2871
2871 2872
2872 2873
2873 2874
2875 2876
2877 2878
2879 2880
