# Random KSG graph
n = 60
seed = 5
type = random_ksg

vertices: 2880
edges:
1 2
1 51
1 52
2 52
3 4
3 53
4 5
4 53
4 54
5 53
5 54
5 55
6 7
6 56
6 57
6 58
7 8
7 57
7 58
7 59
8 9
8 58
8 59
8 60
9 10
9 59
9 60
9 61
10 11
10 60
10 61
10 62
11 12
11 61
11 62
11 63
12 13
12 62
12 63
13 63
13 64
14 15
14 64
14 65
14 66
15 65
15 66
16 17
16 67
16 68
17 18
17 67
17 68
18 19
18 68
18 69
19 20
19 69
20 21
20 69
20 70
21 22
21 70
21 71
22 23
22 70
22 71
22 72
23 24
23 71
23 72
23 73
24 25
24 72
24 73
24 74
25 26
25 73
25 74
25 75
26 27
26 74
26 75
26 76
27 75
27 76
27 77
28 29
28 77
28 78
28 79
29 30
29 78
29 79
29 80
30 31
30 79
30 80
30 81
31 80
31 81
31 82
32 33
32 82
32 83
33 34
33 83
34 35
35 36
35 84
36 37
36 84
37 38
37 84
37 85
38 39
38 85
38 86
39 40
39 85
39 86
39 87
40 41
40 86
40 87
40 88
41 42
41 87
41 88
41 89
42 88
42 89
42 90
43 44
43 90
43 91
43 92
44 45
44 91
44 92
45 46
45 92
45 93
46 47
46 93
46 94
47 93
47 94
47 95
48 49
48 95
48 96
48 97
49 50
49 96
49 97
50 97
51 52
51 98
51 99
52 98
52 99
53 54
53 101
53 102
53 103
54 55
54 102
54 103
55 56
55 103
55 104
56 57
56 104
56 105
57 58
57 104
57 105
57 106
58 59
58 105
58 106
58 107
59 60
59 106
59 107
59 108
60 61
60 107
60 108
60 109
61 62
61 108
61 109
61 110
62 63
62 109
62 110
62 111
63 110
63 111
63 112
64 65
64 112
64 113
64 114
65 66
65 113
65 114
65 115
66 114
66 115
66 116
67 68
67 116
67 117
67 118
68 117
68 118
69 119
70 71
70 119
70 120
70 121
71 72
71 120
71 121
71 122
72 73
72 121
72 122
72 123
73 74
73 122
73 123
73 124
74 75
74 123
74 124
74 125
75 76
75 124
75 125
75 126
76 77
76 125
76 126
76 127
77 78
77 126
77 127
77 128
78 79
78 127
78 128
78 129
79 80
79 128
79 129
79 130
80 81
80 129
80 130
80 131
81 82
81 130
81 131
82 83
82 131
82 132
83 132
83 133
84 135
85 86
85 136
86 87
86 136
86 137
87 88
87 136
87 137
88 89
88 137
88 138
89 90
89 138
89 139
90 91
90 138
90 139
91 92
91 139
91 140
92 140
92 141
93 94
93 141
93 142
94 95
94 142
94 143
95 96
95 143
95 144
96 97
96 143
96 144
96 145
97 144
97 145
97 146
98 99
98 147
98 148
99 147
99 148
99 149
100 101
100 149
100 150
100 151
101 102
101 150
101 151
101 152
102 103
102 151
102 152
102 153
103 152
103 153
103 154
104 105
104 154
104 155
104 156
105 106
105 155
105 156
105 157
106 107
106 156
106 157
106 158
107 108
107 157
107 158
107 159
108 109
108 158
108 159
108 160
109 110
109 159
109 160
109 161
110 111
110 160
110 161
110 162
111 112
111 161
111 162
111 163
112 113
112 162
112 163
113 114
113 163
113 164
114 115
114 164
114 165
115 116
115 164
115 165
115 166
116 117
116 165
116 166
116 167
117 118
117 166
117 167
118 167
118 168
119 120
119 169
119 170
120 121
120 169
120 170
120 171
121 122
121 170
121 171
121 172
122 123
122 171
122 172
122 173
123 124
123 172
123 173
124 125
124 173
124 174
125 126
125 174
125 175
126 127
126 174
126 175
126 176
127 128
127 175
127 176
127 177
128 129
128 176
128 177
128 178
129 130
129 177
129 178
129 179
130 131
130 178
130 179
131 179
131 180
132 133
132 180
132 181
133 134
133 181
133 182
134 135
134 181
134 182
134 183
135 182
135 183
135 184
136 137
136 186
136 187
136 188
137 187
137 188
137 189
138 139
138 189
138 190
139 190
139 191
140 141
140 191
140 192
140 193
141 142
141 192
141 193
142 193
143 144
143 194
143 195
144 145
144 194
144 195
144 196
145 146
145 195
145 196
145 197
146 196
146 197
147 148
147 198
147 199
148 149
148 198
148 199
149 150
149 199
149 200
150 151
150 200
150 201
151 152
151 200
151 201
152 153
152 201
152 202
153 154
153 202
153 203
154 155
154 202
154 203
154 204
155 156
155 203
155 204
155 205
156 157
156 204
156 205
156 206
157 158
157 205
157 206
157 207
158 159
158 206
158 207
158 208
159 160
159 207
159 208
159 209
160 161
160 208
160 209
160 210
161 162
161 209
161 210
161 211
162 163
162 210
162 211
162 212
163 211
163 212
164 165
164 213
165 166
165 213
165 214
166 167
166 213
166 214
166 215
167 214
167 215
167 216
168 216
168 217
168 218
169 170
169 218
169 219
169 220
170 171
170 219
170 220
170 221
171 172
171 220
171 221
171 222
172 173
172 221
172 222
172 223
173 222
173 223
173 224
174 175
174 224
174 225
175 176
175 225
175 226
176 177
176 226
176 227
177 178
177 226
177 227
177 228
178 179
178 227
178 228
179 228
179 229
180 229
180 230
180 231
181 182
181 231
182 183
182 232
183 184
183 232
183 233
184 185
184 232
184 233
184 234
185 186
185 233
185 234
185 235
186 187
186 234
186 235
186 236
187 188
187 235
187 236
187 237
188 189
188 236
188 237
188 238
189 190
189 237
189 238
189 239
190 238
190 239
190 240
191 192
191 240
191 241
191 242
192 193
192 241
192 242
193 242
193 243
194 195
194 244
194 245
194 246
195 196
195 245
195 246
195 247
196 197
196 246
196 247
196 248
197 247
197 248
198 199
198 249
198 250
199 249
199 250
199 251
200 201
200 251
200 252
200 253
201 252
201 253
201 254
202 203
202 254
202 255
202 256
203 204
203 255
203 256
204 205
204 256
204 257
205 206
205 257
205 258
206 207
206 257
206 258
206 259
207 208
207 258
207 259
207 260
208 209
208 259
208 260
208 261
209 210
209 260
209 261
209 262
210 211
210 261
210 262
210 263
211 212
211 262
211 263
212 263
212 264
213 214
213 265
213 266
213 267
214 215
214 266
214 267
214 268
215 216
215 267
215 268
216 217
216 268
217 218
217 269
218 219
218 269
218 270
219 220
219 269
219 270
219 271
220 221
220 270
220 271
221 222
221 271
221 272
222 223
222 272
222 273
223 224
223 272
223 273
224 225
224 273
224 274
225 274
226 227
226 275
227 228
227 275
227 276
228 276
228 277
229 230
229 277
229 278
230 231
230 278
230 279
231 278
231 279
231 280
232 233
232 281
232 282
232 283
233 234
233 282
233 283
233 284
234 235
234 283
234 284
234 285
235 236
235 284
235 285
235 286
236 237
236 285
236 286
237 238
237 286
237 287
238 239
238 287
239 240
239 287
239 288
240 241
240 288
240 289
241 242
241 288
241 289
242 289
242 290
243 244
243 290
243 291
243 292
244 245
244 291
244 292
244 293
245 246
245 292
245 293
245 294
246 247
246 293
246 294
246 295
247 248
247 294
247 295
247 296
248 295
248 296
249 250
249 297
250 251
250 297
250 298
251 252
251 297
251 298
251 299
252 253
252 298
252 299
252 300
253 254
253 299
253 300
253 301
254 255
254 300
254 301
254 302
255 256
255 301
255 302
255 303
256 302
256 303
256 304
257 258
257 304
257 305
257 306
258 259
258 305
258 306
258 307
259 260
259 306
259 307
259 308
260 261
260 307
260 308
260 309
261 262
261 308
261 309
261 310
262 263
262 309
262 310
262 311
263 310
263 311
263 312
264 265
264 312
264 313
264 314
265 266
265 313
265 314
265 315
266 267
266 314
266 315
266 316
267 268
267 315
267 316
267 317
268 316
268 317
268 318
269 270
269 319
269 320
269 321
270 271
270 320
270 321
270 322
271 321
271 322
271 323
272 273
272 323
272 324
272 325
273 324
273 325
274 326
274 327
275 327
275 328
275 329
276 277
276 329
276 330
276 331
277 330
277 331
277 332
278 279
278 332
278 333
278 334
279 280
279 333
279 334
279 335
280 281
280 334
280 335
280 336
281 282
281 335
281 336
281 337
282 283
282 336
282 337
282 338
283 284
283 337
283 338
284 285
284 338
284 339
285 286
285 339
285 340
286 339
286 340
287 341
288 289
288 341
288 342
289 342
289 343
290 291
290 343
290 344
290 345
291 292
291 344
291 345
291 346
292 293
292 345
292 346
292 347
293 294
293 346
293 347
293 348
294 295
294 347
294 348
294 349
295 296
295 348
295 349
296 349
297 298
297 350
298 299
298 350
298 351
299 300
299 351
299 352
300 301
300 351
300 352
300 353
301 302
301 352
301 353
301 354
302 303
302 353
302 354
303 304
303 354
303 355
304 305
304 355
305 306
305 355
305 356
306 307
306 356
306 357
307 308
307 356
307 357
307 358
308 309
308 357
308 358
309 310
309 358
309 359
310 311
310 359
310 360
311 312
311 359
311 360
312 313
312 360
312 361
313 314
313 361
313 362
314 315
314 361
314 362
314 363
315 316
315 362
315 363
315 364
316 317
316 363
316 364
316 365
317 318
317 364
317 365
318 319
318 365
318 366
319 320
319 366
319 367
320 321
320 366
320 367
321 322
321 367
321 368
322 323
322 368
322 369
323 324
323 368
323 369
324 325
324 369
325 370
326 327
326 370
326 371
326 372
327 328
327 371
327 372
327 373
328 329
328 372
328 373
328 374
329 330
329 373
329 374
329 375
330 331
330 374
330 375
330 376
331 332
331 375
331 376
331 377
332 333
332 376
332 377
332 378
333 334
333 377
333 378
333 379
334 335
334 378
334 379
334 380
335 336
335 379
335 380
335 381
336 337
336 380
336 381
336 382
337 338
337 381
337 382
337 383
338 382
338 383
338 384
339 340
339 384
339 385
339 386
340 385
340 386
340 387
341 342
341 388
341 389
341 390
342 389
342 390
342 391
343 344
343 391
343 392
343 393
344 345
344 392
344 393
344 394
345 346
345 393
345 394
345 395
346 347
346 394
346 395
346 396
347 348
347 395
347 396
347 397
348 349
348 396
348 397
348 398
349 397
349 398
349 399
350 400
350 401
350 402
351 352
351 402
351 403
351 404
352 353
352 403
352 404
352 405
353 354
353 404
353 405
353 406
354 405
354 406
354 407
355 407
355 408
355 409
356 357
356 409
356 410
356 411
357 358
357 410
357 411
357 412
358 411
358 412
358 413
359 360
359 413
359 414
359 415
360 414
360 415
360 416
361 362
361 416
361 417
361 418
362 363
362 417
362 418
362 419
363 364
363 418
363 419
364 365
364 419
364 420
365 420
365 421
366 367
366 421
366 422
367 422
367 423
368 369
368 423
368 424
369 424
369 425
370 371
370 426
370 427
371 372
371 427
371 428
372 373
372 428
372 429
373 374
373 428
373 429
373 430
374 375
374 429
374 430
374 431
375 376
375 430
375 431
375 432
376 377
376 431
376 432
376 433
377 378
377 432
377 433
377 434
378 379
378 433
378 434
378 435
379 380
379 434
379 435
380 381
380 435
380 436
381 382
381 436
382 383
382 436
383 384
383 437
384 385
384 437
384 438
385 386
385 437
385 438
386 387
386 438
386 439
387 388
387 439
387 440
388 389
388 439
388 440
388 441
389 390
389 440
389 441
389 442
390 391
390 441
390 442
390 443
391 392
391 442
391 443
392 393
392 443
392 444
393 394
393 444
393 445
394 395
394 444
394 445
394 446
395 396
395 445
395 446
395 447
396 397
396 446
396 447
396 448
397 398
397 447
397 448
397 449
398 399
398 448
398 449
398 450
399 449
399 450
400 401
400 451
400 452
401 402
401 451
401 452
401 453
402 403
402 452
402 453
403 404
403 453
403 454
404 405
404 454
404 455
405 406
405 454
405 455
405 456
406 407
406 455
406 456
406 457
407 408
407 456
407 457
407 458
408 409
408 457
408 458
408 459
409 410
409 458
409 459
410 411
410 459
410 460
411 412
411 460
411 461
412 413
412 460
412 461
413 414
413 461
413 462
414 415
414 462
414 463
415 416
415 462
415 463
415 464
416 417
416 463
416 464
416 465
417 418
417 464
417 465
417 466
418 419
418 465
418 466
418 467
419 466
419 467
419 468
420 421
420 468
420 469
421 422
421 469
422 469
422 470
423 470
423 471
424 425
424 472
424 473
425 426
425 472
425 473
425 474
426 427
426 473
426 474
426 475
427 474
427 475
427 476
428 429
428 476
428 477
429 430
429 477
429 478
430 431
430 478
430 479
431 432
431 478
431 479
431 480
432 433
432 479
432 480
432 481
433 434
433 480
433 481
434 435
434 481
436 482
436 483
437 438
437 484
437 485
438 484
438 485
439 440
440 441
440 486
441 442
441 486
441 487
442 443
442 486
442 487
442 488
443 487
443 488
443 489
444 445
444 489
444 490
444 491
445 446
445 490
445 491
445 492
446 447
446 491
446 492
446 493
447 448
447 492
447 493
447 494
448 449
448 493
448 494
449 450
449 494
451 452
451 495
452 453
452 495
452 496
453 496
453 497
454 455
454 497
454 498
454 499
455 456
455 498
455 499
456 457
456 499
456 500
457 458
457 500
457 501
458 459
458 500
458 501
459 501
460 461
460 502
460 503
461 502
461 503
461 504
462 463
462 504
462 505
463 464
463 505
463 506
464 465
464 506
464 507
465 466
465 506
465 507
465 508
466 467
466 507
466 508
466 509
467 468
467 508
467 509
467 510
468 509
468 510
468 511
469 511
469 512
470 471
470 513
470 514
471 513
471 514
472 473
472 515
472 516
473 474
473 515
473 516
473 517
474 475
474 516
474 517
475 476
475 517
475 518
476 477
476 518
476 519
477 518
477 519
477 520
478 479
478 520
478 521
478 522
479 480
479 521
479 522
479 523
480 481
480 522
480 523
480 524
481 523
481 524
482 483
482 526
484 485
484 527
485 527
485 528
486 487
486 530
486 531
486 532
487 488
487 531
487 532
487 533
488 489
488 532
488 533
488 534
489 490
489 533
489 534
489 535
490 491
490 534
490 535
490 536
491 492
491 535
491 536
491 537
492 493
492 536
492 537
492 538
493 494
493 537
493 538
493 539
494 538
494 539
494 540
495 542
495 543
496 497
496 543
496 544
496 545
497 498
497 544
497 545
497 546
498 499
498 545
498 546
499 546
499 547
500 501
500 547
500 548
500 549
501 548
501 549
501 550
502 503
502 551
502 552
503 504
503 551
503 552
503 553
504 505
504 552
504 553
504 554
505 553
505 554
505 555
506 507
506 555
506 556
506 557
507 508
507 556
507 557
507 558
508 509
508 557
508 558
508 559
509 510
509 558
509 559
509 560
510 511
510 559
510 560
511 512
511 560
511 561
512 561
512 562
513 514
513 562
513 563
513 564
514 563
514 564
514 565
515 516
515 565
515 566
515 567
516 517
516 566
516 567
516 568
517 567
517 568
517 569
518 519
518 569
518 570
519 520
519 570
519 571
520 521
520 570
520 571
520 572
521 522
521 571
521 572
521 573
522 523
522 572
522 573
522 574
523 524
523 573
523 574
523 575
524 574
524 575
525 526
525 576
525 577
526 576
526 577
526 578
527 580
527 581
527 582
528 529
528 582
528 583
528 584
529 530
529 583
529 584
530 531
530 584
530 585
531 532
531 585
531 586
532 533
532 585
532 586
532 587
533 534
533 586
533 587
534 535
534 587
534 588
535 536
535 588
536 537
536 588
536 589
537 538
537 589
538 539
538 589
538 590
539 540
539 590
539 591
540 541
540 590
540 591
540 592
541 591
541 592
542 543
542 593
542 594
543 544
543 593
543 594
543 595
544 545
544 594
544 595
544 596
545 546
545 595
545 596
546 596
547 548
547 597
548 549
548 597
548 598
549 550
549 598
549 599
550 598
550 599
550 600
551 552
551 600
551 601
552 553
552 601
553 554
553 601
553 602
554 555
554 602
554 603
555 556
555 602
555 603
555 604
556 557
556 603
556 604
556 605
557 558
557 604
557 605
557 606
558 559
558 605
558 606
559 560
559 606
559 607
560 607
560 608
561 562
561 608
561 609
562 563
562 609
562 610
563 564
563 609
563 610
563 611
564 565
564 610
564 611
565 566
565 611
565 612
566 567
566 612
566 613
567 568
567 612
567 613
567 614
568 569
568 613
568 614
569 614
569 615
570 571
570 615
571 572
571 616
572 573
572 616
572 617
573 574
573 616
573 617
573 618
574 575
574 617
574 618
574 619
575 618
575 619
575 620
576 577
576 620
576 621
576 622
577 578
577 621
577 622
578 579
578 622
579 580
580 581
580 623
581 582
581 623
581 624
582 583
582 623
582 624
582 625
583 584
583 624
583 625
584 625
584 626
585 586
585 626
585 627
585 628
586 587
586 627
586 628
586 629
587 628
587 629
588 630
588 631
589 631
589 632
590 591
590 632
590 633
590 634
591 592
591 633
591 634
591 635
592 634
592 635
593 594
593 636
594 595
594 636
594 637
595 596
595 637
595 638
596 637
596 638
596 639
597 640
597 641
597 642
598 599
598 642
598 643
598 644
599 600
599 643
599 644
599 645
600 644
600 645
600 646
601 646
601 647
601 648
602 603
602 648
602 649
602 650
603 604
603 649
603 650
603 651
604 605
604 650
604 651
604 652
605 606
605 651
605 652
606 652
606 653
607 608
607 653
607 654
608 654
608 655
609 610
609 655
609 656
610 611
610 656
611 656
611 657
612 613
612 657
612 658
612 659
613 614
613 658
613 659
613 660
614 659
614 660
614 661
615 661
615 662
615 663
616 617
616 664
616 665
616 666
617 618
617 665
617 666
617 667
618 619
618 666
618 667
618 668
619 620
619 667
619 668
619 669
620 621
620 668
620 669
620 670
621 622
621 669
621 670
622 670
622 671
623 624
623 672
623 673
624 625
624 673
624 674
625 673
625 674
626 627
626 675
626 676
627 628
627 675
627 676
627 677
628 629
628 676
628 677
628 678
629 677
629 678
629 679
630 631
630 679
630 680
630 681
631 680
631 681
631 682
632 633
632 682
632 683
632 684
633 634
633 683
633 684
633 685
634 635
634 684
634 685
634 686
635 685
635 686
636 687
637 638
637 687
637 688
637 689
638 639
638 688
638 689
638 690
639 640
639 689
639 690
639 691
640 641
640 690
640 691
640 692
641 642
641 691
641 692
642 643
642 692
642 693
643 644
643 693
644 645
644 693
644 694
645 646
645 694
645 695
646 647
646 694
646 695
646 696
647 648
647 695
647 696
648 649
648 696
648 697
649 650
649 697
650 651
650 697
650 698
651 652
651 698
652 698
653 654
653 699
654 699
654 700
655 700
655 701
655 702
656 702
656 703
656 704
657 658
657 704
657 705
657 706
658 659
658 705
658 706
658 707
659 660
659 706
659 707
659 708
660 661
660 707
660 708
660 709
661 662
661 708
661 709
662 663
662 709
662 710
663 664
663 710
664 665
664 710
664 711
665 666
665 711
665 712
666 667
666 711
666 712
666 713
667 668
667 712
667 713
668 669
668 713
668 714
669 670
669 714
669 715
670 714
670 715
670 716
671 716
671 717
671 718
672 718
672 719
673 674
673 720
673 721
674 720
674 721
675 676
675 722
675 723
676 677
676 722
676 723
676 724
677 678
677 723
677 724
677 725
678 679
678 724
678 725
678 726
679 680
679 725
679 726
679 727
680 681
680 726
680 727
680 728
681 682
681 727
681 728
681 729
682 683
682 728
682 729
682 730
683 684
683 729
683 730
683 731
684 685
684 730
684 731
684 732
685 686
685 731
685 732
685 733
686 732
686 733
687 688
687 734
687 735
687 736
688 689
688 735
688 736
688 737
689 690
689 736
689 737
689 738
690 691
690 737
690 738
690 739
691 692
691 738
691 739
691 740
692 739
692 740
692 741
693 741
693 742
693 743
694 695
694 743
694 744
695 696
695 744
695 745
696 745
696 746
697 746
697 747
697 748
698 748
698 749
699 750
699 751
699 752
700 701
700 752
700 753
700 754
701 702
701 753
701 754
701 755
702 703
702 754
702 755
702 756
703 704
703 755
703 756
703 757
704 705
704 756
704 757
704 758
705 706
705 757
705 758
705 759
706 707
706 758
706 759
706 760
707 708
707 759
707 760
707 761
708 709
708 760
708 761
708 762
709 761
709 762
709 763
710 763
710 764
710 765
711 712
711 765
711 766
711 767
712 713
712 766
712 767
712 768
713 767
713 768
714 715
714 769
714 770
715 716
715 769
715 770
715 771
716 717
716 770
716 771
716 772
717 718
717 771
717 772
717 773
718 719
718 772
718 773
718 774
719 773
719 774
720 721
720 775
720 776
721 775
721 776
721 777
722 723
722 777
722 778
722 779
723 724
723 778
723 779
724 725
724 779
724 780
725 726
725 780
725 781
726 727
726 780
726 781
726 782
727 728
727 781
727 782
727 783
728 729
728 782
728 783
728 784
729 730
729 783
729 784
730 731
730 784
730 785
731 732
731 785
732 733
732 785
732 786
733 786
734 735
734 787
735 736
735 787
735 788
736 737
736 787
736 788
736 789
737 738
737 788
737 789
737 790
738 739
738 789
738 790
738 791
739 740
739 790
739 791
739 792
740 741
740 791
740 792
741 742
741 792
741 793
742 743
742 793
742 794
743 744
743 793
743 794
743 795
744 794
744 795
744 796
745 746
745 796
745 797
745 798
746 747
746 797
746 798
746 799
747 748
747 798
747 799
747 800
748 799
748 800
748 801
749 750
749 801
749 802
749 803
750 751
750 802
750 803
751 752
751 803
751 804
752 753
752 804
752 805
753 754
753 804
753 805
753 806
754 755
754 805
754 806
754 807
755 756
755 806
755 807
755 808
756 757
756 807
756 808
757 758
757 808
757 809
758 759
758 809
758 810
759 760
759 809
759 810
759 811
760 761
760 810
760 811
761 762
761 811
761 812
762 763
762 812
762 813
763 764
763 812
763 813
764 765
764 813
765 766
766 767
766 814
767 768
767 814
767 815
768 814
768 815
768 816
769 770
769 816
769 817
769 818
770 771
770 817
770 818
770 819
771 772
771 818
771 819
771 820
772 773
772 819
772 820
772 821
773 774
773 820
773 821
773 822
774 821
774 822
775 776
775 823
775 824
776 777
776 823
776 824
776 825
777 778
777 824
777 825
777 826
778 779
778 825
778 826
779 826
779 827
780 781
780 827
780 828
780 829
781 782
781 828
781 829
781 830
782 783
782 829
782 830
782 831
783 784
783 830
783 831
784 831
784 832
785 832
785 833
786 833
787 788
787 834
787 835
787 836
788 789
788 835
788 836
789 790
789 836
790 791
790 837
791 792
791 837
791 838
792 837
792 838
792 839
793 794
793 839
793 840
793 841
794 795
794 840
794 841
794 842
795 796
795 841
795 842
795 843
796 797
796 842
796 843
796 844
797 798
797 843
797 844
798 799
798 844
798 845
799 800
799 845
799 846
800 801
800 845
800 846
801 802
801 846
801 847
802 803
802 847
802 848
803 847
803 848
803 849
804 805
804 849
804 850
804 851
805 806
805 850
805 851
805 852
806 807
806 851
806 852
806 853
807 808
807 852
807 853
808 853
808 854
809 810
809 854
809 855
809 856
810 811
810 855
810 856
810 857
811 856
811 857
811 858
812 813
812 858
812 859
812 860
813 859
813 860
813 861
814 815
814 863
814 864
815 816
815 863
815 864
815 865
816 817
816 864
816 865
816 866
817 818
817 865
817 866
817 867
818 819
818 866
818 867
818 868
819 820
819 867
819 868
819 869
820 821
820 868
820 869
820 870
821 822
821 869
821 870
821 871
822 870
822 871
822 872
823 824
823 872
823 873
823 874
824 825
824 873
824 874
825 826
825 874
825 875
826 875
826 876
827 828
827 876
827 877
828 829
828 877
828 878
829 830
829 878
830 831
830 878
830 879
831 879
831 880
832 880
832 881
833 882
833 883
834 835
834 884
834 885
835 836
835 884
835 885
835 886
836 885
836 886
836 887
837 838
837 888
837 889
838 839
838 888
838 889
838 890
839 840
839 889
839 890
840 841
840 890
840 891
841 842
841 891
841 892
842 843
842 891
842 892
842 893
843 844
843 892
843 893
844 893
844 894
845 846
845 894
845 895
845 896
846 895
846 896
847 848
847 897
847 898
848 849
848 897
848 898
848 899
849 850
849 898
849 899
849 900
850 851
850 899
850 900
850 901
851 852
851 900
851 901
851 902
852 853
852 901
852 902
852 903
853 902
853 903
853 904
854 855
854 904
854 905
854 906
855 856
855 905
855 906
855 907
856 857
856 906
856 907
856 908
857 858
857 907
857 908
857 909
858 859
858 908
858 909
858 910
859 860
859 909
859 910
859 911
860 861
860 910
860 911
860 912
861 862
861 911
861 912
861 913
862 912
862 913
862 914
863 864
863 914
863 915
863 916
864 865
864 915
864 916
864 917
865 866
865 916
865 917
866 867
866 917
866 918
867 868
867 918
867 919
868 869
868 918
868 919
868 920
869 870
869 919
869 920
869 921
870 871
870 920
870 921
870 922
871 872
871 921
871 922
871 923
872 873
872 922
872 923
873 874
873 923
873 924
874 924
874 925
875 876
875 925
875 926
875 927
876 877
876 926
876 927
877 927
877 928
878 928
878 929
879 880
879 929
879 930
879 931
880 881
880 930
880 931
880 932
881 931
881 932
881 933
882 883
882 933
882 934
882 935
883 934
883 935
884 885
884 936
884 937
885 886
885 936
885 937
886 887
886 937
886 938
887 938
887 939
888 889
888 939
888 940
888 941
889 890
889 940
889 941
889 942
890 941
890 942
891 892
891 943
892 893
892 943
893 944
894 895
894 944
894 945
894 946
895 896
895 945
895 946
895 947
896 946
896 947
896 948
897 898
897 948
897 949
897 950
898 899
898 949
898 950
898 951
899 900
899 950
899 951
900 901
900 951
900 952
901 902
901 952
901 953
902 903
902 952
902 953
902 954
903 904
903 953
903 954
904 905
904 954
904 955
905 906
905 955
905 956
906 907
906 955
906 956
906 957
907 908
907 956
907 957
907 958
908 909
908 957
908 958
909 910
909 958
910 911
911 912
911 959
912 913
912 959
913 914
913 959
913 960
914 915
914 960
914 961
915 916
915 960
915 961
915 962
916 917
916 961
916 962
916 963
917 962
917 963
917 964
918 919
918 964
918 965
919 920
919 965
920 921
920 966
921 922
921 966
921 967
922 923
922 966
922 967
922 968
923 967
923 968
923 969
924 925
924 969
924 970
924 971
925 926
925 970
925 971
926 927
926 971
926 972
927 972
927 973
928 973
929 930
929 974
929 975
930 931
930 974
930 975
930 976
931 932
931 975
931 976
931 977
932 933
932 976
932 977
932 978
933 934
933 977
933 978
933 979
934 935
934 978
934 979
934 980
935 979
935 980
936 937
936 981
936 982
937 981
937 982
937 983
938 939
938 983
938 984
939 940
939 984
940 941
940 985
941 942
941 985
941 986
942 985
942 986
942 987
943 987
943 988
944 945
944 989
944 990
944 991
945 946
945 990
945 991
945 992
946 947
946 991
946 992
946 993
947 948
947 992
947 993
948 949
948 993
948 994
949 950
949 994
949 995
950 951
950 994
950 995
950 996
951 995
951 996
951 997
952 953
952 997
952 998
952 999
953 954
953 998
953 999
954 999
954 1000
955 956
955 1000
955 1001
956 957
956 1001
956 1002
957 958
957 1001
957 1002
957 1003
958 1002
958 1003
959 1005
959 1006
960 961
960 1007
960 1008
961 962
961 1007
961 1008
961 1009
962 963
962 1008
962 1009
962 1010
963 964
963 1009
963 1010
963 1011
964 965
964 1010
964 1011
964 1012
965 1011
965 1012
965 1013
966 967
966 1014
966 1015
967 968
967 1015
967 1016
968 969
968 1015
968 1016
968 1017
969 970
969 1016
969 1017
969 1018
970 971
970 1017
970 1018
970 1019
971 1018
971 1019
971 1020
972 973
972 1020
972 1021
972 1022
973 1021
973 1022
973 1023
974 975
974 1024
974 1025
975 976
975 1024
975 1025
975 1026
976 977
976 1025
976 1026
977 978
977 1026
977 1027
978 979
978 1027
979 980
979 1027
979 1028
980 1028
981 982
981 1029
981 1030
982 983
982 1029
982 1030
982 1031
983 984
983 1030
983 1031
983 1032
984 1031
984 1032
984 1033
985 986
985 1034
985 1035
985 1036
986 987
986 1035
986 1036
986 1037
987 988
987 1036
987 1037
987 1038
988 1037
988 1038
989 990
989 1039
989 1040
990 991
990 1039
990 1040
991 992
991 1040
991 1041
992 993
992 1041
992 1042
993 1041
993 1042
993 1043
994 995
994 1043
994 1044
994 1045
995 996
995 1044
995 1045
995 1046
996 997
996 1045
996 1046
996 1047
997 998
997 1046
997 1047
997 1048
998 999
998 1047
998 1048
998 1049
999 1048
999 1049
999 1050
1000 1050
1000 1051
1000 1052
1001 1002
1001 1052
1001 1053
1001 1054
1002 1003
1002 1053
1002 1054
1003 1054
1004 1005
1004 1055
1004 1056
1005 1006
1005 1055
1005 1056
1006 1056
1006 1057
1007 1008
1007 1057
1007 1058
1008 1009
1008 1058
1008 1059
1009 1010
1009 1058
1009 1059
1009 1060
1010 1011
1010 1059
1010 1060
1011 1012
1011 1060
1012 1013
1012 1061
1013 1014
1013 1061
1013 1062
1014 1061
1014 1062
1014 1063
1015 1016
1015 1063
1015 1064
1016 1017
1016 1064
1016 1065
1017 1018
1017 1065
1017 1066
1018 1019
1018 1065
1018 1066
1018 1067
1019 1020
1019 1066
1019 1067
1019 1068
1020 1021
1020 1067
1020 1068
1020 1069
1021 1022
1021 1068
1021 1069
1021 1070
1022 1023
1022 1069
1022 1070
1022 1071
1023 1070
1023 1071
1023 1072
1024 1025
1024 1072
1024 1073
1024 1074
1025 1026
1025 1073
1025 1074
1025 1075
1026 1074
1026 1075
1026 1076
1027 1076
1027 1077
1027 1078
1028 1078
1028 1079
1029 1030
1029 1080
1029 1081
1030 1031
1030 1080
1030 1081
1030 1082
1031 1032
1031 1081
1031 1082
1031 1083
1032 1033
1032 1082
1032 1083
1032 1084
1033 1034
1033 1083
1033 1084
1034 1035
1034 1084
1035 1036
1036 1037
1036 1085
1037 1038
1037 1085
1037 1086
1038 1085
1038 1086
1038 1087
1039 1040
1039 1087
1039 1088
1040 1088
1040 1089
1041 1042
1041 1089
1041 1090
1042 1043
1042 1090
1042 1091
1043 1044
1043 1091
1044 1045
1044 1091
1044 1092
1045 1046
1045 1092
1045 1093
1046 1047
1046 1092
1046 1093
1047 1048
1047 1093
1048 1049
1048 1094
1049 1050
1049 1094
1049 1095
1050 1051
1050 1094
1050 1095
1050 1096
1051 1052
1051 1095
1051 1096
1051 1097
1052 1053
1052 1096
1052 1097
1052 1098
1053 1054
1053 1097
1053 1098
1053 1099
1054 1098
1054 1099
1054 1100
1055 1056
1055 1101
1055 1102
1055 1103
1056 1102
1056 1103
1057 1104
1057 1105
1058 1059
1058 1105
1058 1106
1059 1060
1059 1106
1059 1107
1060 1106
1060 1107
1060 1108
1061 1062
1061 1109
1061 1110
1062 1063
1062 1110
1062 1111
1063 1064
1063 1110
1063 1111
1063 1112
1064 1111
1064 1112
1065 1066
1065 1113
1065 1114
1066 1067
1066 1113
1066 1114
1066 1115
1067 1068
1067 1114
1067 1115
1067 1116
1068 1069
1068 1115
1068 1116
1068 1117
1069 1070
1069 1116
1069 1117
1069 1118
1070 1071
1070 1117
1070 1118
1071 1072
1071 1118
1071 1119
1072 1073
1072 1119
1072 1120
1073 1074
1073 1119
1073 1120
1073 1121
1074 1075
1074 1120
1074 1121
1075 1076
1075 1121
1075 1122
1076 1077
1076 1122
1076 1123
1077 1078
1077 1122
1077 1123
1077 1124
1078 1079
1078 1123
1078 1124
1078 1125
1079 1124
1079 1125
1080 1081
1080 1126
1080 1127
1081 1082
1081 1126
1081 1127
1081 1128
1082 1083
1082 1127
1082 1128
1082 1129
1083 1084
1083 1128
1083 1129
1083 1130
1084 1129
1084 1130
1085 1086
1085 1132
1085 1133
1086 1087
1086 1133
1086 1134
1087 1134
1088 1089
1088 1135
1089 1090
1089 1135
1089 1136
1090 1135
1090 1136
1090 1137
1091 1137
1091 1138
1091 1139
1092 1093
1092 1139
1092 1140
1092 1141
1093 1140
1093 1141
1093 1142
1094 1095
1094 1143
1094 1144
1094 1145
1095 1096
1095 1144
1095 1145
1096 1097
1096 1145
1096 1146
1097 1098
1097 1146
1097 1147
1098 1099
1098 1146
1098 1147
1098 1148
1099 1100
1099 1147
1099 1148
1099 1149
1100 1101
1100 1148
1100 1149
1101 1102
1101 1149
1102 1103
1102 1150
1103 1150
1103 1151
1104 1105
1104 1151
1104 1152
1104 1153
1105 1152
1105 1153
1106 1107
1106 1154
1106 1155
1107 1108
1107 1154
1107 1155
1107 1156
1108 1109
1108 1155
1108 1156
1109 1156
1109 1157
1110 1111
1110 1157
1110 1158
1111 1112
1111 1158
1111 1159
1112 1158
1112 1159
1112 1160
1113 1114
1113 1160
1113 1161
1113 1162
1114 1115
1114 1161
1114 1162
1114 1163
1115 1116
1115 1162
1115 1163
1115 1164
1116 1117
1116 1163
1116 1164
1117 1118
1117 1164
1117 1165
1118 1165
1118 1166
1119 1120
1119 1166
1120 1121
1121 1167
1122 1123
1122 1167
1122 1168
1122 1169
1123 1124
1123 1168
1123 1169
1123 1170
1124 1125
1124 1169
1124 1170
1124 1171
1125 1170
1125 1171
1126 1127
1126 1172
1126 1173
1127 1128
1127 1172
1127 1173
1128 1129
1128 1173
1128 1174
1129 1130
1129 1174
1129 1175
1130 1174
1130 1175
1130 1176
1131 1132
1131 1176
1132 1133
1132 1177
1133 1177
1133 1178
1134 1178
1134 1179
1134 1180
1135 1136
1135 1181
1135 1182
1136 1137
1136 1181
1136 1182
1136 1183
1137 1138
1137 1182
1137 1183
1137 1184
1138 1139
1138 1183
1138 1184
1138 1185
1139 1140
1139 1184
1139 1185
1139 1186
1140 1141
1140 1185
1140 1186
1140 1187
1141 1142
1141 1186
1141 1187
1142 1143
1142 1187
1143 1144
1143 1188
1144 1145
1144 1188
1144 1189
1145 1188
1145 1189
1145 1190
1146 1147
1146 1190
1146 1191
1146 1192
1147 1148
1147 1191
1147 1192
1148 1149
1148 1192
1148 1193
1149 1193
1149 1194
1150 1151
1150 1195
1150 1196
1151 1152
1151 1195
1151 1196
1151 1197
1152 1153
1152 1196
1152 1197
1152 1198
1153 1197
1153 1198
1153 1199
1154 1155
1154 1199
1154 1200
1154 1201
1155 1156
1155 1200
1155 1201
1155 1202
1156 1201
1156 1202
1156 1203
1157 1203
1157 1204
1157 1205
1158 1159
1158 1205
1158 1206
1159 1160
1159 1206
1159 1207
1160 1161
1160 1206
1160 1207
1161 1162
1161 1207
1161 1208
1162 1163
1162 1208
1162 1209
1163 1164
1163 1208
1163 1209
1164 1209
1164 1210
1165 1166
1165 1210
1165 1211
1165 1212
1166 1211
1166 1212
1166 1213
1167 1168
1167 1215
1167 1216
1168 1169
1168 1216
1168 1217
1169 1170
1169 1217
1169 1218
1170 1171
1170 1217
1170 1218
1170 1219
1171 1218
1171 1219
1172 1173
1172 1220
1172 1221
1173 1220
1173 1221
1174 1175
1174 1222
1175 1176
1175 1222
1175 1223
1176 1222
1176 1223
1176 1224
1177 1178
1177 1225
1177 1226
1177 1227
1178 1179
1178 1226
1178 1227
1178 1228
1179 1180
1179 1227
1179 1228
1179 1229
1180 1228
1180 1229
1180 1230
1181 1182
1181 1230
1181 1231
1181 1232
1182 1183
1182 1231
1182 1232
1182 1233
1183 1184
1183 1232
1183 1233
1183 1234
1184 1185
1184 1233
1184 1234
1185 1186
1185 1234
1186 1187
1186 1235
1187 1235
1187 1236
1188 1189
1188 1237
1188 1238
1188 1239
1189 1190
1189 1238
1189 1239
1189 1240
1190 1191
1190 1239
1190 1240
1190 1241
1191 1192
1191 1240
1191 1241
1191 1242
1192 1241
1192 1242
1192 1243
1193 1194
1193 1243
1193 1244
1194 1244
1194 1245
1195 1196
1195 1245
1195 1246
1195 1247
1196 1197
1196 1246
1196 1247
1196 1248
1197 1198
1197 1247
1197 1248
1197 1249
1198 1199
1198 1248
1198 1249
1198 1250
1199 1200
1199 1249
1199 1250
1199 1251
1200 1201
1200 1250
1200 1251
1200 1252
1201 1202
1201 1251
1201 1252
1201 1253
1202 1203
1202 1252
1202 1253
1202 1254
1203 1204
1203 1253
1203 1254
1203 1255
1204 1205
1204 1254
1204 1255
1205 1255
1205 1256
1206 1207
1206 1256
1206 1257
1206 1258
1207 1257
1207 1258
1207 1259
1208 1209
1208 1259
1208 1260
1209 1260
1209 1261
1210 1211
1210 1261
1210 1262
1210 1263
1211 1212
1211 1262
1211 1263
1211 1264
1212 1213
1212 1263
1212 1264
1212 1265
1213 1214
1213 1264
1213 1265
1213 1266
1214 1215
1214 1265
1214 1266
1214 1267
1215 1216
1215 1266
1215 1267
1215 1268
1216 1267
1216 1268
1217 1218
1217 1269
1217 1270
1218 1219
1218 1269
1218 1270
1218 1271
1219 1270
1219 1271
1220 1221
1220 1272
1220 1273
1221 1272
1221 1273
1221 1274
1222 1223
1222 1275
1222 1276
1222 1277
1223 1224
1223 1276
1223 1277
1223 1278
1224 1225
1224 1277
1224 1278
1224 1279
1225 1226
1225 1278
1225 1279
1225 1280
1226 1227
1226 1279
1226 1280
1226 1281
1227 1228
1227 1280
1227 1281
1227 1282
1228 1229
1228 1281
1228 1282
1229 1230
1229 1282
1229 1283
1230 1231
1230 1283
1230 1284
1231 1232
1231 1283
1231 1284
1232 1233
1232 1284
1232 1285
1233 1234
1233 1285
1233 1286
1234 1285
1234 1286
1234 1287
1235 1236
1235 1288
1235 1289
1235 1290
1236 1237
1236 1289
1236 1290
1236 1291
1237 1238
1237 1290
1237 1291
1237 1292
1238 1239
1238 1291
1238 1292
1239 1240
1239 1292
1240 1241
1241 1242
1242 1243
1242 1293
1243 1293
1243 1294
1244 1245
1244 1294
1244 1295
1244 1296
1245 1246
1245 1295
1245 1296
1245 1297
1246 1247
1246 1296
1246 1297
1247 1248
1247 1297
1248 1249
1248 1298
1249 1250
1249 1298
1249 1299
1250 1251
1250 1298
1250 1299
1250 1300
1251 1252
1251 1299
1251 1300
1251 1301
1252 1253
1252 1300
1252 1301
1252 1302
1253 1254
1253 1301
1253 1302
1253 1303
1254 1255
1254 1302
1254 1303
1255 1303
1255 1304
1256 1257
1256 1304
1256 1305
1256 1306
1257 1258
1257 1305
1257 1306
1257 1307
1258 1259
1258 1306
1258 1307
1258 1308
1259 1307
1259 1308
1259 1309
1260 1261
1260 1309
1260 1310
1260 1311
1261 1262
1261 1310
1261 1311
1262 1263
1262 1311
1262 1312
1263 1264
1263 1312
1263 1313
1264 1265
1264 1312
1264 1313
1264 1314
1265 1266
1265 1313
1265 1314
1265 1315
1266 1267
1266 1314
1266 1315
1266 1316
1267 1268
1267 1315
1267 1316
1267 1317
1268 1316
1268 1317
1268 1318
1269 1270
1269 1318
1269 1319
1270 1271
1270 1319
1270 1320
1271 1320
1272 1273
1272 1321
1272 1322
1273 1274
1273 1321
1273 1322
1273 1323
1274 1275
1274 1322
1274 1323
1274 1324
1275 1276
1275 1323
1275 1324
1275 1325
1276 1277
1276 1324
1276 1325
1276 1326
1277 1278
1277 1325
1277 1326
1277 1327
1278 1279
1278 1326
1278 1327
1278 1328
1279 1280
1279 1327
1279 1328
1279 1329
1280 1281
1280 1328
1280 1329
1280 1330
1281 1282
1281 1329
1281 1330
1281 1331
1282 1330
1282 1331
1283 1284
1283 1332
1283 1333
1284 1332
1284 1333
1285 1286
1285 1334
1285 1335
1286 1287
1286 1334
1286 1335
1286 1336
1287 1288
1287 1335
1287 1336
1287 1337
1288 1289
1288 1336
1288 1337
1288 1338
1289 1290
1289 1337
1289 1338
1289 1339
1290 1291
1290 1338
1290 1339
1290 1340
1291 1292
1291 1339
1291 1340
1291 1341
1292 1340
1292 1341
1292 1342
1293 1294
1293 1345
1293 1346
1294 1295
1294 1345
1294 1346
1294 1347
1295 1296
1295 1346
1295 1347
1295 1348
1296 1297
1296 1347
1296 1348
1296 1349
1297 1348
1297 1349
1297 1350
1298 1299
1298 1351
1298 1352
1298 1353
1299 1300
1299 1352
1299 1353
1300 1301
1300 1353
1300 1354
1301 1302
1301 1354
1302 1303
1302 1354
1302 1355
1303 1355
1303 1356
1304 1305
1304 1356
1304 1357
1305 1306
1305 1357
1305 1358
1306 1307
1306 1357
1306 1358
1307 1308
1307 1358
1307 1359
1308 1309
1308 1359
1309 1310
1309 1359
1309 1360
1310 1311
1310 1360
1310 1361
1311 1360
1311 1361
1311 1362
1312 1313
1312 1362
1312 1363
1313 1314
1313 1363
1314 1315
1314 1364
1315 1316
1315 1364
1316 1317
1316 1364
1316 1365
1317 1318
1317 1365
1317 1366
1318 1319
1318 1365
1318 1366
1318 1367
1319 1366
1319 1367
1319 1368
1320 1368
1320 1369
1321 1322
1321 1370
1322 1323
1322 1370
1323 1324
1323 1371
1324 1325
1324 1371
1324 1372
1325 1326
1325 1371
1325 1372
1326 1327
1326 1372
1326 1373
1327 1328
1327 1373
1328 1329
1328 1373
1329 1330
1329 1374
1330 1331
1330 1374
1331 1374
1331 1375
1332 1333
1332 1375
1333 1376
1334 1335
1334 1376
1334 1377
1334 1378
1335 1336
1335 1377
1335 1378
1335 1379
1336 1337
1336 1378
1336 1379
1337 1338
1337 1379
1337 1380
1338 1339
1338 1380
1338 1381
1339 1340
1339 1380
1339 1381
1340 1341
1340 1381
1340 1382
1341 1342
1341 1382
1341 1383
1342 1343
1342 1382
1342 1383
1342 1384
1343 1344
1343 1383
1343 1384
1344 1384
1345 1346
1345 1385
1345 1386
1346 1347
1346 1385
1346 1386
1347 1348
1347 1386
1347 1387
1348 1349
1348 1387
1348 1388
1349 1350
1349 1387
1349 1388
1349 1389
1350 1351
1350 1388
1350 1389
1351 1352
1351 1389
1351 1390
1352 1353
1352 1390
1352 1391
1353 1390
1353 1391
1353 1392
1354 1392
1354 1393
1354 1394
1355 1356
1355 1394
1355 1395
1355 1396
1356 1395
1356 1396
1357 1358
1357 1397
1358 1397
1358 1398
1359 1398
1359 1399
1360 1361
1360 1400
1360 1401
1361 1362
1361 1400
1361 1401
1362 1363
1362 1401
1362 1402
1363 1402
1363 1403
1364 1404
1364 1405
1365 1366
1365 1405
1365 1406
1365 1407
1366 1367
1366 1406
1366 1407
1366 1408
1367 1368
1367 1407
1367 1408
1367 1409
1368 1369
1368 1408
1368 1409
1368 1410
1369 1409
1369 1410
1370 1411
1371 1372
1371 1412
1371 1413
1372 1412
1372 1413
1372 1414
1373 1414
1373 1415
1374 1416
1374 1417
1375 1417
1375 1418
1375 1419
1376 1377
1376 1420
1376 1421
1376 1422
1377 1378
1377 1421
1377 1422
1377 1423
1378 1379
1378 1422
1378 1423
1379 1423
1379 1424
1380 1381
1380 1424
1380 1425
1381 1425
1381 1426
1382 1383
1382 1426
1382 1427
1383 1384
1383 1427
1383 1428
1384 1428
1384 1429
1385 1386
1385 1430
1385 1431
1386 1431
1386 1432
1387 1388
1387 1432
1387 1433
1387 1434
1388 1389
1388 1433
1388 1434
1388 1435
1389 1434
1389 1435
1389 1436
1390 1391
1390 1436
1390 1437
1391 1392
1391 1437
1391 1438
1392 1393
1392 1437
1392 1438
1393 1394
1393 1438
1393 1439
1394 1395
1394 1439
1395 1396
1395 1439
1395 1440
1396 1440
1396 1441
1397 1441
1397 1442
1397 1443
1398 1399
1398 1443
1398 1444
1398 1445
1399 1444
1399 1445
1399 1446
1400 1401
1400 1446
1400 1447
1400 1448
1401 1447
1401 1448
1401 1449
1402 1403
1402 1449
1402 1450
1403 1450
1404 1405
1404 1451
1404 1452
1405 1406
1405 1451
1405 1452
1405 1453
1406 1407
1406 1452
1406 1453
1406 1454
1407 1408
1407 1453
1407 1454
1407 1455
1408 1409
1408 1454
1408 1455
1408 1456
1409 1410
1409 1455
1409 1456
1409 1457
1410 1456
1410 1457
1411 1458
1411 1459
1412 1413
1412 1460
1412 1461
1413 1414
1413 1460
1413 1461
1413 1462
1414 1415
1414 1461
1414 1462
1415 1462
1415 1463
1416 1463
1416 1464
1417 1418
1417 1465
1417 1466
1418 1419
1418 1465
1418 1466
1419 1420
1419 1466
1419 1467
1420 1421
1420 1467
1420 1468
1421 1422
1421 1467
1421 1468
1422 1423
1422 1468
1422 1469
1423 1469
1423 1470
1424 1425
1424 1470
1424 1471
1424 1472
1425 1471
1425 1472
1425 1473
1426 1427
1426 1473
1426 1474
1427 1474
1427 1475
1428 1429
1428 1475
1428 1476
1428 1477
1429 1430
1429 1476
1429 1477
1429 1478
1430 1431
1430 1477
1430 1478
1430 1479
1431 1478
1431 1479
1431 1480
1432 1433
1432 1480
1432 1481
1432 1482
1433 1434
1433 1481
1433 1482
1433 1483
1434 1435
1434 1482
1434 1483
1435 1436
1435 1483
1435 1484
1436 1484
1436 1485
1437 1438
1437 1485
1437 1486
1437 1487
1438 1486
1438 1487
1438 1488
1439 1488
1440 1441
1440 1489
1440 1490
1441 1442
1441 1489
1441 1490
1441 1491
1442 1443
1442 1490
1442 1491
1442 1492
1443 1444
1443 1491
1443 1492
1444 1445
1444 1492
1444 1493
1445 1446
1445 1493
1445 1494
1446 1447
1446 1493
1446 1494
1447 1448
1447 1494
1447 1495
1448 1449
1448 1495
1449 1495
1449 1496
1450 1496
1450 1497
1451 1452
1451 1497
1451 1498
1452 1453
1452 1498
1453 1454
1453 1498
1453 1499
1454 1455
1454 1499
1454 1500
1455 1456
1455 1499
1455 1500
1455 1501
1456 1457
1456 1500
1456 1501
1456 1502
1457 1501
1457 1502
1458 1459
1458 1503
1458 1504
1459 1503
1459 1504
1460 1461
1460 1505
1460 1506
1461 1462
1461 1505
1461 1506
1461 1507
1462 1506
1462 1507
1463 1464
1463 1508
1463 1509
1464 1508
1464 1509
1465 1466
1465 1510
1465 1511
1466 1510
1466 1511
1466 1512
1467 1468
1467 1512
1467 1513
1468 1513
1468 1514
1469 1470
1469 1514
1469 1515
1469 1516
1470 1471
1470 1515
1470 1516
1470 1517
1471 1472
1471 1516
1471 1517
1471 1518
1472 1473
1472 1517
1472 1518
1472 1519
1473 1474
1473 1518
1473 1519
1473 1520
1474 1519
1474 1520
1474 1521
1475 1476
1475 1521
1475 1522
1476 1477
1476 1522
1477 1478
1477 1523
1478 1479
1478 1523
1478 1524
1479 1480
1479 1523
1479 1524
1479 1525
1480 1481
1480 1524
1480 1525
1480 1526
1481 1482
1481 1525
1481 1526
1482 1483
1482 1526
1482 1527
1483 1527
1484 1485
1484 1528
1485 1486
1485 1528
1486 1487
1486 1528
1486 1529
1487 1488
1487 1529
1487 1530
1488 1529
1488 1530
1488 1531
1489 1490
1489 1532
1489 1533
1489 1534
1490 1491
1490 1533
1490 1534
1490 1535
1491 1492
1491 1534
1491 1535
1492 1535
1492 1536
1493 1494
1493 1536
1493 1537
1493 1538
1494 1537
1494 1538
1494 1539
1495 1539
1495 1540
1495 1541
1496 1541
1496 1542
1496 1543
1497 1543
1497 1544
1497 1545
1498 1545
1498 1546
1498 1547
1499 1500
1499 1547
1499 1548
1500 1501
1500 1548
1500 1549
1501 1502
1501 1548
1501 1549
1501 1550
1502 1549
1502 1550
1503 1504
1503 1551
1503 1552
1504 1551
1504 1552
1504 1553
1505 1506
1505 1553
1505 1554
1506 1507
1506 1554
1506 1555
1507 1555
1507 1556
1508 1509
1508 1556
1508 1557
1508 1558
1509 1557
1509 1558
1509 1559
1510 1511
1510 1559
1510 1560
1510 1561
1511 1512
1511 1560
1511 1561
1511 1562
1512 1561
1512 1562
1512 1563
1513 1514
1513 1563
1513 1564
1513 1565
1514 1515
1514 1564
1514 1565
1515 1516
1515 1565
1516 1517
1516 1566
1517 1518
1517 1566
1518 1519
1518 1566
1518 1567
1519 1520
1519 1567
1519 1568
1520 1521
1520 1567
1520 1568
1520 1569
1521 1522
1521 1568
1521 1569
1521 1570
1522 1569
1522 1570
1522 1571
1523 1524
1523 1572
1523 1573
1524 1525
1524 1572
1524 1573
1524 1574
1525 1526
1525 1573
1525 1574
1525 1575
1526 1574
1526 1575
1526 1576
1527 1576
1527 1577
1527 1578
1528 1579
1528 1580
1529 1530
1529 1580
1529 1581
1530 1531
1530 1581
1530 1582
1531 1532
1531 1581
1531 1582
1531 1583
1532 1533
1532 1582
1532 1583
1532 1584
1533 1534
1533 1583
1533 1584
1533 1585
1534 1535
1534 1584
1534 1585
1534 1586
1535 1585
1535 1586
1536 1537
1536 1587
1536 1588
1537 1538
1537 1587
1537 1588
1537 1589
1538 1539
1538 1588
1538 1589
1538 1590
1539 1540
1539 1589
1539 1590
1540 1541
1540 1590
1540 1591
1541 1542
1541 1591
1541 1592
1542 1543
1542 1591
1542 1592
1542 1593
1543 1544
1543 1592
1543 1593
1543 1594
1544 1545
1544 1593
1544 1594
1544 1595
1545 1546
1545 1594
1545 1595
1546 1547
1546 1595
1546 1596
1547 1596
1547 1597
1548 1549
1548 1597
1548 1598
1549 1550
1549 1598
1549 1599
1550 1598
1550 1599
1551 1552
1551 1600
1551 1601
1552 1553
1552 1600
1552 1601
1553 1554
1553 1601
1553 1602
1554 1602
1554 1603
1555 1556
1555 1603
1555 1604
1555 1605
1556 1557
1556 1604
1556 1605
1556 1606
1557 1558
1557 1605
1557 1606
1557 1607
1558 1559
1558 1606
1558 1607
1558 1608
1559 1560
1559 1607
1559 1608
1559 1609
1560 1561
1560 1608
1560 1609
1561 1562
1561 1609
1561 1610
1562 1563
1562 1610
1562 1611
1563 1564
1563 1610
1563 1611
1563 1612
1564 1565
1564 1611
1564 1612
1564 1613
1565 1612
1565 1613
1565 1614
1566 1615
1566 1616
1566 1617
1567 1568
1567 1617
1567 1618
1568 1569
1568 1618
1568 1619
1569 1570
1569 1619
1569 1620
1570 1571
1570 1619
1570 1620
1570 1621
1571 1620
1571 1621
1571 1622
1572 1573
1572 1622
1572 1623
1573 1574
1573 1623
1573 1624
1574 1575
1574 1623
1574 1624
1574 1625
1575 1576
1575 1624
1575 1625
1575 1626
1576 1577
1576 1625
1576 1626
1576 1627
1577 1578
1577 1626
1577 1627
1577 1628
1578 1627
1578 1628
1579 1580
1579 1629
1579 1630
1580 1629
1580 1630
1580 1631
1581 1582
1581 1631
1581 1632
1581 1633
1582 1583
1582 1632
1582 1633
1583 1584
1583 1633
1584 1585
1584 1634
1585 1586
1585 1634
1585 1635
1586 1634
1586 1635
1587 1588
1587 1636
1588 1589
1588 1636
1588 1637
1589 1590
1589 1637
1589 1638
1590 1637
1590 1638
1590 1639
1591 1592
1591 1639
1591 1640
1591 1641
1592 1593
1592 1640
1592 1641
1593 1594
1593 1641
1594 1595
1594 1642
1595 1642
1595 1643
1596 1597
1596 1643
1596 1644
1596 1645
1597 1644
1597 1645
1598 1599
1598 1646
1598 1647
1599 1646
1599 1647
1600 1601
1600 1648
1601 1648
1601 1649
1602 1603
1602 1649
1602 1650
1602 1651
1603 1604
1603 1650
1603 1651
1603 1652
1604 1605
1604 1651
1604 1652
1604 1653
1605 1606
1605 1652
1605 1653
1605 1654
1606 1607
1606 1653
1606 1654
1606 1655
1607 1608
1607 1654
1607 1655
1607 1656
1608 1609
1608 1655
1608 1656
1609 1656
1609 1657
1610 1611
1610 1657
1610 1658
1611 1612
1611 1658
1612 1613
1612 1659
1613 1614
1613 1659
1613 1660
1614 1615
1614 1659
1614 1660
1614 1661
1615 1616
1615 1660
1615 1661
1615 1662
1616 1617
1616 1661
1616 1662
1616 1663
1617 1618
1617 1662
1617 1663
1617 1664
1618 1663
1618 1664
1618 1665
1619 1620
1619 1665
1619 1666
1620 1621
1620 1666
1620 1667
1621 1622
1621 1667
1621 1668
1622 1667
1622 1668
1623 1624
1623 1669
1623 1670
1624 1625
1624 1669
1624 1670
1624 1671
1625 1626
1625 1670
1625 1671
1625 1672
1626 1627
1626 1671
1626 1672
1626 1673
1627 1628
1627 1672
1627 1673
1627 1674
1628 1673
1628 1674
1628 1675
1629 1630
1629 1675
1629 1676
1629 1677
1630 1631
1630 1676
1630 1677
1630 1678
1631 1632
1631 1677
1631 1678
1631 1679
1632 1633
1632 1678
1632 1679
1632 1680
1633 1679
1633 1680
1633 1681
1634 1635
1634 1682
1634 1683
1634 1684
1635 1683
1635 1684
1635 1685
1636 1685
1636 1686
1636 1687
1637 1638
1637 1687
1637 1688
1637 1689
1638 1639
1638 1688
1638 1689
1638 1690
1639 1640
1639 1689
1639 1690
1639 1691
1640 1641
1640 1690
1640 1691
1640 1692
1641 1691
1641 1692
1641 1693
1642 1643
1642 1694
1642 1695
1642 1696
1643 1644
1643 1695
1643 1696
1643 1697
1644 1645
1644 1696
1644 1697
1644 1698
1645 1697
1645 1698
1645 1699
1646 1647
1646 1699
1646 1700
1647 1700
1648 1701
1648 1702
1649 1650
1649 1702
1649 1703
1649 1704
1650 1651
1650 1703
1650 1704
1650 1705
1651 1652
1651 1704
1651 1705
1651 1706
1652 1653
1652 1705
1652 1706
1652 1707
1653 1654
1653 1706
1653 1707
1653 1708
1654 1655
1654 1707
1654 1708
1654 1709
1655 1656
1655 1708
1655 1709
1655 1710
1656 1709
1656 1710
1656 1711
1657 1658
1657 1711
1657 1712
1657 1713
1658 1712
1658 1713
1658 1714
1659 1660
1659 1715
1659 1716
1659 1717
1660 1661
1660 1716
1660 1717
1661 1662
1661 1717
1661 1718
1662 1663
1662 1718
1662 1719
1663 1664
1663 1718
1663 1719
1663 1720
1664 1665
1664 1719
1664 1720
1665 1666
1665 1720
1665 1721
1666 1721
1666 1722
1667 1668
1667 1722
1667 1723
1668 1723
1669 1670
1669 1724
1669 1725
1670 1671
1670 1724
1670 1725
1670 1726
1671 1672
1671 1725
1671 1726
1671 1727
1672 1673
1672 1726
1672 1727
1672 1728
1673 1674
1673 1727
1673 1728
1673 1729
1674 1675
1674 1728
1674 1729
1674 1730
1675 1676
1675 1729
1675 1730
1675 1731
1676 1677
1676 1730
1676 1731
1676 1732
1677 1678
1677 1731
1677 1732
1677 1733
1678 1679
1678 1732
1678 1733
1679 1680
1679 1733
1679 1734
1680 1681
1680 1734
1680 1735
1681 1682
1681 1734
1681 1735
1681 1736
1682 1683
1682 1735
1682 1736
1683 1684
1683 1736
1683 1737
1684 1685
1684 1737
1684 1738
1685 1686
1685 1737
1685 1738
1686 1687
1686 1738
1686 1739
1687 1688
1687 1739
1687 1740
1688 1689
1688 1739
1688 1740
1688 1741
1689 1690
1689 1740
1689 1741
1689 1742
1690 1691
1690 1741
1690 1742
1690 1743
1691 1692
1691 1742
1691 1743
1691 1744
1692 1693
1692 1743
1692 1744
1692 1745
1693 1694
1693 1744
1693 1745
1693 1746
1694 1695
1694 1745
1694 1746
1694 1747
1695 1696
1695 1746
1695 1747
1695 1748
1696 1697
1696 1747
1696 1748
1697 1698
1697 1748
1697 1749
1698 1699
1698 1749
1698 1750
1699 1700
1699 1749
1699 1750
1699 1751
1700 1750
1700 1751
1700 1752
1701 1702
1701 1753
1701 1754
1702 1703
1702 1753
1702 1754
1702 1755
1703 1704
1703 1754
1703 1755
1703 1756
1704 1705
1704 1755
1704 1756
1704 1757
1705 1706
1705 1756
1705 1757
1705 1758
1706 1707
1706 1757
1706 1758
1706 1759
1707 1708
1707 1758
1707 1759
1707 1760
1708 1709
1708 1759
1708 1760
1708 1761
1709 1710
1709 1760
1709 1761
1710 1711
1710 1761
1710 1762
1711 1712
1711 1762
1712 1713
1712 1762
1712 1763
1713 1714
1713 1763
1713 1764
1714 1715
1714 1763
1714 1764
1714 1765
1715 1716
1715 1764
1715 1765
1715 1766
1716 1717
1716 1765
1716 1766
1716 1767
1717 1766
1717 1767
1717 1768
1718 1719
1718 1768
1718 1769
1718 1770
1719 1720
1719 1769
1719 1770
1719 1771
1720 1770
1720 1771
1720 1772
1721 1722
1721 1772
1721 1773
1721 1774
1722 1723
1722 1773
1722 1774
1722 1775
1723 1774
1723 1775
1723 1776
1724 1725
1724 1777
1724 1778
1725 1726
1725 1777
1725 1778
1725 1779
1726 1727
1726 1778
1726 1779
1726 1780
1727 1728
1727 1779
1727 1780
1728 1729
1728 1780
1728 1781
1729 1730
1729 1781
1729 1782
1730 1731
1730 1781
1730 1782
1730 1783
1731 1732
1731 1782
1731 1783
1731 1784
1732 1733
1732 1783
1732 1784
1732 1785
1733 1784
1733 1785
1734 1735
1734 1786
1735 1736
1735 1786
1735 1787
1736 1787
1736 1788
1737 1738
1737 1788
1737 1789
1737 1790
1738 1789
1738 1790
1738 1791
1739 1740
1739 1791
1739 1792
1740 1741
1740 1792
1740 1793
1741 1742
1741 1793
1741 1794
1742 1743
1742 1793
1742 1794
1742 1795
1743 1744
1743 1794
1743 1795
1743 1796
1744 1745
1744 1795
1744 1796
1744 1797
1745 1746
1745 1796
1745 1797
1745 1798
1746 1747
1746 1797
1746 1798
1746 1799
1747 1748
1747 1798
1747 1799
1747 1800
1748 1799
1748 1800
1748 1801
1749 1750
1749 1801
1749 1802
1749 1803
1750 1751
1750 1802
1750 1803
1750 1804
1751 1752
1751 1803
1751 1804
1751 1805
1752 1804
1752 1805
1753 1754
1753 1806
1753 1807
1754 1755
1754 1806
1754 1807
1754 1808
1755 1756
1755 1807
1755 1808
1755 1809
1756 1757
1756 1808
1756 1809
1756 1810
1757 1758
1757 1809
1757 1810
1758 1759
1758 1810
1758 1811
1759 1760
1759 1811
1760 1761
1760 1811
1760 1812
1761 1812
1761 1813
1762 1813
1762 1814
1762 1815
1763 1764
1763 1815
1763 1816
1764 1765
1764 1816
1764 1817
1765 1766
1765 1816
1765 1817
1765 1818
1766 1767
1766 1817
1766 1818
1766 1819
1767 1768
1767 1818
1767 1819
1767 1820
1768 1769
1768 1819
1768 1820
1768 1821
1769 1770
1769 1820
1769 1821
1769 1822
1770 1771
1770 1821
1770 1822
1771 1772
1771 1822
1771 1823
1772 1773
1772 1823
1772 1824
1773 1774
1773 1823
1773 1824
1773 1825
1774 1775
1774 1824
1774 1825
1774 1826
1775 1776
1775 1825
1775 1826
1775 1827
1776 1826
1776 1827
1776 1828
1777 1778
1777 1828
1777 1829
1777 1830
1778 1779
1778 1829
1778 1830
1778 1831
1779 1780
1779 1830
1779 1831
1779 1832
1780 1831
1780 1832
1780 1833
1781 1782
1781 1833
1781 1834
1782 1783
1782 1834
1782 1835
1783 1784
1783 1835
1783 1836
1784 1785
1784 1835
1784 1836
1784 1837
1785 1836
1785 1837
1786 1838
1786 1839
1787 1788
1787 1839
1787 1840
1787 1841
1788 1789
1788 1840
1788 1841
1788 1842
1789 1790
1789 1841
1789 1842
1790 1791
1790 1842
1791 1792
1791 1843
1792 1843
1792 1844
1793 1794
1793 1844
1793 1845
1793 1846
1794 1795
1794 1845
1794 1846
1794 1847
1795 1796
1795 1846
1795 1847
1795 1848
1796 1797
1796 1847
1796 1848
1797 1798
1797 1848
1798 1799
1798 1849
1799 1800
1799 1849
1799 1850
1800 1801
1800 1849
1800 1850
1801 1802
1801 1850
1801 1851
1802 1803
1802 1851
1802 1852
1803 1804
1803 1851
1803 1852
1803 1853
1804 1805
1804 1852
1804 1853
1805 1853
1806 1807
1806 1854
1806 1855
1807 1808
1807 1854
1807 1855
1808 1809
1808 1855
1809 1810
1809 1856
1810 1856
1810 1857
1811 1857
1811 1858
1811 1859
1812 1813
1812 1859
1812 1860
1813 1814
1813 1860
1814 1815
1814 1860
1814 1861
1815 1861
1815 1862
1816 1817
1816 1862
1816 1863
1816 1864
1817 1818
1817 1863
1817 1864
1817 1865
1818 1819
1818 1864
1818 1865
1818 1866
1819 1820
1819 1865
1819 1866
1819 1867
1820 1821
1820 1866
1820 1867
1820 1868
1821 1822
1821 1867
1821 1868
1821 1869
1822 1868
1822 1869
1823 1824
1823 1870
1823 1871
1824 1825
1824 1870
1824 1871
1824 1872
1825 1826
1825 1871
1825 1872
1826 1827
1826 1872
1827 1828
1827 1873
1828 1829
1828 1873
1828 1874
1829 1830
1829 1873
1829 1874
1829 1875
1830 1831
1830 1874
1830 1875
1831 1832
1831 1875
1831 1876
1832 1833
1832 1876
1832 1877
1833 1834
1833 1876
1833 1877
1833 1878
1834 1877
1834 1878
1834 1879
1835 1836
1835 1879
1835 1880
1835 1881
1836 1837
1836 1880
1836 1881
1836 1882
1837 1881
1837 1882
1837 1883
1838 1839
1838 1883
1838 1884
1839 1840
1839 1884
1839 1885
1840 1841
1840 1884
1840 1885
1840 1886
1841 1842
1841 1885
1841 1886
1841 1887
1842 1886
1842 1887
1843 1844
1843 1888
1843 1889
1843 1890
1844 1845
1844 1889
1844 1890
1844 1891
1845 1846
1845 1890
1845 1891
1845 1892
1846 1847
1846 1891
1846 1892
1847 1848
1847 1892
1847 1893
1848 1893
1848 1894
1849 1850
1849 1895
1849 1896
1849 1897
1850 1896
1850 1897
1850 1898
1851 1852
1851 1898
1852 1853
1853 1899
1854 1855
1854 1900
1854 1901
1855 1900
1855 1901
1856 1857
1856 1902
1856 1903
1856 1904
1857 1858
1857 1903
1857 1904
1857 1905
1858 1859
1858 1904
1858 1905
1858 1906
1859 1905
1859 1906
1859 1907
1860 1907
1860 1908
1860 1909
1861 1862
1861 1909
1861 1910
1862 1863
1862 1910
1862 1911
1863 1864
1863 1910
1863 1911
1863 1912
1864 1865
1864 1911
1864 1912
1864 1913
1865 1866
1865 1912
1865 1913
1865 1914
1866 1867
1866 1913
1866 1914
1866 1915
1867 1868
1867 1914
1867 1915
1867 1916
1868 1869
1868 1915
1868 1916
1868 1917
1869 1916
1869 1917
1869 1918
1870 1871
1870 1918
1870 1919
1870 1920
1871 1872
1871 1919
1871 1920
1871 1921
1872 1920
1872 1921
1872 1922
1873 1874
1873 1923
1873 1924
1873 1925
1874 1875
1874 1924
1874 1925
1874 1926
1875 1925
1875 1926
1875 1927
1876 1877
1876 1927
1876 1928
1876 1929
1877 1878
1877 1928
1877 1929
1877 1930
1878 1879
1878 1929
1878 1930
1878 1931
1879 1880
1879 1930
1879 1931
1879 1932
1880 1881
1880 1931
1880 1932
1881 1882
1881 1932
1881 1933
1882 1883
1882 1933
1882 1934
1883 1933
1883 1934
1884 1885
1884 1935
1884 1936
1885 1886
1885 1935
1885 1936
1886 1887
1886 1936
1887 1937
1888 1889
1888 1937
1888 1938
1888 1939
1889 1890
1889 1938
1889 1939
1890 1891
1890 1939
1890 1940
1891 1892
1891 1940
1891 1941
1892 1940
1892 1941
1892 1942
1893 1894
1893 1942
1893 1943
1893 1944
1894 1895
1894 1943
1894 1944
1894 1945
1895 1896
1895 1944
1895 1945
1895 1946
1896 1897
1896 1945
1896 1946
1896 1947
1897 1898
1897 1946
1897 1947
1897 1948
1898 1947
1898 1948
1898 1949
1899 1951
1900 1901
1900 1952
1900 1953
1901 1952
1901 1953
1901 1954
1902 1903
1902 1954
1902 1955
1903 1904
1903 1955
1903 1956
1904 1905
1904 1955
1904 1956
1904 1957
1905 1906
1905 1956
1905 1957
1905 1958
1906 1907
1906 1957
1906 1958
1907 1908
1907 1958
1907 1959
1908 1909
1908 1959
1908 1960
1909 1959
1909 1960
1910 1911
1910 1961
1911 1912
1911 1961
1911 1962
1912 1913
1912 1962
1912 1963
1913 1914
1913 1962
1913 1963
1913 1964
1914 1915
1914 1963
1914 1964
1914 1965
1915 1916
1915 1964
1915 1965
1915 1966
1916 1917
1916 1965
1916 1966
1916 1967
1917 1918
1917 1966
1917 1967
1917 1968
1918 1919
1918 1967
1918 1968
1919 1920
1919 1968
1920 1921
1921 1922
1921 1969
1922 1923
1922 1969
1922 1970
1923 1924
1923 1969
1923 1970
1923 1971
1924 1925
1924 1970
1924 1971
1925 1926
1925 1971
1926 1927
1926 1972
1927 1928
1927 1972
1928 1929
1928 1972
1928 1973
1929 1930
1929 1973
1929 1974
1930 1931
1930 1973
1930 1974
1930 1975
1931 1932
1931 1974
1931 1975
1931 1976
1932 1975
1932 1976
1933 1934
1933 1977
1934 1977
1935 1936
1935 1978
1936 1978
1936 1979
1937 1938
1937 1980
1937 1981
1938 1939
1938 1981
1938 1982
1939 1982
1940 1941
1940 1983
1940 1984
1941 1942
1941 1983
1941 1984
1941 1985
1942 1943
1942 1984
1942 1985
1942 1986
1943 1944
1943 1985
1943 1986
1943 1987
1944 1945
1944 1986
1944 1987
1945 1946
1945 1987
1945 1988
1946 1947
1946 1988
1947 1948
1947 1988
1947 1989
1948 1949
1948 1989
1948 1990
1949 1950
1949 1989
1949 1990
1949 1991
1950 1951
1950 1990
1950 1991
1951 1991
1952 1953
1952 1992
1952 1993
1953 1954
1953 1992
1953 1993
1953 1994
1954 1993
1954 1994
1954 1995
1955 1956
1955 1995
1955 1996
1955 1997
1956 1957
1956 1996
1956 1997
1956 1998
1957 1958
1957 1997
1957 1998
1957 1999
1958 1998
1958 1999
1958 2000
1959 1960
1959 2000
1959 2001
1960 2001
1960 2002
1961 2002
1961 2003
1962 1963
1962 2003
1962 2004
1962 2005
1963 1964
1963 2004
1963 2005
1963 2006
1964 1965
1964 2005
1964 2006
1964 2007
1965 1966
1965 2006
1965 2007
1965 2008
1966 1967
1966 2007
1966 2008
1967 1968
1967 2008
1967 2009
1968 2009
1969 1970
1969 2010
1970 1971
1971 2011
1972 2012
1972 2013
1973 1974
1973 2013
1973 2014
1974 1975
1974 2014
1974 2015
1975 1976
1975 2015
1975 2016
1976 2015
1976 2016
1976 2017
1977 2018
1977 2019
1977 2020
1978 2020
1978 2021
1978 2022
1979 1980
1979 2022
1979 2023
1979 2024
1980 1981
1980 2023
1980 2024
1980 2025
1981 2024
1981 2025
1981 2026
1982 2026
1982 2027
1982 2028
1983 1984
1983 2028
1983 2029
1984 1985
1984 2029
1984 2030
1985 1986
1985 2030
1985 2031
1986 1987
1986 2030
1986 2031
1986 2032
1987 2031
1987 2032
1988 2033
1989 1990
1989 2033
1989 2034
1989 2035
1990 1991
1990 2034
1990 2035
1990 2036
1991 2035
1991 2036
1991 2037
1992 1993
1992 2039
1993 1994
1993 2039
1993 2040
1994 1995
1994 2039
1994 2040
1994 2041
1995 1996
1995 2040
1995 2041
1995 2042
1996 1997
1996 2041
1996 2042
1996 2043
1997 1998
1997 2042
1997 2043
1998 1999
1998 2043
1998 2044
1999 2000
1999 2044
1999 2045
2000 2001
2000 2044
2000 2045
2000 2046
2001 2045
2001 2046
2001 2047
2002 2047
2002 2048
2002 2049
2003 2004
2003 2049
2003 2050
2004 2005
2004 2050
2004 2051
2005 2006
2005 2051
2005 2052
2006 2007
2006 2051
2006 2052
2007 2008
2007 2052
2007 2053
2008 2053
2008 2054
2009 2054
2009 2055
2009 2056
2010 2057
2010 2058
2010 2059
2011 2012
2011 2061
2011 2062
2011 2063
2012 2062
2012 2063
2013 2014
2013 2064
2013 2065
2014 2064
2014 2065
2014 2066
2015 2016
2015 2066
2015 2067
2015 2068
2016 2017
2016 2067
2016 2068
2016 2069
2017 2018
2017 2068
2017 2069
2017 2070
2018 2019
2018 2069
2018 2070
2018 2071
2019 2020
2019 2070
2019 2071
2019 2072
2020 2021
2020 2071
2020 2072
2020 2073
2021 2022
2021 2072
2021 2073
2021 2074
2022 2023
2022 2073
2022 2074
2022 2075
2023 2024
2023 2074
2023 2075
2024 2025
2024 2075
2024 2076
2025 2026
2025 2076
2026 2027
2026 2076
2026 2077
2027 2028
2027 2077
2028 2029
2028 2077
2028 2078
2029 2078
2029 2079
2030 2031
2030 2079
2030 2080
2030 2081
2031 2032
2031 2080
2031 2081
2031 2082
2032 2081
2032 2082
2032 2083
2033 2034
2033 2084
2033 2085
2033 2086
2034 2035
2034 2085
2034 2086
2034 2087
2035 2036
2035 2086
2035 2087
2035 2088
2036 2037
2036 2087
2036 2088
2036 2089
2037 2038
2037 2088
2037 2089
2037 2090
2038 2089
2038 2090
2039 2040
2039 2091
2039 2092
2040 2041
2040 2091
2040 2092
2041 2042
2041 2092
2041 2093
2042 2043
2042 2093
2042 2094
2043 2093
2043 2094
2043 2095
2044 2045
2044 2095
2044 2096
2044 2097
2045 2046
2045 2096
2045 2097
2045 2098
2046 2047
2046 2097
2046 2098
2047 2048
2047 2098
2048 2049
2048 2099
2049 2050
2049 2099
2049 2100
2050 2099
2050 2100
2051 2052
2051 2101
2051 2102
2052 2101
2052 2102
2052 2103
2053 2054
2053 2103
2054 2055
2054 2104
2055 2056
2055 2104
2055 2105
2056 2057
2056 2104
2056 2105
2057 2058
2057 2105
2058 2059
2058 2106
2059 2060
2059 2106
2059 2107
2060 2061
2060 2106
2060 2107
2060 2108
2061 2062
2061 2107
2061 2108
2061 2109
2062 2063
2062 2108
2062 2109
2062 2110
2063 2109
2063 2110
2063 2111
2064 2065
2064 2111
2064 2112
2064 2113
2065 2066
2065 2112
2065 2113
2066 2067
2066 2113
2066 2114
2067 2068
2067 2114
2067 2115
2068 2069
2068 2114
2068 2115
2068 2116
2069 2070
2069 2115
2069 2116
2069 2117
2070 2071
2070 2116
2070 2117
2070 2118
2071 2072
2071 2117
2071 2118
2071 2119
2072 2073
2072 2118
2072 2119
2072 2120
2073 2074
2073 2119
2073 2120
2073 2121
2074 2075
2074 2120
2074 2121
2075 2121
2075 2122
2076 2122
2076 2123
2076 2124
2077 2124
2077 2125
2077 2126
2078 2079
2078 2126
2078 2127
2079 2080
2079 2127
2080 2081
2080 2127
2080 2128
2081 2082
2081 2128
2081 2129
2082 2083
2082 2128
2082 2129
2082 2130
2083 2084
2083 2129
2083 2130
2083 2131
2084 2085
2084 2130
2084 2131
2085 2086
2085 2131
2085 2132
2086 2087
2086 2132
2086 2133
2087 2088
2087 2132
2087 2133
2087 2134
2088 2089
2088 2133
2088 2134
2089 2090
2089 2134
2089 2135
2090 2135
2091 2092
2091 2136
2091 2137
2092 2137
2092 2138
2093 2094
2093 2138
2093 2139
2093 2140
2094 2095
2094 2139
2094 2140
2094 2141
2095 2096
2095 2140
2095 2141
2095 2142
2096 2097
2096 2141
2096 2142
2096 2143
2097 2098
2097 2142
2097 2143
2097 2144
2098 2143
2098 2144
2098 2145
2099 2100
2099 2146
2099 2147
2099 2148
2100 2147
2100 2148
2100 2149
2101 2102
2101 2149
2101 2150
2102 2103
2102 2150
2102 2151
2103 2151
2103 2152
2104 2105
2104 2153
2104 2154
2105 2154
2105 2155
2106 2107
2106 2156
2106 2157
2106 2158
2107 2108
2107 2157
2107 2158
2107 2159
2108 2109
2108 2158
2108 2159
2108 2160
2109 2110
2109 2159
2109 2160
2109 2161
2110 2111
2110 2160
2110 2161
2110 2162
2111 2112
2111 2161
2111 2162
2111 2163
2112 2113
2112 2162
2112 2163
2112 2164
2113 2163
2113 2164
2113 2165
2114 2115
2114 2165
2114 2166
2114 2167
2115 2116
2115 2166
2115 2167
2115 2168
2116 2117
2116 2167
2116 2168
2116 2169
2117 2118
2117 2168
2117 2169
2117 2170
2118 2119
2118 2169
2118 2170
2118 2171
2119 2120
2119 2170
2119 2171
2119 2172
2120 2121
2120 2171
2120 2172
2120 2173
2121 2172
2121 2173
2121 2174
2122 2123
2122 2174
2122 2175
2123 2124
2123 2175
2124 2125
2124 2175
2125 2126
2125 2176
2126 2176
2127 2177
2127 2178
2128 2129
2128 2178
2128 2179
2129 2130
2129 2179
2129 2180
2130 2131
2130 2179
2130 2180
2130 2181
2131 2180
2131 2181
2131 2182
2132 2133
2132 2182
2132 2183
2133 2134
2133 2183
2133 2184
2134 2183
2134 2184
2134 2185
2135 2185
2136 2186
2137 2138
2137 2187
2137 2188
2138 2139
2138 2187
2138 2188
2138 2189
2139 2140
2139 2188
2139 2189
2139 2190
2140 2141
2140 2189
2140 2190
2140 2191
2141 2142
2141 2190
2141 2191
2141 2192
2142 2143
2142 2191
2142 2192
2143 2144
2143 2192
2143 2193
2144 2145
2144 2193
2144 2194
2145 2146
2145 2193
2145 2194
2146 2147
2146 2194
2147 2148
2147 2195
2148 2149
2148 2195
2149 2150
2149 2195
2150 2196
2151 2152
2151 2196
2151 2197
2151 2198
2152 2153
2152 2197
2152 2198
2152 2199
2153 2198
2153 2199
2153 2200
2154 2155
2154 2200
2154 2201
2155 2156
2155 2201
2155 2202
2156 2157
2156 2201
2156 2202
2156 2203
2157 2158
2157 2202
2157 2203
2158 2159
2158 2203
2158 2204
2159 2160
2159 2204
2159 2205
2160 2161
2160 2204
2160 2205
2160 2206
2161 2162
2161 2205
2161 2206
2161 2207
2162 2163
2162 2206
2162 2207
2162 2208
2163 2164
2163 2207
2163 2208
2163 2209
2164 2165
2164 2208
2164 2209
2165 2166
2165 2209
2165 2210
2166 2167
2166 2210
2166 2211
2167 2168
2167 2210
2167 2211
2167 2212
2168 2169
2168 2211
2168 2212
2168 2213
2169 2170
2169 2212
2169 2213
2169 2214
2170 2171
2170 2213
2170 2214
2170 2215
2171 2172
2171 2214
2171 2215
2171 2216
2172 2173
2172 2215
2172 2216
2173 2174
2173 2216
2174 2217
2175 2217
2175 2218
2176 2219
2176 2220
2176 2221
2177 2178
2177 2221
2177 2222
2178 2222
2178 2223
2179 2180
2179 2223
2179 2224
2180 2181
2180 2224
2180 2225
2181 2182
2181 2224
2181 2225
2181 2226
2182 2225
2182 2226
2182 2227
2183 2184
2183 2227
2183 2228
2183 2229
2184 2185
2184 2228
2184 2229
2184 2230
2185 2229
2185 2230
2185 2231
2186 2232
2186 2233
2187 2188
2187 2233
2187 2234
2187 2235
2188 2189
2188 2234
2188 2235
2188 2236
2189 2190
2189 2235
2189 2236
2189 2237
2190 2191
2190 2236
2190 2237
2191 2192
2191 2237
2191 2238
2192 2238
2192 2239
2193 2194
2193 2239
2193 2240
2194 2240
2194 2241
2195 2242
2195 2243
2196 2197
2196 2244
2196 2245
2196 2246
2197 2198
2197 2245
2197 2246
2198 2199
2198 2246
2198 2247
2199 2200
2199 2247
2199 2248
2200 2247
2200 2248
2200 2249
2201 2202
2201 2249
2201 2250
2201 2251
2202 2203
2202 2250
2202 2251
2202 2252
2203 2251
2203 2252
2203 2253
2204 2205
2204 2253
2204 2254
2204 2255
2205 2206
2205 2254
2205 2255
2206 2207
2206 2255
2207 2208
2208 2209
2208 2256
2209 2256
2209 2257
2210 2211
2210 2257
2210 2258
2210 2259
2211 2212
2211 2258
2211 2259
2211 2260
2212 2213
2212 2259
2212 2260
2212 2261
2213 2214
2213 2260
2213 2261
2213 2262
2214 2215
2214 2261
2214 2262
2214 2263
2215 2216
2215 2262
2215 2263
2215 2264
2216 2263
2216 2264
2216 2265
2217 2266
2217 2267
2218 2219
2218 2267
2218 2268
2219 2220
2219 2268
2220 2221
2220 2268
2220 2269
2221 2269
2221 2270
2222 2223
2222 2270
2222 2271
2222 2272
2223 2271
2223 2272
2223 2273
2224 2225
2224 2273
2224 2274
2224 2275
2225 2226
2225 2274
2225 2275
2225 2276
2226 2227
2226 2275
2226 2276
2226 2277
2227 2228
2227 2276
2227 2277
2228 2229
2228 2277
2228 2278
2229 2230
2229 2278
2229 2279
2230 2231
2230 2278
2230 2279
2230 2280
2231 2279
2231 2280
2232 2233
2232 2281
2232 2282
2233 2234
2233 2281
2233 2282
2233 2283
2234 2235
2234 2282
2234 2283
2234 2284
2235 2236
2235 2283
2235 2284
2236 2237
2236 2284
2236 2285
2237 2285
2237 2286
2238 2239
2238 2286
2238 2287
2239 2240
2239 2287
2240 2287
2240 2288
2241 2288
2241 2289
2241 2290
2242 2243
2242 2290
2242 2291
2243 2244
2243 2291
2243 2292
2244 2245
2244 2291
2244 2292
2244 2293
2245 2246
2245 2292
2245 2293
2245 2294
2246 2293
2246 2294
2247 2248
2247 2295
2248 2249
2248 2295
2248 2296
2249 2250
2249 2295
2249 2296
2249 2297
2250 2251
2250 2296
2250 2297
2251 2252
2251 2297
2252 2253
2252 2298
2253 2254
2253 2298
2253 2299
2254 2255
2254 2298
2254 2299
2254 2300
2255 2299
2255 2300
2256 2257
2256 2302
2256 2303
2257 2258
2257 2303
2257 2304
2258 2259
2258 2303
2258 2304
2258 2305
2259 2260
2259 2304
2259 2305
2259 2306
2260 2261
2260 2305
2260 2306
2260 2307
2261 2262
2261 2306
2261 2307
2261 2308
2262 2263
2262 2307
2262 2308
2263 2264
2263 2308
2264 2265
2265 2309
2266 2267
2266 2309
2266 2310
2266 2311
2267 2310
2267 2311
2267 2312
2268 2312
2268 2313
2268 2314
2269 2270
2269 2314
2269 2315
2269 2316
2270 2271
2270 2315
2270 2316
2270 2317
2271 2272
2271 2316
2271 2317
2272 2273
2272 2317
2272 2318
2273 2274
2273 2318
2273 2319
2274 2275
2274 2318
2274 2319
2274 2320
2275 2276
2275 2319
2275 2320
2275 2321
2276 2277
2276 2320
2276 2321
2276 2322
2277 2321
2277 2322
2277 2323
2278 2279
2278 2323
2278 2324
2278 2325
2279 2280
2279 2324
2279 2325
2279 2326
2280 2325
2280 2326
2281 2282
2281 2327
2281 2328
2282 2283
2282 2327
2282 2328
2282 2329
2283 2284
2283 2328
2283 2329
2283 2330
2284 2329
2284 2330
2285 2286
2285 2331
2285 2332
2286 2331
2286 2332
2286 2333
2287 2333
2287 2334
2288 2289
2288 2334
2288 2335
2288 2336
2289 2290
2289 2335
2289 2336
2290 2336
2290 2337
2291 2292
2291 2337
2291 2338
2291 2339
2292 2293
2292 2338
2292 2339
2293 2294
2293 2339
2293 2340
2294 2340
2294 2341
2295 2296
2295 2342
2295 2343
2296 2297
2296 2343
2296 2344
2297 2343
2297 2344
2297 2345
2298 2299
2298 2346
2298 2347
2298 2348
2299 2300
2299 2347
2299 2348
2299 2349
2300 2348
2300 2349
2300 2350
2301 2302
2301 2350
2301 2351
2301 2352
2302 2351
2302 2352
2302 2353
2303 2304
2303 2353
2303 2354
2303 2355
2304 2305
2304 2354
2304 2355
2304 2356
2305 2306
2305 2355
2305 2356
2306 2307
2306 2356
2307 2308
2307 2357
2308 2357
2308 2358
2309 2310
2309 2360
2309 2361
2309 2362
2310 2311
2310 2361
2310 2362
2310 2363
2311 2312
2311 2362
2311 2363
2311 2364
2312 2313
2312 2363
2312 2364
2312 2365
2313 2314
2313 2364
2313 2365
2313 2366
2314 2315
2314 2365
2314 2366
2314 2367
2315 2316
2315 2366
2315 2367
2315 2368
2316 2317
2316 2367
2316 2368
2317 2368
2318 2319
2319 2320
2319 2369
2320 2321
2320 2369
2321 2322
2321 2369
2322 2323
2322 2370
2323 2324
2323 2370
2323 2371
2324 2325
2324 2370
2324 2371
2324 2372
2325 2326
2325 2371
2325 2372
2325 2373
2326 2372
2326 2373
2327 2328
2327 2374
2327 2375
2328 2329
2328 2374
2328 2375
2328 2376
2329 2330
2329 2375
2329 2376
2329 2377
2330 2376
2330 2377
2331 2332
2332 2333
2332 2378
2333 2378
2333 2379
2334 2335
2334 2379
2334 2380
2334 2381
2335 2336
2335 2380
2335 2381
2335 2382
2336 2381
2336 2382
2337 2338
2337 2383
2337 2384
2338 2339
2338 2383
2338 2384
2338 2385
2339 2384
2339 2385
2339 2386
2340 2341
2340 2386
2340 2387
2341 2342
2341 2387
2341 2388
2342 2387
2342 2388
2342 2389
2343 2344
2343 2389
2343 2390
2344 2345
2344 2390
2344 2391
2345 2346
2345 2390
2345 2391
2345 2392
2346 2347
2346 2391
2346 2392
2347 2348
2347 2392
2348 2349
2348 2393
2349 2350
2349 2393
2349 2394
2350 2351
2350 2393
2350 2394
2350 2395
2351 2352
2351 2394
2351 2395
2352 2353
2352 2395
2352 2396
2353 2354
2353 2396
2353 2397
2354 2355
2354 2396
2354 2397
2354 2398
2355 2356
2355 2397
2355 2398
2355 2399
2356 2398
2356 2399
2356 2400
2357 2358
2357 2401
2357 2402
2358 2359
2358 2402
2358 2403
2359 2360
2359 2402
2359 2403
2360 2361
2360 2403
2361 2362
2361 2404
2362 2363
2362 2404
2362 2405
2363 2364
2363 2404
2363 2405
2363 2406
2364 2365
2364 2405
2364 2406
2365 2366
2365 2406
2365 2407
2366 2367
2366 2407
2366 2408
2367 2368
2367 2407
2367 2408
2368 2408
2368 2409
2369 2412
2370 2371
2370 2413
2370 2414
2371 2372
2371 2413
2371 2414
2371 2415
2372 2373
2372 2414
2372 2415
2372 2416
2373 2415
2373 2416
2374 2375
2374 2417
2374 2418
2375 2376
2375 2417
2375 2418
2375 2419
2376 2377
2376 2418
2376 2419
2376 2420
2377 2419
2377 2420
2377 2421
2378 2379
2378 2422
2378 2423
2379 2380
2379 2423
2379 2424
2380 2381
2380 2424
2380 2425
2381 2382
2381 2424
2381 2425
2381 2426
2382 2425
2382 2426
2382 2427
2383 2384
2383 2427
2383 2428
2383 2429
2384 2385
2384 2428
2384 2429
2384 2430
2385 2386
2385 2429
2385 2430
2385 2431
2386 2430
2386 2431
2386 2432
2387 2388
2387 2432
2387 2433
2388 2389
2388 2433
2388 2434
2389 2434
2389 2435
2390 2391
2390 2435
2390 2436
2390 2437
2391 2392
2391 2436
2391 2437
2392 2437
2392 2438
2393 2394
2393 2439
2393 2440
2393 2441
2394 2395
2394 2440
2394 2441
2394 2442
2395 2441
2395 2442
2395 2443
2396 2397
2396 2443
2396 2444
2397 2398
2397 2444
2398 2399
2399 2400
2399 2445
2400 2401
2400 2445
2400 2446
2401 2445
2401 2446
2401 2447
2402 2403
2402 2447
2403 2448
2404 2405
2404 2449
2404 2450
2404 2451
2405 2406
2405 2450
2405 2451
2405 2452
2406 2451
2406 2452
2406 2453
2407 2408
2407 2453
2407 2454
2408 2454
2408 2455
2409 2410
2409 2455
2409 2456
2410 2411
2410 2456
2410 2457
2411 2457
2411 2458
2412 2458
2412 2459
2413 2414
2413 2460
2414 2415
2415 2416
2415 2461
2416 2461
2417 2418
2417 2462
2417 2463
2418 2419
2418 2462
2418 2463
2418 2464
2419 2420
2419 2463
2419 2464
2420 2421
2420 2464
2420 2465
2421 2465
2421 2466
2422 2423
2422 2466
2422 2467
2422 2468
2423 2467
2423 2468
2423 2469
2424 2425
2424 2469
2425 2426
2425 2470
2426 2427
2426 2470
2426 2471
2427 2428
2427 2470
2427 2471
2427 2472
2428 2429
2428 2471
2428 2472
2428 2473
2429 2430
2429 2472
2429 2473
2429 2474
2430 2431
2430 2473
2430 2474
2430 2475
2431 2432
2431 2474
2431 2475
2431 2476
2432 2433
2432 2475
2432 2476
2432 2477
2433 2476
2433 2477
2433 2478
2434 2435
2434 2478
2434 2479
2435 2436
2435 2479
2435 2480
2436 2437
2436 2480
2436 2481
2437 2480
2437 2481
2438 2439
2438 2482
2439 2440
2439 2482
2440 2441
2440 2482
2440 2483
2441 2442
2441 2483
2441 2484
2442 2443
2442 2483
2442 2484
2443 2444
2443 2484
2443 2485
2444 2485
2444 2486
2445 2446
2445 2488
2445 2489
2445 2490
2446 2447
2446 2489
2446 2490
2446 2491
2447 2490
2447 2491
2447 2492
2448 2449
2448 2493
2448 2494
2449 2450
2449 2494
2449 2495
2450 2451
2450 2494
2450 2495
2450 2496
2451 2452
2451 2495
2451 2496
2451 2497
2452 2453
2452 2496
2452 2497
2452 2498
2453 2454
2453 2497
2453 2498
2453 2499
2454 2498
2454 2499
2454 2500
2455 2456
2455 2500
2456 2501
2457 2458
2457 2501
2457 2502
2457 2503
2458 2502
2458 2503
2458 2504
2459 2460
2459 2504
2460 2505
2461 2507
2461 2508
2462 2463
2462 2509
2462 2510
2463 2464
2463 2509
2463 2510
2464 2510
2464 2511
2465 2466
2465 2511
2465 2512
2465 2513
2466 2467
2466 2512
2466 2513
2466 2514
2467 2468
2467 2513
2467 2514
2467 2515
2468 2469
2468 2514
2468 2515
2468 2516
2469 2515
2469 2516
2470 2471
2470 2517
2470 2518
2471 2472
2471 2518
2471 2519
2472 2473
2472 2518
2472 2519
2473 2474
2473 2519
2473 2520
2474 2475
2474 2520
2474 2521
2475 2476
2475 2520
2475 2521
2475 2522
2476 2477
2476 2521
2476 2522
2476 2523
2477 2478
2477 2522
2477 2523
2477 2524
2478 2479
2478 2523
2478 2524
2479 2524
2479 2525
2480 2481
2480 2525
2480 2526
2480 2527
2481 2526
2481 2527
2482 2528
2482 2529
2482 2530
2483 2484
2483 2530
2483 2531
2484 2531
2484 2532
2485 2486
2485 2532
2485 2533
2485 2534
2486 2487
2486 2533
2486 2534
2486 2535
2487 2488
2487 2534
2487 2535
2487 2536
2488 2489
2488 2535
2488 2536
2488 2537
2489 2490
2489 2536
2489 2537
2489 2538
2490 2491
2490 2537
2490 2538
2491 2492
2491 2538
2491 2539
2492 2493
2492 2539
2493 2539
2493 2540
2494 2495
2494 2540
2494 2541
2494 2542
2495 2496
2495 2541
2495 2542
2495 2543
2496 2497
2496 2542
2496 2543
2497 2498
2497 2543
2497 2544
2498 2499
2498 2544
2498 2545
2499 2500
2499 2544
2499 2545
2499 2546
2500 2545
2500 2546
2500 2547
2501 2502
2501 2548
2501 2549
2502 2503
2502 2549
2503 2504
2503 2550
2504 2550
2504 2551
2505 2506
2505 2552
2505 2553
2506 2507
2506 2552
2506 2553
2506 2554
2507 2508
2507 2553
2507 2554
2508 2554
2509 2510
2509 2555
2509 2556
2510 2555
2510 2556
2510 2557
2511 2512
2511 2557
2511 2558
2511 2559
2512 2513
2512 2558
2512 2559
2512 2560
2513 2514
2513 2559
2513 2560
2513 2561
2514 2515
2514 2560
2514 2561
2514 2562
2515 2516
2515 2561
2515 2562
2515 2563
2516 2562
2516 2563
2516 2564
2517 2564
2517 2565
2518 2519
2518 2566
2518 2567
2519 2566
2519 2567
2519 2568
2520 2521
2520 2568
2520 2569
2520 2570
2521 2522
2521 2569
2521 2570
2521 2571
2522 2523
2522 2570
2522 2571
2522 2572
2523 2524
2523 2571
2523 2572
2523 2573
2524 2572
2524 2573
2524 2574
2525 2526
2525 2574
2525 2575
2525 2576
2526 2527
2526 2575
2526 2576
2526 2577
2527 2576
2527 2577
2528 2529
2529 2530
2529 2578
2530 2531
2530 2578
2530 2579
2531 2578
2531 2579
2531 2580
2532 2533
2532 2580
2532 2581
2533 2534
2533 2581
2533 2582
2534 2535
2534 2581
2534 2582
2534 2583
2535 2536
2535 2582
2535 2583
2535 2584
2536 2537
2536 2583
2536 2584
2536 2585
2537 2538
2537 2584
2537 2585
2537 2586
2538 2585
2538 2586
2538 2587
2539 2587
2539 2588
2540 2541
2540 2588
2540 2589
2541 2542
2541 2589
2542 2543
2542 2589
2542 2590
2543 2590
2543 2591
2544 2545
2544 2591
2544 2592
2544 2593
2545 2546
2545 2592
2545 2593
2546 2547
2546 2593
2547 2548
2547 2594
2548 2549
2548 2594
2548 2595
2549 2594
2549 2595
2550 2551
2550 2596
2550 2597
2550 2598
2551 2597
2551 2598
2551 2599
2552 2553
2552 2599
2552 2600
2552 2601
2553 2554
2553 2600
2553 2601
2553 2602
2554 2601
2554 2602
2554 2603
2555 2556
2555 2604
2555 2605
2556 2557
2556 2604
2556 2605
2556 2606
2557 2558
2557 2605
2557 2606
2557 2607
2558 2559
2558 2606
2558 2607
2558 2608
2559 2560
2559 2607
2559 2608
2559 2609
2560 2561
2560 2608
2560 2609
2560 2610
2561 2562
2561 2609
2561 2610
2562 2563
2562 2610
2562 2611
2563 2564
2563 2611
2564 2565
2564 2611
2564 2612
2565 2612
2565 2613
2566 2567
2566 2613
2566 2614
2566 2615
2567 2568
2567 2614
2567 2615
2567 2616
2568 2569
2568 2615
2568 2616
2568 2617
2569 2570
2569 2616
2569 2617
2570 2571
2570 2617
2570 2618
2571 2572
2571 2618
2571 2619
2572 2573
2572 2618
2572 2619
2573 2574
2573 2619
2573 2620
2574 2575
2574 2620
2574 2621
2575 2576
2575 2620
2575 2621
2575 2622
2576 2577
2576 2621
2576 2622
2576 2623
2577 2622
2577 2623
2577 2624
2578 2579
2578 2626
2578 2627
2579 2580
2579 2627
2579 2628
2580 2628
2580 2629
2581 2582
2581 2629
2581 2630
2582 2583
2582 2630
2582 2631
2583 2584
2583 2630
2583 2631
2583 2632
2584 2585
2584 2631
2584 2632
2584 2633
2585 2586
2585 2632
2585 2633
2585 2634
2586 2587
2586 2633
2586 2634
2587 2634
2587 2635
2588 2635
2588 2636
2589 2636
2589 2637
2589 2638
2590 2591
2590 2638
2590 2639
2591 2592
2591 2639
2591 2640
2592 2593
2592 2639
2592 2640
2592 2641
2593 2640
2593 2641
2593 2642
2594 2595
2594 2643
2595 2643
2595 2644
2596 2597
2596 2644
2596 2645
2597 2598
2597 2645
2597 2646
2598 2599
2598 2645
2598 2646
2598 2647
2599 2600
2599 2646
2599 2647
2599 2648
2600 2601
2600 2647
2600 2648
2601 2602
2601 2648
2601 2649
2602 2603
2602 2649
2602 2650
2603 2649
2603 2650
2604 2605
2604 2651
2604 2652
2605 2606
2605 2651
2605 2652
2605 2653
2606 2607
2606 2652
2606 2653
2606 2654
2607 2608
2607 2653
2607 2654
2607 2655
2608 2609
2608 2654
2608 2655
2608 2656
2609 2610
2609 2655
2609 2656
2609 2657
2610 2656
2610 2657
2610 2658
2611 2658
2611 2659
2612 2613
2612 2660
2613 2614
2613 2660
2613 2661
2614 2615
2614 2661
2614 2662
2615 2616
2615 2661
2615 2662
2615 2663
2616 2617
2616 2662
2616 2663
2616 2664
2617 2663
2617 2664
2617 2665
2618 2619
2618 2665
2618 2666
2618 2667
2619 2666
2619 2667
2619 2668
2620 2621
2620 2668
2620 2669
2621 2622
2621 2669
2621 2670
2622 2623
2622 2670
2622 2671
2623 2624
2623 2670
2623 2671
2623 2672
2624 2625
2624 2671
2624 2672
2624 2673
2625 2626
2625 2672
2625 2673
2626 2627
2626 2673
2627 2674
2628 2629
2628 2674
2628 2675
2629 2675
2629 2676
2630 2631
2630 2676
2630 2677
2631 2632
2631 2677
2631 2678
2632 2633
2632 2678
2632 2679
2633 2634
2633 2678
2633 2679
2633 2680
2634 2679
2634 2680
2635 2681
2635 2682
2636 2637
2636 2682
2636 2683
2637 2638
2637 2683
2638 2683
2638 2684
2639 2640
2639 2684
2639 2685
2640 2641
2640 2685
2641 2642
2641 2686
2642 2686
2643 2644
2643 2687
2643 2688
2644 2688
2645 2646
2646 2647
2646 2689
2647 2648
2647 2689
2647 2690
2648 2689
2648 2690
2648 2691
2649 2650
2649 2691
2649 2692
2649 2693
2650 2692
2650 2693
2651 2652
2651 2694
2651 2695
2652 2653
2652 2694
2652 2695
2653 2654
2653 2695
2653 2696
2654 2655
2654 2696
2654 2697
2655 2656
2655 2696
2655 2697
2655 2698
2656 2657
2656 2697
2656 2698
2656 2699
2657 2658
2657 2698
2657 2699
2658 2659
2658 2699
2658 2700
2659 2700
2660 2701
2660 2702
2661 2662
2661 2702
2661 2703
2661 2704
2662 2663
2662 2703
2662 2704
2662 2705
2663 2664
2663 2704
2663 2705
2663 2706
2664 2665
2664 2705
2664 2706
2664 2707
2665 2666
2665 2706
2665 2707
2665 2708
2666 2667
2666 2707
2666 2708
2667 2668
2667 2708
2667 2709
2668 2669
2668 2709
2668 2710
2669 2709
2669 2710
2669 2711
2670 2671
2670 2711
2670 2712
2671 2672
2671 2712
2671 2713
2672 2673
2672 2713
2673 2713
2673 2714
2674 2675
2674 2715
2674 2716
2675 2716
2676 2677
2676 2717
2676 2718
2677 2717
2677 2718
2678 2679
2678 2719
2678 2720
2679 2680
2679 2719
2679 2720
2679 2721
2680 2720
2680 2721
2680 2722
2681 2682
2681 2722
2681 2723
2682 2723
2682 2724
2683 2724
2683 2725
2683 2726
2684 2685
2684 2726
2684 2727
2684 2728
2685 2727
2685 2728
2685 2729
2686 2730
2686 2731
2687 2731
2687 2732
2687 2733
2688 2733
2688 2734
2689 2690
2689 2736
2689 2737
2690 2691
2690 2736
2690 2737
2690 2738
2691 2692
2691 2737
2691 2738
2692 2693
2692 2738
2692 2739
2693 2739
2694 2695
2696 2697
2696 2740
2697 2698
2697 2740
2697 2741
2698 2699
2698 2740
2698 2741
2698 2742
2699 2741
2699 2742
2699 2743
2700 2743
2700 2744
2700 2745
2701 2702
2701 2745
2701 2746
2701 2747
2702 2703
2702 2746
2702 2747
2703 2704
2703 2747
2703 2748
2704 2705
2704 2748
2704 2749
2705 2706
2705 2748
2705 2749
2705 2750
2706 2707
2706 2749
2706 2750
2707 2708
2707 2750
2707 2751
2708 2751
2708 2752
2709 2710
2709 2752
2709 2753
2709 2754
2710 2711
2710 2753
2710 2754
2710 2755
2711 2712
2711 2754
2711 2755
2711 2756
2712 2755
2712 2756
2712 2757
2713 2757
2713 2758
2714 2715
2714 2758
2714 2759
2714 2760
2715 2716
2715 2759
2715 2760
2716 2760
2716 2761
2717 2718
2717 2762
2718 2762
2718 2763
2719 2720
2719 2763
2719 2764
2719 2765
2720 2721
2720 2764
2720 2765
2720 2766
2721 2722
2721 2765
2721 2766
2721 2767
2722 2766
2722 2767
2722 2768
2723 2724
2723 2768
2723 2769
2723 2770
2724 2725
2724 2769
2724 2770
2724 2771
2725 2726
2725 2770
2725 2771
2725 2772
2726 2727
2726 2771
2726 2772
2726 2773
2727 2728
2727 2772
2727 2773
2727 2774
2728 2729
2728 2773
2728 2774
2728 2775
2729 2774
2729 2775
2729 2776
2730 2731
2730 2776
2730 2777
2730 2778
2731 2732
2731 2777
2731 2778
2731 2779
2732 2733
2732 2778
2732 2779
2732 2780
2733 2779
2733 2780
2733 2781
2734 2735
2734 2781
2734 2782
2734 2783
2735 2782
2735 2783
2735 2784
2736 2737
2736 2784
2736 2785
2736 2786
2737 2738
2737 2785
2737 2786
2737 2787
2738 2786
2738 2787
2738 2788
2739 2788
2739 2789
2740 2741
2740 2791
2740 2792
2740 2793
2741 2742
2741 2792
2741 2793
2741 2794
2742 2743
2742 2793
2742 2794
2743 2744
2743 2794
2743 2795
2744 2745
2744 2795
2744 2796
2745 2746
2745 2795
2745 2796
2745 2797
2746 2747
2746 2796
2746 2797
2746 2798
2747 2797
2747 2798
2747 2799
2748 2749
2748 2799
2748 2800
2748 2801
2749 2750
2749 2800
2749 2801
2749 2802
2750 2801
2750 2802
2750 2803
2751 2752
2751 2803
2751 2804
2752 2753
2752 2804
2753 2754
2753 2804
2753 2805
2754 2755
2754 2805
2754 2806
2755 2756
2755 2805
2755 2806
2755 2807
2756 2757
2756 2806
2756 2807
2756 2808
2757 2807
2757 2808
2757 2809
2758 2759
2758 2809
2758 2810
2759 2760
2759 2810
2760 2810
2760 2811
2761 2811
2761 2812
2761 2813
2762 2763
2762 2814
2762 2815
2763 2764
2763 2815
2763 2816
2764 2765
2764 2816
2764 2817
2765 2766
2765 2816
2765 2817
2765 2818
2766 2767
2766 2817
2766 2818
2766 2819
2767 2768
2767 2818
2767 2819
2767 2820
2768 2769
2768 2819
2768 2820
2768 2821
2769 2770
2769 2820
2769 2821
2769 2822
2770 2771
2770 2821
2770 2822
2770 2823
2771 2772
2771 2822
2771 2823
2771 2824
2772 2773
2772 2823
2772 2824
2772 2825
2773 2774
2773 2824
2773 2825
2773 2826
2774 2775
2774 2825
2774 2826
2774 2827
2775 2776
2775 2826
2775 2827
2775 2828
2776 2777
2776 2827
2776 2828
2776 2829
2777 2778
2777 2828
2777 2829
2777 2830
2778 2779
2778 2829
2778 2830
2778 2831
2779 2780
2779 2830
2779 2831
2779 2832
2780 2781
2780 2831
2780 2832
2781 2782
2781 2832
2781 2833
2782 2783
2782 2833
2782 2834
2783 2784
2783 2833
2783 2834
2783 2835
2784 2785
2784 2834
2784 2835
2784 2836
2785 2786
2785 2835
2785 2836
2786 2787
2786 2836
2787 2788
2787 2837
2788 2789
2788 2837
2788 2838
2789 2837
2789 2838
2790 2839
2791 2792
2791 2840
2792 2793
2792 2840
2792 2841
2793 2794
2793 2840
2793 2841
2793 2842
2794 2841
2794 2842
2794 2843
2795 2796
2795 2843
2796 2797
2797 2798
2798 2799
2799 2800
2799 2844
2800 2801
2800 2844
2800 2845
2801 2802
2801 2844
2801 2845
2801 2846
2802 2803
2802 2845
2802 2846
2802 2847
2803 2846
2803 2847
2803 2848
2804 2848
2804 2849
2805 2806
2805 2850
2805 2851
2806 2807
2806 2850
2806 2851
2806 2852
2807 2808
2807 2851
2807 2852
2807 2853
2808 2809
2808 2852
2808 2853
2809 2853
2809 2854
2810 2854
2810 2855
2810 2856
2811 2812
2811 2856
2811 2857
2811 2858
2812 2813
2812 2857
2812 2858
2813 2814
2813 2858
2814 2815
2815 2859
2816 2817
2816 2859
2816 2860
2817 2818
2817 2860
2817 2861
2818 2819
2818 2861
2818 2862
2819 2820
2819 2861
2819 2862
2819 2863
2820 2821
2820 2862
2820 2863
2820 2864
2821 2822
2821 2863
2821 2864
2821 2865
2822 2823
2822 2864
2822 2865
2823 2824
2823 2865
2823 2866
2824 2825
2824 2866
2824 2867
2825 2826
2825 2866
2825 2867
2825 2868
2826 2827
2826 2867
2826 2868
2827 2828
2827 2868
2828 2829
2829 2830
2829 2869
2830 2831
2830 2869
2830 2870
2831 2832
2831 2869
2831 2870
2831 2871
2832 2870
2832 2871
2832 2872
2833 2834
2833 2872
2833 2873
2833 2874
2834 2835
2834 2873
2834 2874
2834 2875
2835 2836
2835 2874
2835 2875
2835 2876
2836 2875
2836 2876
2836 2877
2837 2838
2837 2878
2837 2879
2837 2880
2838 2879
2838 2880
2840 2841
2841 2842
2842 2843
2844 2845
2845 2846
2846 2847
2847 2848
2848 2849
2850 2851
2851 2852
2852 2853
2854 2855
2855 2856
2856 2857
2857 2858
2859 2860
2861 2862
2862 2863
2863 2864
2864 2865
2866 2867
2867 2868
2869 2870
2870 2871
2871 2872
2872 2873
2873 2874
2874 2875
2875 2876
2876 2877
2877 2878
2878 2879
2879 2880
