# Random KSG graph
n = 60
seed = 10
type = random_ksg

vertices: 2880
edges:
1 47
2 3
2 47
2 48
2 49
3 48
3 49
3 50
4 5
4 50
4 51
5 6
5 51
5 52
6 51
6 52
6 53
7 53
7 54
7 55
8 9
8 55
8 56
8 57
9 10
9 56
9 57
9 58
10 11
10 57
10 58
10 59
11 12
11 58
11 59
11 60
12 13
12 59
12 60
12 61
13 14
13 60
13 61
13 62
14 15
14 61
14 62
14 63
15 16
15 62
15 63
15 64
16 17
16 63
16 64
16 65
17 18
17 64
17 65
18 19
18 65
18 66
19 66
19 67
20 21
20 67
20 68
20 69
21 68
21 69
21 70
22 70
22 71
23 24
23 71
23 72
24 25
24 72
25 26
25 72
25 73
26 27
26 73
26 74
27 28
27 73
27 74
27 75
28 29
28 74
28 75
28 76
29 30
29 75
29 76
29 77
30 76
30 77
31 78
31 79
32 33
32 79
32 80
32 81
33 80
33 81
33 82
34 82
34 83
35 36
35 83
35 84
35 85
36 37
36 84
36 85
36 86
37 85
37 86
37 87
38 39
38 87
38 88
39 40
39 88
39 89
40 41
40 89
40 90
41 42
41 89
41 90
41 91
42 43
42 90
42 91
43 44
43 91
43 92
44 92
44 93
45 46
45 94
45 95
46 94
46 95
47 48
47 96
47 97
48 49
48 97
48 98
49 50
49 97
49 98
49 99
50 98
50 99
50 100
51 52
51 100
51 101
51 102
52 53
52 101
52 102
53 54
53 102
53 103
54 55
54 103
54 104
55 56
55 103
55 104
55 105
56 57
56 104
56 105
56 106
57 58
57 105
57 106
57 107
58 59
58 106
58 107
58 108
59 60
59 107
59 108
59 109
60 61
60 108
60 109
60 110
61 62
61 109
61 110
62 63
62 110
62 111
63 64
63 111
64 65
64 111
65 112
66 67
66 112
66 113
67 68
67 113
67 114
68 69
68 113
68 114
68 115
69 70
69 114
69 115
69 116
70 115
70 116
70 117
71 117
71 118
71 119
72 119
72 120
72 121
73 74
73 121
73 122
73 123
74 75
74 122
74 123
74 124
75 76
75 123
75 124
75 125
76 77
76 124
76 125
76 126
77 125
77 126
77 127
78 79
78 127
78 128
78 129
79 80
79 128
79 129
80 81
80 129
80 130
81 82
81 130
81 131
82 130
82 131
82 132
83 84
83 132
83 133
83 134
84 85
84 133
84 134
84 135
85 86
85 134
85 135
85 136
86 87
86 135
86 136
86 137
87 88
87 136
87 137
87 138
88 137
88 138
88 139
89 90
89 139
90 91
90 140
91 140
91 141
92 93
92 141
93 142
94 95
94 142
94 143
94 144
95 143
95 144
96 145
96 146
97 98
97 146
97 147
98 99
98 147
98 148
99 100
99 147
99 148
100 101
100 148
100 149
101 102
101 149
101 150
102 149
102 150
102 151
103 104
103 151
104 105
104 152
105 106
105 152
106 107
106 152
107 108
108 109
108 153
109 110
109 153
109 154
110 153
110 154
111 155
112 156
112 157
112 158
113 114
113 158
113 159
113 160
114 115
114 159
114 160
114 161
115 116
115 160
115 161
115 162
116 117
116 161
116 162
116 163
117 118
117 162
117 163
117 164
118 119
118 163
118 164
118 165
119 120
119 164
119 165
119 166
120 121
120 165
120 166
120 167
121 122
121 166
121 167
121 168
122 123
122 167
122 168
122 169
123 124
123 168
123 169
124 125
124 169
124 170
125 126
125 170
125 171
126 127
126 170
126 171
126 172
127 128
127 171
127 172
127 173
128 129
128 172
128 173
128 174
129 173
129 174
129 175
130 131
130 175
130 176
130 177
131 132
131 176
131 177
132 133
132 177
133 134
133 178
134 135
134 178
134 179
135 136
135 178
135 179
135 180
136 137
136 179
136 180
136 181
137 138
137 180
137 181
137 182
138 139
138 181
138 182
139 182
139 183
140 141
140 184
140 185
140 186
141 185
141 186
141 187
142 143
142 188
142 189
143 144
143 189
143 190
144 190
145 146
145 191
146 191
146 192
147 148
147 192
147 193
147 194
148 193
148 194
148 195
149 150
149 195
149 196
150 151
150 196
150 197
151 197
151 198
152 199
152 200
152 201
153 154
153 203
153 204
153 205
154 204
154 205
154 206
155 156
155 207
155 208
156 157
156 208
156 209
157 158
157 209
157 210
158 159
158 209
158 210
158 211
159 160
159 210
159 211
159 212
160 161
160 211
160 212
160 213
161 162
161 212
161 213
161 214
162 163
162 213
162 214
162 215
163 164
163 214
163 215
163 216
164 165
164 215
164 216
164 217
165 166
165 216
165 217
165 218
166 167
166 217
166 218
166 219
167 168
167 218
167 219
167 220
168 169
168 219
168 220
168 221
169 220
169 221
169 222
170 171
170 222
170 223
171 172
171 223
171 224
172 173
172 224
172 225
173 174
173 224
173 225
174 175
174 225
174 226
175 176
175 226
176 177
176 226
176 227
177 227
177 228
178 179
178 229
178 230
178 231
179 180
179 230
179 231
179 232
180 181
180 231
180 232
180 233
181 182
181 232
181 233
182 233
182 234
183 184
183 234
183 235
184 185
184 235
185 186
185 235
185 236
186 187
186 236
186 237
187 188
187 236
187 237
188 189
188 237
188 238
189 238
190 239
191 240
192 193
192 241
193 194
193 241
194 195
195 196
195 242
196 242
196 243
197 198
197 243
197 244
197 245
198 199
198 244
198 245
199 200
199 245
199 246
200 201
200 246
200 247
201 202
201 246
201 247
202 203
202 247
202 248
203 204
203 248
203 249
204 205
204 248
204 249
204 250
205 206
205 249
205 250
206 207
206 250
206 251
207 208
207 251
207 252
208 251
208 252
208 253
209 210
209 253
209 254
209 255
210 211
210 254
210 255
210 256
211 212
211 255
211 256
211 257
212 213
212 256
212 257
212 258
213 214
213 257
213 258
213 259
214 215
214 258
214 259
215 216
215 259
215 260
216 217
216 260
216 261
217 218
217 260
217 261
217 262
218 219
218 261
218 262
218 263
219 220
219 262
219 263
219 264
220 221
220 263
220 264
220 265
221 222
221 264
221 265
221 266
222 223
222 265
222 266
222 267
223 266
223 267
223 268
224 225
224 268
224 269
225 269
225 270
226 270
226 271
227 228
227 271
227 272
227 273
228 229
228 272
228 273
228 274
229 230
229 273
229 274
229 275
230 231
230 274
230 275
230 276
231 232
231 275
231 276
231 277
232 233
232 276
232 277
232 278
233 277
233 278
234 279
235 280
235 281
236 237
236 281
236 282
236 283
237 282
237 283
237 284
238 284
238 285
238 286
239 286
240 287
240 288
241 288
241 289
242 243
242 291
242 292
243 244
243 292
243 293
244 245
244 292
244 293
244 294
245 293
245 294
245 295
246 247
246 295
246 296
246 297
247 296
247 297
247 298
248 249
248 298
248 299
249 250
249 299
249 300
250 300
250 301
251 252
251 301
251 302
252 253
252 302
252 303
253 254
253 302
253 303
253 304
254 255
254 303
254 304
255 256
255 304
255 305
256 257
256 305
256 306
257 258
257 305
257 306
257 307
258 259
258 306
258 307
259 307
259 308
260 261
260 308
260 309
261 262
261 309
261 310
262 263
262 309
262 310
263 264
263 310
263 311
264 265
264 311
265 266
265 311
265 312
266 267
266 312
266 313
267 268
267 312
267 313
267 314
268 269
268 313
268 314
269 314
269 315
270 315
270 316
270 317
271 272
271 317
271 318
271 319
272 273
272 318
272 319
273 274
273 319
273 320
274 275
274 320
275 276
275 320
275 321
276 277
276 321
277 278
277 321
277 322
278 322
278 323
279 323
279 324
279 325
280 281
280 325
280 326
280 327
281 282
281 326
281 327
282 283
282 327
283 284
283 328
284 285
284 328
284 329
285 286
285 328
285 329
285 330
286 329
286 330
287 288
287 331
288 331
289 290
289 332
290 291
290 332
290 333
291 332
291 333
291 334
292 293
292 334
292 335
293 294
293 335
294 295
294 336
295 296
295 336
296 297
296 336
296 337
297 298
297 337
298 299
298 337
298 338
299 338
300 301
300 339
301 339
301 340
302 303
302 340
302 341
302 342
303 304
303 341
303 342
303 343
304 342
304 343
304 344
305 306
305 344
305 345
306 307
306 345
306 346
307 345
307 346
307 347
308 347
308 348
308 349
309 310
309 349
309 350
309 351
310 350
310 351
310 352
311 352
311 353
312 313
312 354
312 355
313 314
313 354
313 355
314 355
314 356
315 316
315 356
315 357
316 317
316 357
317 318
317 357
317 358
318 319
318 358
319 358
319 359
320 359
320 360
320 361
321 361
321 362
321 363
322 323
322 363
322 364
323 324
323 364
323 365
324 325
324 364
324 365
324 366
325 326
325 365
325 366
325 367
326 327
326 366
326 367
326 368
327 367
327 368
327 369
328 329
328 370
328 371
329 330
329 370
329 371
329 372
330 371
330 372
330 373
331 374
331 375
331 376
332 333
332 377
332 378
333 334
333 377
333 378
333 379
334 335
334 378
334 379
334 380
335 379
335 380
336 381
336 382
337 382
337 383
337 384
338 384
338 385
338 386
339 386
339 387
340 341
340 387
340 388
341 342
341 388
341 389
342 343
342 389
342 390
343 344
343 389
343 390
343 391
344 390
344 391
344 392
345 346
345 392
345 393
345 394
346 347
346 393
346 394
347 348
347 394
348 349
348 395
349 350
349 395
349 396
350 351
350 395
350 396
351 352
351 396
351 397
352 353
352 397
353 397
353 398
354 355
354 398
354 399
354 400
355 399
355 400
356 401
356 402
357 402
357 403
357 404
358 404
359 360
359 405
360 361
360 405
360 406
361 362
361 405
361 406
361 407
362 363
362 406
362 407
363 407
363 408
364 365
364 408
364 409
364 410
365 366
365 409
365 410
366 367
366 410
366 411
367 368
367 411
367 412
368 369
368 411
368 412
369 412
369 413
370 371
370 413
370 414
370 415
371 372
371 414
371 415
372 373
372 415
374 375
375 376
375 416
376 416
376 417
377 378
377 417
377 418
378 379
378 418
378 419
379 380
379 419
380 419
380 420
381 420
381 421
382 383
382 422
383 384
383 422
383 423
384 385
384 422
384 423
384 424
385 386
385 423
385 424
385 425
386 424
386 425
386 426
387 388
387 426
387 427
387 428
388 427
388 428
388 429
389 390
389 429
389 430
390 391
390 430
390 431
391 392
391 431
391 432
392 393
392 431
392 432
393 394
393 432
393 433
394 433
394 434
395 396
395 435
395 436
396 435
396 436
396 437
397 437
397 438
397 439
398 399
398 439
398 440
398 441
399 400
399 440
399 441
399 442
400 441
400 442
400 443
401 402
401 443
401 444
401 445
402 403
402 444
402 445
402 446
403 404
403 445
403 446
403 447
404 446
404 447
404 448
405 406
405 450
405 451
405 452
406 407
406 451
406 452
406 453
407 452
407 453
407 454
408 409
408 454
408 455
408 456
409 410
409 455
409 456
409 457
410 456
410 457
411 412
411 458
412 458
412 459
413 414
413 459
413 460
414 415
414 460
415 460
415 461
416 417
416 464
416 465
416 466
417 418
417 465
417 466
418 466
419 467
419 468
420 421
420 468
420 469
420 470
421 469
421 470
421 471
422 423
422 472
422 473
423 424
423 473
423 474
424 425
424 474
424 475
425 426
425 474
425 475
425 476
426 427
426 475
426 476
426 477
427 428
427 476
427 477
428 429
428 477
428 478
429 430
429 478
429 479
430 478
430 479
431 432
431 480
431 481
432 480
432 481
433 434
433 482
433 483
434 482
434 483
434 484
435 436
435 484
435 485
435 486
436 437
436 485
436 486
437 438
437 486
437 487
438 439
438 487
438 488
439 440
439 487
439 488
439 489
440 441
440 488
440 489
440 490
441 442
441 489
441 490
441 491
442 443
442 490
442 491
443 444
443 491
443 492
444 445
444 492
444 493
445 446
445 492
445 493
445 494
446 447
446 493
446 494
446 495
447 448
447 494
447 495
447 496
448 449
448 495
448 496
448 497
449 450
449 496
449 497
450 451
450 497
450 498
451 452
451 498
451 499
452 453
452 498
452 499
452 500
453 454
453 499
453 500
453 501
454 455
454 500
454 501
454 502
455 456
455 501
455 502
455 503
456 457
456 502
456 503
456 504
457 503
457 504
458 459
458 505
458 506
458 507
459 506
459 507
459 508
460 508
460 509
460 510
461 462
461 510
461 511
461 512
462 511
462 512
463 464
463 513
463 514
464 465
464 513
464 514
465 466
465 514
465 515
466 515
466 516
467 468
467 517
467 518
468 469
468 518
468 519
469 470
469 519
469 520
470 471
470 519
470 520
471 472
471 520
471 521
472 473
472 521
472 522
473 521
473 522
474 475
474 523
474 524
475 476
475 523
475 524
476 477
476 524
476 525
477 525
477 526
478 479
478 526
478 527
478 528
479 527
479 528
479 529
480 481
480 529
481 530
482 483
482 530
482 531
482 532
483 484
483 531
483 532
483 533
484 485
484 532
484 533
484 534
485 486
485 533
485 534
485 535
486 534
486 535
487 488
487 536
487 537
488 489
488 536
488 537
488 538
489 490
489 537
489 538
489 539
490 491
490 538
490 539
490 540
491 539
491 540
491 541
492 493
492 541
492 542
492 543
493 494
493 542
493 543
493 544
494 495
494 543
494 544
494 545
495 496
495 544
495 545
495 546
496 497
496 545
496 546
496 547
497 546
497 547
497 548
498 499
498 548
498 549
498 550
499 500
499 549
499 550
499 551
500 501
500 550
500 551
500 552
501 502
501 551
501 552
502 503
502 552
502 553
503 504
503 553
503 554
504 553
504 554
504 555
505 506
505 555
505 556
505 557
506 507
506 556
506 557
506 558
507 508
507 557
507 558
508 509
508 558
508 559
509 510
509 559
509 560
510 511
510 559
510 560
510 561
511 512
511 560
511 561
511 562
512 561
512 562
513 514
513 563
513 564
514 563
514 564
515 516
515 565
516 517
516 565
516 566
517 518
517 566
517 567
518 566
518 567
518 568
519 520
519 568
519 569
520 569
521 522
521 570
521 571
522 570
522 571
522 572
523 524
523 572
523 573
524 573
525 526
525 574
526 527
526 574
526 575
527 528
527 575
527 576
528 529
528 575
528 576
528 577
529 576
529 577
529 578
530 531
530 579
530 580
531 532
531 580
531 581
532 533
532 580
532 581
532 582
533 534
533 581
533 582
533 583
534 535
534 582
534 583
535 583
535 584
536 537
536 584
536 585
537 538
537 585
538 539
538 586
539 540
539 586
539 587
540 541
540 586
540 587
540 588
541 542
541 587
541 588
541 589
542 543
542 588
542 589
542 590
543 544
543 589
543 590
543 591
544 545
544 590
544 591
545 546
545 591
546 547
546 592
547 548
547 592
547 593
548 549
548 592
548 593
548 594
549 550
549 593
549 594
550 551
550 594
550 595
551 552
551 595
551 596
552 595
552 596
552 597
553 554
553 597
553 598
554 555
554 598
554 599
555 556
555 598
555 599
555 600
556 557
556 599
556 600
556 601
557 558
557 600
557 601
557 602
558 601
558 602
558 603
559 560
559 603
560 561
560 604
561 562
561 604
562 604
563 564
563 605
563 606
564 605
564 606
564 607
565 607
565 608
565 609
566 567
566 609
566 610
567 568
567 610
567 611
568 569
568 610
568 611
569 611
569 612
570 571
570 613
570 614
570 615
571 572
571 614
571 615
572 615
572 616
573 616
573 617
573 618
574 618
574 619
574 620
575 576
575 620
575 621
576 577
576 621
576 622
577 578
577 621
577 622
578 579
578 622
579 623
580 581
580 623
580 624
581 582
581 624
581 625
582 583
582 625
582 626
583 625
583 626
583 627
584 585
584 627
584 628
584 629
585 628
585 629
585 630
586 587
586 631
586 632
586 633
587 588
587 632
587 633
587 634
588 589
588 633
588 634
588 635
589 590
589 634
589 635
589 636
590 591
590 635
590 636
590 637
591 636
591 637
592 593
592 638
592 639
592 640
593 594
593 639
593 640
593 641
594 640
594 641
594 642
595 596
595 642
595 643
596 597
596 643
596 644
597 644
597 645
598 599
598 645
598 646
599 600
599 646
599 647
600 601
600 647
600 648
601 602
601 647
601 648
602 603
602 648
602 649
603 649
603 650
604 651
604 652
604 653
605 606
605 654
606 607
606 654
606 655
607 608
607 655
607 656
608 609
608 655
608 656
608 657
609 656
609 657
609 658
610 611
610 658
610 659
610 660
611 659
611 660
611 661
612 613
612 661
613 614
614 615
614 662
615 662
616 617
616 663
617 618
617 663
617 664
618 619
618 664
619 620
619 664
619 665
620 665
621 622
621 666
621 667
622 666
622 667
622 668
623 624
623 669
623 670
623 671
624 670
624 671
624 672
625 626
625 672
625 673
625 674
626 627
626 673
626 674
626 675
627 628
627 674
627 675
627 676
628 629
628 675
628 676
629 630
629 676
629 677
630 631
630 677
630 678
631 632
631 677
631 678
631 679
632 633
632 678
632 679
632 680
633 634
633 679
633 680
633 681
634 635
634 680
634 681
635 636
635 681
636 637
636 682
637 682
637 683
638 639
638 683
638 684
638 685
639 640
639 684
639 685
639 686
640 641
640 685
640 686
640 687
641 642
641 686
641 687
641 688
642 643
642 687
642 688
642 689
643 688
643 689
643 690
644 645
644 690
644 691
644 692
645 646
645 691
645 692
645 693
646 692
646 693
646 694
647 648
647 694
647 695
647 696
648 695
648 696
649 650
649 697
649 698
650 651
650 697
650 698
650 699
651 652
651 698
651 699
651 700
652 653
652 699
652 700
653 700
654 701
655 656
655 701
655 702
655 703
656 657
656 702
656 703
656 704
657 658
657 703
657 704
657 705
658 659
658 704
658 705
658 706
659 660
659 705
659 706
660 661
660 706
660 707
661 707
661 708
662 710
662 711
662 712
663 712
663 713
663 714
664 714
664 715
664 716
665 716
665 717
666 667
666 717
666 718
666 719
667 668
667 718
667 719
668 669
668 719
668 720
669 670
669 720
669 721
670 671
670 720
670 721
670 722
671 672
671 721
671 722
672 673
672 722
672 723
673 674
673 723
673 724
674 675
674 723
674 724
674 725
675 676
675 724
675 725
675 726
676 725
676 726
676 727
677 678
677 727
678 679
679 680
680 681
680 728
681 728
681 729
682 683
682 730
682 731
683 684
683 731
683 732
684 685
684 732
685 686
685 732
685 733
686 687
686 733
686 734
687 688
687 733
687 734
687 735
688 689
688 734
688 735
688 736
689 690
689 735
689 736
689 737
690 691
690 736
690 737
690 738
691 692
691 737
691 738
691 739
692 693
692 738
692 739
692 740
693 694
693 739
693 740
693 741
694 695
694 740
694 741
695 696
695 741
695 742
696 742
696 743
697 698
697 743
697 744
697 745
698 699
698 744
698 745
698 746
699 700
699 745
699 746
699 747
700 746
700 747
700 748
701 702
701 749
701 750
701 751
702 703
702 750
702 751
702 752
703 704
703 751
703 752
703 753
704 705
704 752
704 753
704 754
705 706
705 753
705 754
705 755
706 754
706 755
706 756
707 708
707 756
707 757
707 758
708 709
708 757
708 758
708 759
709 710
709 758
709 759
709 760
710 711
710 759
710 760
710 761
711 712
711 760
711 761
711 762
712 713
712 761
712 762
712 763
713 714
713 762
713 763
713 764
714 715
714 763
714 764
714 765
715 716
715 764
715 765
716 765
716 766
717 718
717 766
717 767
717 768
718 719
718 767
718 768
719 768
719 769
720 721
720 769
720 770
721 722
721 770
721 771
722 770
722 771
723 724
723 772
723 773
724 725
724 772
724 773
725 726
725 773
725 774
726 727
726 774
726 775
727 774
727 775
727 776
728 729
728 779
728 780
729 730
729 780
729 781
730 731
730 781
730 782
731 781
731 782
731 783
732 783
732 784
732 785
733 734
733 785
733 786
733 787
734 735
734 786
734 787
734 788
735 736
735 787
735 788
735 789
736 737
736 788
736 789
736 790
737 738
737 789
737 790
738 739
738 790
738 791
739 740
739 791
739 792
740 741
740 791
740 792
741 792
741 793
742 743
742 793
742 794
742 795
743 744
743 794
743 795
743 796
744 745
744 795
744 796
744 797
745 746
745 796
745 797
745 798
746 747
746 797
746 798
746 799
747 748
747 798
747 799
747 800
748 799
748 800
749 750
749 801
750 751
750 801
751 752
751 801
751 802
752 753
752 802
752 803
753 754
753 802
753 803
753 804
754 755
754 803
754 804
754 805
755 756
755 804
755 805
755 806
756 757
756 805
756 806
756 807
757 758
757 806
757 807
758 759
758 807
758 808
759 760
759 808
760 761
760 808
760 809
761 762
761 809
761 810
762 763
762 809
762 810
763 764
763 810
764 765
764 811
765 811
765 812
766 767
766 812
766 813
766 814
767 768
767 813
767 814
767 815
768 814
768 815
768 816
769 816
769 817
769 818
770 771
770 818
770 819
770 820
771 819
771 820
772 773
772 821
772 822
773 821
773 822
773 823
774 775
774 823
774 824
775 776
775 824
775 825
776 777
776 824
776 825
776 826
777 778
777 825
777 826
777 827
778 779
778 826
778 827
778 828
779 780
779 827
779 828
779 829
780 828
780 829
780 830
781 782
781 830
781 831
781 832
782 783
782 831
782 832
782 833
783 784
783 832
783 833
783 834
784 785
784 833
784 834
784 835
785 786
785 834
785 835
785 836
786 787
786 835
786 836
786 837
787 788
787 836
787 837
788 789
788 837
788 838
789 790
789 838
789 839
790 838
790 839
790 840
791 792
791 840
791 841
791 842
792 841
792 842
792 843
793 794
793 843
793 844
793 845
794 795
794 844
794 845
795 796
795 845
795 846
796 797
796 846
796 847
797 798
797 846
797 847
797 848
798 799
798 847
798 848
798 849
799 800
799 848
799 849
799 850
800 849
800 850
801 851
801 852
801 853
802 803
802 853
802 854
802 855
803 804
803 854
803 855
803 856
804 805
804 855
804 856
804 857
805 806
805 856
805 857
805 858
806 807
806 857
806 858
806 859
807 858
807 859
807 860
808 860
808 861
809 810
809 861
809 862
809 863
810 862
810 863
810 864
811 812
811 865
811 866
811 867
812 813
812 866
812 867
812 868
813 814
813 867
813 868
814 815
814 868
814 869
815 816
815 869
815 870
816 817
816 869
816 870
816 871
817 818
817 870
817 871
817 872
818 819
818 871
818 872
819 820
819 872
819 873
820 873
820 874
821 822
821 874
821 875
822 823
822 875
822 876
823 875
823 876
823 877
824 825
824 877
824 878
824 879
825 826
825 878
825 879
825 880
826 827
826 879
826 880
826 881
827 828
827 880
827 881
828 829
828 881
828 882
829 830
829 882
829 883
830 831
830 882
830 883
830 884
831 832
831 883
831 884
831 885
832 833
832 884
832 885
833 834
833 885
833 886
834 835
834 886
834 887
835 836
835 886
835 887
836 837
836 887
836 888
837 888
837 889
838 839
838 889
838 890
838 891
839 840
839 890
839 891
839 892
840 841
840 891
840 892
840 893
841 842
841 892
841 893
841 894
842 843
842 893
842 894
842 895
843 844
843 894
843 895
843 896
844 845
844 895
844 896
844 897
845 896
845 897
846 847
846 898
846 899
847 848
847 898
847 899
848 849
848 899
848 900
849 850
849 900
849 901
850 900
850 901
851 852
851 902
851 903
852 853
852 902
852 903
852 904
853 854
853 903
853 904
853 905
854 855
854 904
854 905
854 906
855 856
855 905
855 906
855 907
856 857
856 906
856 907
856 908
857 858
857 907
857 908
857 909
858 859
858 908
858 909
858 910
859 860
859 909
859 910
859 911
860 910
860 911
860 912
861 862
861 912
861 913
861 914
862 863
862 913
862 914
862 915
863 864
863 914
863 915
863 916
864 865
864 915
864 916
864 917
865 866
865 916
865 917
865 918
866 867
866 917
866 918
866 919
867 868
867 918
867 919
867 920
868 919
868 920
868 921
869 870
869 921
869 922
869 923
870 871
870 922
870 923
870 924
871 872
871 923
871 924
871 925
872 924
872 925
872 926
873 874
873 926
873 927
873 928
874 927
874 928
874 929
875 876
875 929
875 930
875 931
876 877
876 930
876 931
876 932
877 878
877 931
877 932
877 933
878 879
878 932
878 933
878 934
879 880
879 933
879 934
879 935
880 881
880 934
880 935
881 935
881 936
882 883
882 936
882 937
883 884
883 937
883 938
884 885
884 937
884 938
884 939
885 938
885 939
885 940
886 887
886 940
886 941
886 942
887 941
887 942
887 943
888 889
888 943
888 944
889 890
889 944
889 945
890 891
890 944
890 945
890 946
891 892
891 945
891 946
891 947
892 893
892 946
892 947
892 948
893 894
893 947
893 948
893 949
894 895
894 948
894 949
895 896
895 949
895 950
896 897
896 950
896 951
897 950
897 951
897 952
898 899
898 952
898 953
899 953
900 901
900 954
900 955
901 954
901 955
902 903
902 956
902 957
903 904
903 956
903 957
903 958
904 905
904 957
904 958
904 959
905 906
905 958
905 959
905 960
906 907
906 959
906 960
906 961
907 908
907 960
907 961
908 909
908 961
908 962
909 910
909 962
909 963
910 911
910 962
910 963
911 912
911 963
911 964
912 913
912 964
913 914
913 964
913 965
914 915
914 965
914 966
915 916
915 965
915 966
915 967
916 917
916 966
916 967
916 968
917 918
917 967
917 968
918 919
918 968
918 969
919 920
919 969
919 970
920 921
920 969
920 970
920 971
921 922
921 970
921 971
921 972
922 923
922 971
922 972
922 973
923 924
923 972
923 973
923 974
924 925
924 973
924 974
924 975
925 926
925 974
925 975
925 976
926 927
926 975
926 976
926 977
927 928
927 976
927 977
927 978
928 929
928 977
928 978
928 979
929 930
929 978
929 979
929 980
930 931
930 979
930 980
930 981
931 932
931 980
931 981
932 933
932 981
933 934
933 982
934 935
934 982
934 983
935 982
935 983
935 984
936 984
936 985
936 986
937 938
937 986
937 987
937 988
938 939
938 987
938 988
939 940
939 988
939 989
940 941
940 989
940 990
941 942
941 989
941 990
941 991
942 943
942 990
942 991
942 992
943 991
943 992
943 993
944 945
944 993
945 946
946 947
947 948
947 994
948 949
948 994
948 995
949 994
949 995
950 951
950 996
951 952
951 996
952 953
952 996
953 997
954 955
954 998
954 999
954 1000
955 999
955 1000
956 957
956 1001
956 1002
957 958
957 1001
957 1002
957 1003
958 959
958 1002
958 1003
958 1004
959 960
959 1003
959 1004
959 1005
960 961
960 1004
960 1005
961 1005
962 963
962 1006
962 1007
963 1006
963 1007
963 1008
964 1008
964 1009
965 966
965 1010
965 1011
966 967
966 1010
966 1011
966 1012
967 968
967 1011
967 1012
967 1013
968 1012
968 1013
968 1014
969 970
969 1014
969 1015
970 971
970 1015
970 1016
971 972
971 1016
972 973
972 1016
972 1017
973 974
973 1017
973 1018
974 975
974 1017
974 1018
974 1019
975 976
975 1018
975 1019
975 1020
976 977
976 1019
976 1020
976 1021
977 978
977 1020
977 1021
978 979
978 1021
978 1022
979 980
979 1022
979 1023
980 981
980 1022
980 1023
981 1023
981 1024
982 983
982 1025
982 1026
983 984
983 1026
983 1027
984 985
984 1026
984 1027
984 1028
985 986
985 1027
985 1028
986 987
986 1028
986 1029
987 988
987 1029
987 1030
988 1029
988 1030
988 1031
989 990
989 1031
989 1032
990 991
990 1032
990 1033
991 992
991 1032
991 1033
991 1034
992 993
992 1033
992 1034
992 1035
993 1034
993 1035
993 1036
994 995
994 1039
994 1040
995 1040
995 1041
996 1042
996 1043
996 1044
997 998
997 1045
997 1046
997 1047
998 999
998 1046
998 1047
999 1000
999 1047
999 1048
1000 1048
1001 1002
1001 1049
1002 1003
1002 1049
1003 1004
1003 1049
1003 1050
1004 1005
1004 1050
1004 1051
1005 1050
1005 1051
1005 1052
1006 1007
1006 1053
1006 1054
1006 1055
1007 1008
1007 1054
1007 1055
1007 1056
1008 1009
1008 1055
1008 1056
1008 1057
1009 1056
1009 1057
1009 1058
1010 1011
1010 1058
1010 1059
1010 1060
1011 1012
1011 1059
1011 1060
1011 1061
1012 1013
1012 1060
1012 1061
1012 1062
1013 1014
1013 1061
1013 1062
1013 1063
1014 1015
1014 1062
1014 1063
1014 1064
1015 1063
1015 1064
1015 1065
1016 1065
1016 1066
1017 1018
1017 1066
1017 1067
1018 1019
1018 1067
1018 1068
1019 1020
1019 1067
1019 1068
1020 1021
1020 1068
1020 1069
1021 1069
1021 1070
1022 1023
1022 1070
1022 1071
1023 1071
1024 1025
1024 1072
1024 1073
1025 1072
1025 1073
1025 1074
1026 1027
1026 1074
1026 1075
1027 1028
1027 1075
1027 1076
1028 1075
1028 1076
1029 1030
1029 1077
1029 1078
1030 1031
1030 1077
1030 1078
1030 1079
1031 1078
1031 1079
1031 1080
1032 1033
1032 1080
1032 1081
1032 1082
1033 1034
1033 1081
1033 1082
1033 1083
1034 1035
1034 1082
1034 1083
1035 1036
1035 1083
1035 1084
1036 1037
1036 1084
1036 1085
1037 1038
1037 1084
1037 1085
1037 1086
1038 1039
1038 1085
1038 1086
1038 1087
1039 1086
1039 1087
1039 1088
1040 1041
1040 1088
1040 1089
1040 1090
1041 1042
1041 1089
1041 1090
1041 1091
1042 1043
1042 1090
1042 1091
1042 1092
1043 1044
1043 1091
1043 1092
1043 1093
1044 1045
1044 1092
1044 1093
1044 1094
1045 1046
1045 1093
1045 1094
1045 1095
1046 1047
1046 1094
1046 1095
1046 1096
1047 1095
1047 1096
1049 1097
1049 1098
1049 1099
1050 1051
1050 1099
1050 1100
1050 1101
1051 1052
1051 1100
1051 1101
1051 1102
1052 1053
1052 1101
1052 1102
1053 1054
1053 1102
1054 1055
1054 1103
1055 1056
1055 1103
1055 1104
1056 1057
1056 1103
1056 1104
1056 1105
1057 1058
1057 1104
1057 1105
1058 1059
1058 1105
1058 1106
1059 1060
1059 1106
1059 1107
1060 1061
1060 1106
1060 1107
1060 1108
1061 1062
1061 1107
1061 1108
1062 1063
1062 1108
1062 1109
1063 1064
1063 1109
1064 1065
1064 1109
1064 1110
1065 1110
1065 1111
1066 1111
1066 1112
1066 1113
1067 1068
1067 1113
1067 1114
1067 1115
1068 1114
1068 1115
1068 1116
1069 1070
1069 1116
1069 1117
1069 1118
1070 1071
1070 1117
1070 1118
1070 1119
1071 1118
1071 1119
1071 1120
1072 1073
1072 1121
1073 1074
1073 1121
1073 1122
1074 1121
1074 1122
1074 1123
1075 1076
1075 1123
1075 1124
1075 1125
1076 1124
1076 1125
1076 1126
1077 1078
1077 1126
1077 1127
1077 1128
1078 1079
1078 1127
1078 1128
1079 1080
1079 1128
1080 1081
1080 1129
1081 1082
1081 1129
1081 1130
1082 1083
1082 1129
1082 1130
1082 1131
1083 1130
1083 1131
1083 1132
1084 1085
1084 1132
1084 1133
1084 1134
1085 1086
1085 1133
1085 1134
1085 1135
1086 1087
1086 1134
1086 1135
1086 1136
1087 1088
1087 1135
1087 1136
1087 1137
1088 1089
1088 1136
1088 1137
1088 1138
1089 1090
1089 1137
1089 1138
1089 1139
1090 1091
1090 1138
1090 1139
1090 1140
1091 1092
1091 1139
1091 1140
1091 1141
1092 1093
1092 1140
1092 1141
1092 1142
1093 1094
1093 1141
1093 1142
1093 1143
1094 1095
1094 1142
1094 1143
1094 1144
1095 1096
1095 1143
1095 1144
1096 1144
1097 1098
1097 1146
1097 1147
1098 1099
1098 1146
1098 1147
1098 1148
1099 1100
1099 1147
1099 1148
1099 1149
1100 1101
1100 1148
1100 1149
1100 1150
1101 1102
1101 1149
1101 1150
1101 1151
1102 1150
1102 1151
1102 1152
1103 1104
1103 1153
1103 1154
1103 1155
1104 1105
1104 1154
1104 1155
1104 1156
1105 1155
1105 1156
1106 1107
1106 1157
1106 1158
1107 1108
1107 1157
1107 1158
1108 1158
1108 1159
1109 1159
1109 1160
1110 1111
1110 1160
1110 1161
1110 1162
1111 1112
1111 1161
1111 1162
1111 1163
1112 1113
1112 1162
1112 1163
1113 1114
1113 1163
1113 1164
1114 1115
1114 1164
1115 1116
1115 1164
1116 1117
1116 1165
1117 1118
1117 1165
1118 1119
1118 1165
1118 1166
1119 1120
1119 1166
1119 1167
1120 1166
1120 1167
1120 1168
1121 1122
1121 1169
1121 1170
1122 1123
1122 1169
1122 1170
1122 1171
1123 1124
1123 1170
1123 1171
1123 1172
1124 1125
1124 1171
1124 1172
1124 1173
1125 1126
1125 1172
1125 1173
1125 1174
1126 1127
1126 1173
1126 1174
1126 1175
1127 1128
1127 1174
1127 1175
1127 1176
1128 1175
1128 1176
1128 1177
1129 1130
1129 1178
1129 1179
1129 1180
1130 1131
1130 1179
1130 1180
1130 1181
1131 1132
1131 1180
1131 1181
1131 1182
1132 1133
1132 1181
1132 1182
1132 1183
1133 1134
1133 1182
1133 1183
1133 1184
1134 1135
1134 1183
1134 1184
1134 1185
1135 1136
1135 1184
1135 1185
1135 1186
1136 1137
1136 1185
1136 1186
1136 1187
1137 1138
1137 1186
1137 1187
1137 1188
1138 1139
1138 1187
1138 1188
1138 1189
1139 1140
1139 1188
1139 1189
1139 1190
1140 1141
1140 1189
1140 1190
1140 1191
1141 1142
1141 1190
1141 1191
1141 1192
1142 1143
1142 1191
1142 1192
1143 1144
1143 1192
1143 1193
1144 1193
1145 1194
1145 1195
1146 1147
1146 1196
1146 1197
1147 1148
1147 1196
1147 1197
1147 1198
1148 1149
1148 1197
1148 1198
1149 1150
1149 1198
1149 1199
1150 1151
1150 1199
1150 1200
1151 1152
1151 1199
1151 1200
1151 1201
1152 1153
1152 1200
1152 1201
1152 1202
1153 1154
1153 1201
1153 1202
1154 1155
1154 1202
1154 1203
1155 1156
1155 1203
1155 1204
1156 1203
1156 1204
1157 1158
1157 1205
1158 1205
1158 1206
1159 1206
1159 1207
1159 1208
1160 1161
1160 1208
1160 1209
1160 1210
1161 1162
1161 1209
1161 1210
1162 1163
1162 1210
1162 1211
1163 1211
1164 1212
1164 1213
1165 1214
1165 1215
1166 1167
1166 1215
1166 1216
1167 1168
1167 1216
1167 1217
1168 1217
1168 1218
1169 1170
1169 1218
1169 1219
1170 1171
1170 1219
1170 1220
1171 1172
1171 1219
1171 1220
1171 1221
1172 1173
1172 1220
1172 1221
1172 1222
1173 1174
1173 1221
1173 1222
1173 1223
1174 1175
1174 1222
1174 1223
1175 1176
1175 1223
1175 1224
1176 1177
1176 1224
1177 1178
1177 1224
1178 1179
1178 1225
1179 1180
1179 1225
1179 1226
1180 1181
1180 1225
1180 1226
1181 1182
1181 1226
1182 1183
1182 1227
1183 1184
1183 1227
1184 1185
1184 1227
1184 1228
1185 1186
1185 1228
1185 1229
1186 1187
1186 1228
1186 1229
1187 1188
1187 1229
1187 1230
1188 1189
1188 1230
1188 1231
1189 1190
1189 1230
1189 1231
1189 1232
1190 1191
1190 1231
1190 1232
1190 1233
1191 1192
1191 1232
1191 1233
1191 1234
1192 1233
1192 1234
1192 1235
1193 1235
1193 1236
1194 1195
1194 1237
1194 1238
1195 1237
1195 1238
1196 1197
1196 1239
1196 1240
1197 1198
1197 1239
1197 1240
1197 1241
1198 1240
1198 1241
1199 1200
1199 1242
1199 1243
1200 1201
1200 1242
1200 1243
1201 1202
1201 1243
1202 1244
1203 1204
1203 1244
1203 1245
1204 1245
1204 1246
1205 1206
1205 1247
1205 1248
1206 1207
1206 1247
1206 1248
1206 1249
1207 1208
1207 1248
1207 1249
1207 1250
1208 1209
1208 1249
1208 1250
1208 1251
1209 1210
1209 1250
1209 1251
1209 1252
1210 1251
1210 1252
1211 1253
1211 1254
1212 1213
1212 1254
1212 1255
1213 1255
1213 1256
1214 1215
1214 1256
1214 1257
1214 1258
1215 1216
1215 1257
1215 1258
1215 1259
1216 1258
1216 1259
1216 1260
1217 1218
1217 1260
1217 1261
1218 1261
1218 1262
1219 1220
1219 1262
1219 1263
1219 1264
1220 1221
1220 1263
1220 1264
1220 1265
1221 1222
1221 1264
1221 1265
1222 1223
1222 1265
1222 1266
1223 1266
1223 1267
1224 1267
1224 1268
1224 1269
1225 1226
1225 1270
1225 1271
1225 1272
1226 1271
1226 1272
1227 1273
1227 1274
1228 1229
1228 1274
1228 1275
1228 1276
1229 1275
1229 1276
1230 1231
1231 1232
1231 1277
1232 1233
1232 1277
1232 1278
1233 1234
1233 1277
1233 1278
1233 1279
1234 1235
1234 1278
1234 1279
1235 1236
1235 1279
1235 1280
1236 1280
1236 1281
1237 1238
1237 1281
1239 1240
1239 1282
1239 1283
1240 1241
1240 1282
1240 1283
1240 1284
1241 1283
1241 1284
1242 1243
1242 1285
1242 1286
1243 1285
1243 1286
1243 1287
1244 1288
1244 1289
1245 1246
1245 1289
1245 1290
1245 1291
1246 1290
1246 1291
1247 1248
1247 1292
1247 1293
1248 1249
1248 1292
1248 1293
1248 1294
1249 1250
1249 1293
1249 1294
1250 1251
1250 1294
1250 1295
1251 1252
1251 1295
1251 1296
1252 1295
1252 1296
1252 1297
1253 1254
1253 1297
1253 1298
1253 1299
1254 1298
1254 1299
1254 1300
1255 1256
1255 1300
1255 1301
1256 1257
1256 1301
1257 1258
1257 1302
1258 1259
1258 1302
1258 1303
1259 1260
1259 1302
1259 1303
1259 1304
1260 1303
1260 1304
1260 1305
1261 1262
1261 1305
1261 1306
1262 1263
1262 1306
1262 1307
1263 1264
1263 1307
1263 1308
1264 1265
1264 1307
1264 1308
1264 1309
1265 1308
1265 1309
1265 1310
1266 1267
1266 1310
1266 1311
1266 1312
1267 1268
1267 1311
1267 1312
1267 1313
1268 1269
1268 1312
1268 1313
1268 1314
1269 1270
1269 1313
1269 1314
1269 1315
1270 1271
1270 1314
1270 1315
1271 1272
1271 1315
1271 1316
1272 1316
1272 1317
1273 1317
1273 1318
1273 1319
1274 1275
1274 1319
1274 1320
1275 1276
1275 1320
1275 1321
1276 1320
1276 1321
1276 1322
1277 1278
1277 1323
1277 1324
1278 1279
1278 1324
1278 1325
1279 1325
1279 1326
1280 1281
1280 1326
1280 1327
1280 1328
1281 1327
1281 1328
1281 1329
1282 1283
1282 1331
1283 1284
1283 1331
1283 1332
1284 1331
1284 1332
1284 1333
1285 1286
1285 1333
1285 1334
1285 1335
1286 1287
1286 1334
1286 1335
1287 1288
1287 1335
1287 1336
1288 1336
1289 1290
1289 1337
1289 1338
1290 1291
1290 1337
1290 1338
1290 1339
1291 1338
1291 1339
1292 1293
1292 1340
1292 1341
1293 1294
1293 1340
1293 1341
1293 1342
1294 1341
1294 1342
1294 1343
1295 1296
1295 1343
1295 1344
1295 1345
1296 1297
1296 1344
1296 1345
1296 1346
1297 1298
1297 1345
1297 1346
1297 1347
1298 1299
1298 1346
1298 1347
1298 1348
1299 1300
1299 1347
1299 1348
1300 1301
1300 1348
1300 1349
1301 1349
1301 1350
1302 1303
1302 1351
1302 1352
1302 1353
1303 1304
1303 1352
1303 1353
1303 1354
1304 1305
1304 1353
1304 1354
1304 1355
1305 1306
1305 1354
1305 1355
1305 1356
1306 1355
1306 1356
1306 1357
1307 1308
1307 1357
1307 1358
1308 1309
1308 1358
1308 1359
1309 1310
1309 1358
1309 1359
1309 1360
1310 1311
1310 1359
1310 1360
1310 1361
1311 1312
1311 1360
1311 1361
1311 1362
1312 1313
1312 1361
1312 1362
1312 1363
1313 1314
1313 1362
1313 1363
1313 1364
1314 1315
1314 1363
1314 1364
1314 1365
1315 1364
1315 1365
1315 1366
1316 1317
1316 1366
1316 1367
1316 1368
1317 1318
1317 1367
1317 1368
1317 1369
1318 1319
1318 1368
1318 1369
1318 1370
1319 1369
1319 1370
1319 1371
1320 1321
1320 1371
1320 1372
1320 1373
1321 1322
1321 1372
1321 1373
1321 1374
1322 1373
1322 1374
1322 1375
1323 1324
1323 1375
1323 1376
1323 1377
1324 1376
1324 1377
1324 1378
1325 1326
1325 1378
1325 1379
1325 1380
1326 1327
1326 1379
1326 1380
1326 1381
1327 1328
1327 1380
1327 1381
1327 1382
1328 1329
1328 1381
1328 1382
1328 1383
1329 1330
1329 1382
1329 1383
1329 1384
1330 1383
1330 1384
1331 1332
1331 1385
1331 1386
1331 1387
1332 1333
1332 1386
1332 1387
1332 1388
1333 1334
1333 1387
1333 1388
1333 1389
1334 1335
1334 1388
1334 1389
1335 1389
1335 1390
1336 1390
1337 1338
1337 1391
1337 1392
1338 1339
1338 1391
1338 1392
1338 1393
1339 1392
1339 1393
1339 1394
1340 1341
1340 1394
1340 1395
1340 1396
1341 1342
1341 1395
1341 1396
1342 1343
1342 1396
1342 1397
1343 1344
1343 1397
1343 1398
1344 1345
1344 1397
1344 1398
1344 1399
1345 1346
1345 1398
1345 1399
1345 1400
1346 1347
1346 1399
1346 1400
1346 1401
1347 1348
1347 1400
1347 1401
1347 1402
1348 1401
1348 1402
1349 1350
1349 1403
1349 1404
1350 1351
1350 1403
1350 1404
1350 1405
1351 1352
1351 1404
1351 1405
1352 1353
1352 1405
1352 1406
1353 1354
1353 1406
1353 1407
1354 1355
1354 1406
1354 1407
1354 1408
1355 1356
1355 1407
1355 1408
1355 1409
1356 1357
1356 1408
1356 1409
1356 1410
1357 1409
1357 1410
1357 1411
1358 1359
1358 1411
1358 1412
1358 1413
1359 1360
1359 1412
1359 1413
1359 1414
1360 1361
1360 1413
1360 1414
1360 1415
1361 1362
1361 1414
1361 1415
1361 1416
1362 1363
1362 1415
1362 1416
1362 1417
1363 1364
1363 1416
1363 1417
1363 1418
1364 1365
1364 1417
1364 1418
1364 1419
1365 1366
1365 1418
1365 1419
1366 1367
1366 1419
1366 1420
1367 1368
1367 1420
1367 1421
1368 1369
1368 1420
1368 1421
1368 1422
1369 1370
1369 1421
1369 1422
1370 1371
1370 1422
1370 1423
1371 1372
1371 1423
1371 1424
1372 1373
1372 1423
1372 1424
1372 1425
1373 1374
1373 1424
1373 1425
1373 1426
1374 1375
1374 1425
1374 1426
1374 1427
1375 1376
1375 1426
1375 1427
1376 1377
1376 1427
1376 1428
1377 1378
1377 1428
1377 1429
1378 1379
1378 1428
1378 1429
1378 1430
1379 1380
1379 1429
1379 1430
1380 1381
1380 1430
1381 1382
1381 1431
1382 1383
1382 1431
1383 1384
1383 1431
1383 1432
1384 1432
1385 1386
1385 1433
1386 1387
1386 1433
1386 1434
1387 1388
1387 1433
1387 1434
1387 1435
1388 1389
1388 1434
1388 1435
1389 1435
1389 1436
1390 1436
1390 1437
1391 1392
1391 1438
1391 1439
1391 1440
1392 1393
1392 1439
1392 1440
1393 1394
1393 1440
1393 1441
1394 1395
1394 1441
1394 1442
1395 1396
1395 1441
1395 1442
1395 1443
1396 1442
1396 1443
1396 1444
1397 1398
1397 1444
1397 1445
1398 1399
1398 1445
1399 1400
1399 1445
1399 1446
1400 1401
1400 1446
1400 1447
1401 1402
1401 1446
1401 1447
1401 1448
1402 1447
1402 1448
1402 1449
1403 1404
1403 1449
1403 1450
1403 1451
1404 1405
1404 1450
1404 1451
1404 1452
1405 1451
1405 1452
1405 1453
1406 1407
1406 1453
1406 1454
1406 1455
1407 1408
1407 1454
1407 1455
1407 1456
1408 1409
1408 1455
1408 1456
1408 1457
1409 1410
1409 1456
1409 1457
1409 1458
1410 1411
1410 1457
1410 1458
1410 1459
1411 1412
1411 1458
1411 1459
1411 1460
1412 1413
1412 1459
1412 1460
1412 1461
1413 1414
1413 1460
1413 1461
1413 1462
1414 1415
1414 1461
1414 1462
1414 1463
1415 1416
1415 1462
1415 1463
1415 1464
1416 1417
1416 1463
1416 1464
1417 1418
1417 1464
1417 1465
1418 1419
1418 1465
1418 1466
1419 1465
1419 1466
1419 1467
1420 1421
1420 1467
1420 1468
1420 1469
1421 1422
1421 1468
1421 1469
1421 1470
1422 1469
1422 1470
1422 1471
1423 1424
1423 1471
1423 1472
1423 1473
1424 1425
1424 1472
1424 1473
1424 1474
1425 1426
1425 1473
1425 1474
1425 1475
1426 1427
1426 1474
1426 1475
1426 1476
1427 1475
1427 1476
1427 1477
1428 1429
1428 1477
1428 1478
1429 1430
1429 1478
1429 1479
1430 1479
1430 1480
1431 1481
1431 1482
1432 1482
1433 1434
1433 1483
1433 1484
1434 1435
1434 1484
1434 1485
1435 1484
1435 1485
1435 1486
1436 1437
1436 1486
1436 1487
1436 1488
1437 1487
1437 1488
1438 1439
1438 1489
1438 1490
1439 1440
1439 1489
1439 1490
1439 1491
1440 1490
1440 1491
1440 1492
1441 1442
1441 1492
1441 1493
1441 1494
1442 1443
1442 1493
1442 1494
1442 1495
1443 1444
1443 1494
1443 1495
1443 1496
1444 1495
1444 1496
1444 1497
1445 1497
1445 1498
1445 1499
1446 1447
1446 1499
1446 1500
1447 1448
1447 1500
1447 1501
1448 1449
1448 1500
1448 1501
1448 1502
1449 1450
1449 1501
1449 1502
1449 1503
1450 1451
1450 1502
1450 1503
1450 1504
1451 1452
1451 1503
1451 1504
1451 1505
1452 1453
1452 1504
1452 1505
1453 1454
1453 1505
1453 1506
1454 1455
1454 1506
1455 1456
1455 1506
1455 1507
1456 1457
1456 1507
1457 1458
1457 1507
1458 1459
1458 1508
1459 1460
1459 1508
1459 1509
1460 1461
1460 1508
1460 1509
1460 1510
1461 1462
1461 1509
1461 1510
1461 1511
1462 1463
1462 1510
1462 1511
1462 1512
1463 1464
1463 1511
1463 1512
1463 1513
1464 1512
1464 1513
1464 1514
1465 1466
1465 1514
1465 1515
1465 1516
1466 1467
1466 1515
1466 1516
1467 1468
1467 1516
1468 1469
1468 1517
1469 1470
1469 1517
1470 1471
1470 1517
1471 1472
1472 1473
1472 1518
1473 1474
1473 1518
1473 1519
1474 1475
1474 1518
1474 1519
1474 1520
1475 1476
1475 1519
1475 1520
1475 1521
1476 1477
1476 1520
1476 1521
1477 1478
1477 1521
1477 1522
1478 1522
1478 1523
1479 1480
1479 1523
1479 1524
1479 1525
1480 1481
1480 1524
1480 1525
1480 1526
1481 1525
1481 1526
1481 1527
1482 1527
1482 1528
1483 1529
1483 1530
1484 1485
1484 1530
1484 1531
1484 1532
1485 1486
1485 1531
1485 1532
1486 1487
1486 1532
1487 1488
1487 1533
1488 1533
1488 1534
1489 1490
1489 1534
1489 1535
1490 1491
1490 1535
1490 1536
1491 1492
1491 1535
1491 1536
1491 1537
1492 1493
1492 1536
1492 1537
1492 1538
1493 1494
1493 1537
1493 1538
1493 1539
1494 1495
1494 1538
1494 1539
1494 1540
1495 1496
1495 1539
1495 1540
1495 1541
1496 1497
1496 1540
1496 1541
1496 1542
1497 1498
1497 1541
1497 1542
1498 1499
1498 1542
1498 1543
1499 1543
1499 1544
1500 1501
1500 1544
1500 1545
1501 1502
1501 1545
1501 1546
1502 1503
1502 1545
1502 1546
1502 1547
1503 1504
1503 1546
1503 1547
1503 1548
1504 1505
1504 1547
1504 1548
1504 1549
1505 1548
1505 1549
1505 1550
1506 1550
1506 1551
1506 1552
1507 1552
1507 1553
1508 1509
1508 1554
1508 1555
1508 1556
1509 1510
1509 1555
1509 1556
1509 1557
1510 1511
1510 1556
1510 1557
1510 1558
1511 1512
1511 1557
1511 1558
1511 1559
1512 1513
1512 1558
1512 1559
1512 1560
1513 1514
1513 1559
1513 1560
1513 1561
1514 1515
1514 1560
1514 1561
1514 1562
1515 1516
1515 1561
1515 1562
1516 1562
1516 1563
1517 1564
1517 1565
1517 1566
1518 1519
1518 1568
1518 1569
1518 1570
1519 1520
1519 1569
1519 1570
1519 1571
1520 1521
1520 1570
1520 1571
1521 1571
1521 1572
1522 1523
1522 1572
1522 1573
1522 1574
1523 1524
1523 1573
1523 1574
1524 1525
1524 1574
1525 1526
1525 1575
1526 1527
1526 1575
1526 1576
1527 1575
1527 1576
1527 1577
1528 1577
1528 1578
1529 1530
1529 1579
1529 1580
1530 1531
1530 1579
1530 1580
1530 1581
1531 1532
1531 1580
1531 1581
1532 1581
1533 1534
1533 1582
1533 1583
1534 1582
1534 1583
1534 1584
1535 1536
1535 1584
1535 1585
1536 1537
1536 1585
1537 1538
1537 1585
1538 1539
1538 1586
1539 1540
1539 1586
1539 1587
1540 1541
1540 1586
1540 1587
1540 1588
1541 1542
1541 1587
1541 1588
1541 1589
1542 1588
1542 1589
1542 1590
1543 1544
1543 1590
1544 1591
1545 1546
1545 1591
1545 1592
1545 1593
1546 1547
1546 1592
1546 1593
1547 1548
1547 1593
1547 1594
1548 1549
1548 1594
1548 1595
1549 1550
1549 1594
1549 1595
1549 1596
1550 1551
1550 1595
1550 1596
1550 1597
1551 1552
1551 1596
1551 1597
1551 1598
1552 1553
1552 1597
1552 1598
1553 1598
1554 1555
1554 1599
1554 1600
1555 1556
1555 1599
1555 1600
1555 1601
1556 1557
1556 1600
1556 1601
1556 1602
1557 1558
1557 1601
1557 1602
1557 1603
1558 1559
1558 1602
1558 1603
1558 1604
1559 1560
1559 1603
1559 1604
1559 1605
1560 1561
1560 1604
1560 1605
1560 1606
1561 1562
1561 1605
1561 1606
1561 1607
1562 1606
1562 1607
1562 1608
1563 1564
1563 1608
1563 1609
1564 1565
1564 1609
1564 1610
1565 1566
1565 1609
1565 1610
1565 1611
1566 1567
1566 1610
1566 1611
1566 1612
1567 1568
1567 1611
1567 1612
1568 1569
1568 1612
1568 1613
1569 1570
1569 1613
1569 1614
1570 1571
1570 1613
1570 1614
1570 1615
1571 1614
1571 1615
1572 1573
1572 1616
1572 1617
1573 1574
1573 1616
1573 1617
1573 1618
1574 1617
1574 1618
1574 1619
1575 1576
1575 1620
1575 1621
1575 1622
1576 1577
1576 1621
1576 1622
1576 1623
1577 1578
1577 1622
1577 1623
1577 1624
1578 1623
1578 1624
1579 1580
1579 1625
1579 1626
1580 1581
1580 1625
1580 1626
1580 1627
1581 1626
1581 1627
1581 1628
1582 1583
1582 1630
1582 1631
1583 1584
1583 1630
1583 1631
1583 1632
1584 1631
1584 1632
1585 1633
1586 1587
1586 1634
1586 1635
1587 1588
1587 1635
1587 1636
1588 1589
1588 1635
1588 1636
1588 1637
1589 1590
1589 1636
1589 1637
1589 1638
1590 1637
1590 1638
1591 1592
1591 1639
1591 1640
1591 1641
1592 1593
1592 1640
1592 1641
1592 1642
1593 1641
1593 1642
1593 1643
1594 1595
1594 1643
1594 1644
1595 1596
1595 1644
1595 1645
1596 1597
1596 1644
1596 1645
1596 1646
1597 1598
1597 1645
1597 1646
1597 1647
1598 1646
1598 1647
1598 1648
1599 1600
1599 1649
1599 1650
1599 1651
1600 1601
1600 1650
1600 1651
1600 1652
1601 1602
1601 1651
1601 1652
1601 1653
1602 1603
1602 1652
1602 1653
1603 1604
1603 1653
1604 1605
1604 1654
1605 1606
1605 1654
1605 1655
1606 1607
1606 1654
1606 1655
1606 1656
1607 1608
1607 1655
1607 1656
1607 1657
1608 1656
1608 1657
1608 1658
1609 1610
1609 1658
1609 1659
1609 1660
1610 1611
1610 1659
1610 1660
1610 1661
1611 1612
1611 1660
1611 1661
1611 1662
1612 1661
1612 1662
1612 1663
1613 1614
1613 1663
1613 1664
1614 1615
1614 1664
1614 1665
1615 1665
1615 1666
1616 1617
1616 1666
1616 1667
1616 1668
1617 1618
1617 1667
1617 1668
1617 1669
1618 1619
1618 1668
1618 1669
1618 1670
1619 1620
1619 1669
1619 1670
1620 1621
1620 1670
1620 1671
1621 1622
1621 1671
1622 1623
1622 1671
1622 1672
1623 1624
1623 1672
1623 1673
1624 1672
1624 1673
1625 1626
1625 1674
1625 1675
1626 1627
1626 1674
1626 1675
1626 1676
1627 1628
1627 1675
1627 1676
1627 1677
1628 1629
1628 1676
1628 1677
1628 1678
1629 1677
1629 1678
1630 1631
1630 1679
1630 1680
1631 1632
1631 1679
1631 1680
1631 1681
1632 1680
1632 1681
1632 1682
1633 1634
1633 1683
1633 1684
1633 1685
1634 1684
1634 1685
1634 1686
1635 1636
1635 1686
1635 1687
1635 1688
1636 1637
1636 1687
1636 1688
1636 1689
1637 1638
1637 1688
1637 1689
1637 1690
1638 1689
1638 1690
1638 1691
1639 1640
1639 1691
1639 1692
1639 1693
1640 1641
1640 1692
1640 1693
1640 1694
1641 1642
1641 1693
1641 1694
1642 1643
1642 1694
1642 1695
1643 1695
1643 1696
1644 1645
1644 1696
1644 1697
1644 1698
1645 1646
1645 1697
1645 1698
1645 1699
1646 1647
1646 1698
1646 1699
1646 1700
1647 1648
1647 1699
1647 1700
1647 1701
1648 1649
1648 1700
1648 1701
1648 1702
1649 1650
1649 1701
1649 1702
1649 1703
1650 1651
1650 1702
1650 1703
1650 1704
1651 1652
1651 1703
1651 1704
1651 1705
1652 1653
1652 1704
1652 1705
1653 1705
1653 1706
1654 1655
1654 1707
1654 1708
1655 1656
1655 1708
1655 1709
1656 1657
1656 1708
1656 1709
1656 1710
1657 1658
1657 1709
1657 1710
1657 1711
1658 1659
1658 1710
1658 1711
1658 1712
1659 1660
1659 1711
1659 1712
1659 1713
1660 1661
1660 1712
1660 1713
1660 1714
1661 1662
1661 1713
1661 1714
1661 1715
1662 1663
1662 1714
1662 1715
1662 1716
1663 1664
1663 1715
1663 1716
1663 1717
1664 1716
1664 1717
1665 1666
1665 1718
1665 1719
1666 1667
1666 1718
1666 1719
1666 1720
1667 1668
1667 1719
1667 1720
1667 1721
1668 1669
1668 1720
1668 1721
1668 1722
1669 1670
1669 1721
1669 1722
1669 1723
1670 1722
1670 1723
1671 1724
1671 1725
1672 1673
1672 1725
1672 1726
1672 1727
1673 1726
1673 1727
1674 1675
1674 1728
1675 1676
1675 1728
1676 1677
1676 1729
1677 1678
1677 1729
1677 1730
1678 1729
1678 1730
1678 1731
1679 1680
1679 1731
1679 1732
1679 1733
1680 1681
1680 1732
1680 1733
1681 1682
1681 1733
1681 1734
1682 1683
1682 1734
1682 1735
1683 1684
1683 1734
1683 1735
1684 1685
1684 1735
1684 1736
1685 1686
1685 1736
1686 1687
1686 1736
1687 1688
1688 1689
1688 1737
1689 1690
1689 1737
1689 1738
1690 1691
1690 1737
1690 1738
1690 1739
1691 1692
1691 1738
1691 1739
1691 1740
1692 1693
1692 1739
1692 1740
1693 1694
1693 1740
1693 1741
1694 1741
1694 1742
1695 1696
1695 1742
1695 1743
1695 1744
1696 1697
1696 1743
1696 1744
1696 1745
1697 1698
1697 1744
1697 1745
1697 1746
1698 1699
1698 1745
1698 1746
1698 1747
1699 1700
1699 1746
1699 1747
1699 1748
1700 1701
1700 1747
1700 1748
1700 1749
1701 1702
1701 1748
1701 1749
1701 1750
1702 1703
1702 1749
1702 1750
1703 1704
1703 1750
1703 1751
1704 1705
1704 1751
1704 1752
1705 1751
1705 1752
1705 1753
1706 1707
1706 1753
1706 1754
1707 1754
1708 1709
1708 1755
1708 1756
1709 1710
1709 1755
1709 1756
1709 1757
1710 1711
1710 1756
1710 1757
1711 1712
1711 1757
1711 1758
1712 1713
1712 1758
1712 1759
1713 1714
1713 1758
1713 1759
1713 1760
1714 1715
1714 1759
1714 1760
1714 1761
1715 1716
1715 1760
1715 1761
1715 1762
1716 1717
1716 1761
1716 1762
1717 1762
1717 1763
1718 1719
1718 1763
1718 1764
1719 1720
1719 1764
1719 1765
1720 1721
1720 1764
1720 1765
1721 1722
1721 1765
1721 1766
1722 1723
1722 1766
1722 1767
1723 1766
1723 1767
1723 1768
1724 1725
1724 1768
1724 1769
1725 1726
1725 1769
1725 1770
1726 1727
1726 1770
1726 1771
1727 1770
1727 1771
1728 1772
1728 1773
1729 1730
1729 1774
1729 1775
1730 1731
1730 1775
1730 1776
1731 1732
1731 1776
1731 1777
1732 1733
1732 1776
1732 1777
1732 1778
1733 1777
1733 1778
1733 1779
1734 1735
1734 1779
1734 1780
1734 1781
1735 1780
1735 1781
1736 1782
1737 1738
1737 1783
1737 1784
1738 1739
1738 1784
1738 1785
1739 1740
1739 1785
1739 1786
1740 1785
1740 1786
1740 1787
1741 1742
1741 1787
1741 1788
1741 1789
1742 1743
1742 1788
1742 1789
1743 1744
1743 1789
1743 1790
1744 1745
1744 1790
1744 1791
1745 1746
1745 1790
1745 1791
1745 1792
1746 1747
1746 1791
1746 1792
1746 1793
1747 1748
1747 1792
1747 1793
1747 1794
1748 1749
1748 1793
1748 1794
1748 1795
1749 1750
1749 1794
1749 1795
1749 1796
1750 1795
1750 1796
1751 1752
1751 1797
1752 1753
1752 1797
1752 1798
1753 1754
1753 1798
1754 1798
1754 1799
1755 1756
1755 1800
1755 1801
1756 1757
1756 1800
1756 1801
1757 1801
1757 1802
1758 1759
1758 1802
1758 1803
1758 1804
1759 1760
1759 1803
1759 1804
1759 1805
1760 1761
1760 1804
1760 1805
1760 1806
1761 1762
1761 1805
1761 1806
1761 1807
1762 1806
1762 1807
1762 1808
1763 1808
1763 1809
1763 1810
1764 1765
1764 1810
1764 1811
1764 1812
1765 1811
1765 1812
1765 1813
1766 1767
1766 1813
1766 1814
1766 1815
1767 1768
1767 1814
1767 1815
1767 1816
1768 1769
1768 1815
1768 1816
1769 1816
1769 1817
1770 1771
1770 1817
1770 1818
1771 1818
1772 1773
1772 1819
1773 1774
1773 1819
1773 1820
1774 1775
1774 1820
1774 1821
1775 1820
1775 1821
1775 1822
1776 1777
1776 1822
1776 1823
1776 1824
1777 1778
1777 1823
1777 1824
1777 1825
1778 1779
1778 1824
1778 1825
1778 1826
1779 1780
1779 1825
1779 1826
1780 1781
1780 1826
1780 1827
1781 1827
1781 1828
1782 1829
1782 1830
1783 1784
1783 1831
1783 1832
1784 1831
1784 1832
1784 1833
1785 1786
1785 1833
1785 1834
1785 1835
1786 1787
1786 1834
1786 1835
1786 1836
1787 1788
1787 1835
1787 1836
1788 1789
1788 1836
1788 1837
1789 1837
1789 1838
1790 1791
1790 1838
1790 1839
1790 1840
1791 1792
1791 1839
1791 1840
1791 1841
1792 1793
1792 1840
1792 1841
1792 1842
1793 1794
1793 1841
1793 1842
1793 1843
1794 1795
1794 1842
1794 1843
1794 1844
1795 1796
1795 1843
1795 1844
1795 1845
1796 1844
1796 1845
1796 1846
1797 1846
1797 1847
1797 1848
1798 1848
1798 1849
1799 1849
1799 1850
1799 1851
1800 1801
1800 1851
1800 1852
1800 1853
1801 1852
1801 1853
1801 1854
1802 1803
1802 1854
1802 1855
1802 1856
1803 1804
1803 1855
1803 1856
1803 1857
1804 1805
1804 1856
1804 1857
1804 1858
1805 1806
1805 1857
1805 1858
1806 1807
1806 1858
1807 1808
1807 1859
1808 1809
1808 1859
1808 1860
1809 1810
1809 1859
1809 1860
1809 1861
1810 1811
1810 1860
1810 1861
1810 1862
1811 1812
1811 1861
1811 1862
1811 1863
1812 1813
1812 1862
1812 1863
1812 1864
1813 1814
1813 1863
1813 1864
1813 1865
1814 1815
1814 1864
1814 1865
1814 1866
1815 1816
1815 1865
1815 1866
1815 1867
1816 1866
1816 1867
1816 1868
1817 1868
1817 1869
1817 1870
1818 1870
1818 1871
1819 1872
1819 1873
1820 1821
1820 1873
1820 1874
1820 1875
1821 1822
1821 1874
1821 1875
1821 1876
1822 1823
1822 1875
1822 1876
1822 1877
1823 1824
1823 1876
1823 1877
1823 1878
1824 1825
1824 1877
1824 1878
1824 1879
1825 1826
1825 1878
1825 1879
1825 1880
1826 1879
1826 1880
1826 1881
1827 1828
1827 1881
1827 1882
1827 1883
1828 1829
1828 1882
1828 1883
1829 1830
1829 1883
1829 1884
1830 1884
1830 1885
1831 1832
1831 1885
1831 1886
1832 1833
1832 1886
1833 1834
1834 1835
1834 1887
1835 1836
1835 1887
1835 1888
1836 1887
1836 1888
1836 1889
1837 1838
1837 1889
1837 1890
1837 1891
1838 1839
1838 1890
1838 1891
1838 1892
1839 1840
1839 1891
1839 1892
1839 1893
1840 1841
1840 1892
1840 1893
1840 1894
1841 1842
1841 1893
1841 1894
1841 1895
1842 1843
1842 1894
1842 1895
1842 1896
1843 1844
1843 1895
1843 1896
1843 1897
1844 1845
1844 1896
1844 1897
1844 1898
1845 1846
1845 1897
1845 1898
1845 1899
1846 1847
1846 1898
1846 1899
1846 1900
1847 1848
1847 1899
1847 1900
1848 1900
1848 1901
1849 1850
1849 1901
1849 1902
1850 1851
1850 1902
1850 1903
1851 1852
1851 1903
1851 1904
1852 1853
1852 1903
1852 1904
1852 1905
1853 1854
1853 1904
1853 1905
1853 1906
1854 1855
1854 1905
1854 1906
1854 1907
1855 1856
1855 1906
1855 1907
1856 1857
1856 1907
1856 1908
1857 1858
1857 1908
1857 1909
1858 1908
1858 1909
1859 1860
1859 1910
1859 1911
1860 1861
1860 1910
1860 1911
1860 1912
1861 1862
1861 1911
1861 1912
1862 1863
1862 1912
1862 1913
1863 1864
1863 1913
1863 1914
1864 1865
1864 1913
1864 1914
1864 1915
1865 1866
1865 1914
1865 1915
1865 1916
1866 1867
1866 1915
1866 1916
1867 1868
1867 1916
1867 1917
1868 1869
1868 1917
1868 1918
1869 1870
1869 1917
1869 1918
1869 1919
1870 1871
1870 1918
1870 1919
1870 1920
1871 1919
1871 1920
1872 1873
1872 1921
1873 1874
1873 1921
1873 1922
1874 1875
1874 1922
1874 1923
1875 1876
1875 1922
1875 1923
1875 1924
1876 1877
1876 1923
1876 1924
1876 1925
1877 1878
1877 1924
1877 1925
1878 1879
1878 1925
1878 1926
1879 1880
1879 1926
1879 1927
1880 1881
1880 1926
1880 1927
1880 1928
1881 1882
1881 1927
1881 1928
1881 1929
1882 1883
1882 1928
1882 1929
1882 1930
1883 1929
1883 1930
1883 1931
1884 1885
1884 1931
1884 1932
1885 1886
1885 1932
1885 1933
1886 1932
1886 1933
1886 1934
1887 1888
1887 1936
1887 1937
1887 1938
1888 1889
1888 1937
1888 1938
1889 1890
1889 1938
1889 1939
1890 1891
1890 1939
1890 1940
1891 1892
1891 1939
1891 1940
1891 1941
1892 1893
1892 1940
1892 1941
1893 1894
1893 1941
1894 1895
1894 1942
1895 1896
1895 1942
1895 1943
1896 1897
1896 1942
1896 1943
1897 1898
1897 1943
1897 1944
1898 1899
1898 1944
1898 1945
1899 1900
1899 1944
1899 1945
1899 1946
1900 1945
1900 1946
1901 1902
1901 1947
1902 1947
1902 1948
1903 1904
1903 1948
1903 1949
1904 1905
1904 1949
1905 1906
1905 1949
1905 1950
1906 1907
1906 1950
1907 1950
1907 1951
1908 1909
1908 1951
1908 1952
1908 1953
1909 1952
1909 1953
1910 1911
1910 1954
1910 1955
1911 1912
1911 1955
1911 1956
1912 1955
1912 1956
1912 1957
1913 1914
1913 1957
1913 1958
1914 1915
1914 1958
1914 1959
1915 1916
1915 1959
1915 1960
1916 1959
1916 1960
1917 1918
1918 1919
1919 1920
1919 1961
1920 1961
1921 1962
1921 1963
1922 1923
1922 1963
1922 1964
1922 1965
1923 1924
1923 1964
1923 1965
1923 1966
1924 1925
1924 1965
1924 1966
1924 1967
1925 1966
1925 1967
1925 1968
1926 1927
1926 1968
1926 1969
1926 1970
1927 1928
1927 1969
1927 1970
1927 1971
1928 1929
1928 1970
1928 1971
1928 1972
1929 1930
1929 1971
1929 1972
1929 1973
1930 1931
1930 1972
1930 1973
1931 1973
1931 1974
1932 1933
1932 1974
1932 1975
1933 1934
1933 1975
1933 1976
1934 1935
1934 1976
1934 1977
1935 1936
1935 1976
1935 1977
1935 1978
1936 1937
1936 1977
1936 1978
1937 1938
1937 1978
1937 1979
1938 1979
1939 1940
1939 1980
1940 1941
1940 1980
1940 1981
1941 1980
1941 1981
1941 1982
1942 1943
1942 1983
1942 1984
1942 1985
1943 1984
1943 1985
1943 1986
1944 1945
1944 1986
1944 1987
1944 1988
1945 1946
1945 1987
1945 1988
1945 1989
1946 1988
1946 1989
1946 1990
1947 1948
1947 1991
1947 1992
1947 1993
1948 1992
1948 1993
1948 1994
1949 1994
1949 1995
1949 1996
1950 1996
1950 1997
1951 1952
1951 1998
1951 1999
1952 1953
1952 1998
1952 1999
1952 2000
1953 1999
1953 2000
1953 2001
1954 2001
1954 2002
1954 2003
1955 1956
1955 2003
1955 2004
1955 2005
1956 1957
1956 2004
1956 2005
1957 1958
1957 2005
1957 2006
1958 2006
1958 2007
1959 1960
1959 2007
1959 2008
1959 2009
1960 2008
1960 2009
1961 2011
1962 1963
1962 2012
1962 2013
1963 1964
1963 2012
1963 2013
1963 2014
1964 1965
1964 2013
1964 2014
1964 2015
1965 1966
1965 2014
1965 2015
1965 2016
1966 1967
1966 2015
1966 2016
1966 2017
1967 1968
1967 2016
1967 2017
1967 2018
1968 1969
1968 2017
1968 2018
1969 1970
1969 2018
1969 2019
1970 1971
1970 2019
1970 2020
1971 1972
1971 2019
1971 2020
1971 2021
1972 1973
1972 2020
1972 2021
1972 2022
1973 2021
1973 2022
1973 2023
1974 1975
1974 2023
1974 2024
1975 2024
1976 1977
1976 2025
1976 2026
1977 1978
1977 2025
1977 2026
1977 2027
1978 2026
1978 2027
1978 2028
1979 2028
1979 2029
1980 1981
1980 2030
1980 2031
1980 2032
1981 1982
1981 2031
1981 2032
1981 2033
1982 1983
1982 2032
1982 2033
1982 2034
1983 1984
1983 2033
1983 2034
1983 2035
1984 1985
1984 2034
1984 2035
1985 1986
1985 2035
1985 2036
1986 1987
1986 2036
1986 2037
1987 1988
1987 2036
1987 2037
1987 2038
1988 1989
1988 2037
1988 2038
1989 1990
1989 2038
1989 2039
1990 1991
1990 2039
1990 2040
1991 1992
1991 2039
1991 2040
1991 2041
1992 1993
1992 2040
1992 2041
1992 2042
1993 1994
1993 2041
1993 2042
1993 2043
1994 1995
1994 2042
1994 2043
1994 2044
1995 1996
1995 2043
1995 2044
1995 2045
1996 1997
1996 2044
1996 2045
1996 2046
1997 2045
1997 2046
1997 2047
1998 1999
1998 2047
1998 2048
1999 2000
1999 2048
1999 2049
2000 2001
2000 2049
2000 2050
2001 2002
2001 2049
2001 2050
2002 2003
2002 2050
2002 2051
2003 2004
2003 2051
2003 2052
2004 2005
2004 2051
2004 2052
2004 2053
2005 2052
2005 2053
2005 2054
2006 2007
2006 2054
2006 2055
2006 2056
2007 2008
2007 2055
2007 2056
2007 2057
2008 2009
2008 2056
2008 2057
2008 2058
2009 2057
2009 2058
2009 2059
2010 2011
2010 2060
2011 2061
2012 2013
2012 2062
2012 2063
2013 2014
2013 2062
2013 2063
2013 2064
2014 2015
2014 2063
2014 2064
2014 2065
2015 2016
2015 2064
2015 2065
2016 2017
2016 2065
2017 2018
2018 2066
2019 2020
2019 2066
2019 2067
2019 2068
2020 2021
2020 2067
2020 2068
2020 2069
2021 2022
2021 2068
2021 2069
2021 2070
2022 2023
2022 2069
2022 2070
2022 2071
2023 2024
2023 2070
2023 2071
2023 2072
2024 2071
2024 2072
2025 2026
2025 2073
2025 2074
2025 2075
2026 2027
2026 2074
2026 2075
2026 2076
2027 2028
2027 2075
2027 2076
2027 2077
2028 2076
2028 2077
2028 2078
2029 2030
2029 2078
2029 2079
2030 2031
2030 2079
2030 2080
2031 2032
2031 2080
2031 2081
2032 2033
2032 2080
2032 2081
2032 2082
2033 2034
2033 2081
2033 2082
2033 2083
2034 2035
2034 2082
2034 2083
2035 2083
2035 2084
2036 2037
2036 2084
2036 2085
2037 2038
2037 2085
2037 2086
2038 2086
2038 2087
2039 2040
2039 2087
2039 2088
2039 2089
2040 2041
2040 2088
2040 2089
2040 2090
2041 2042
2041 2089
2041 2090
2042 2043
2042 2090
2042 2091
2043 2044
2043 2091
2043 2092
2044 2045
2044 2091
2044 2092
2044 2093
2045 2046
2045 2092
2045 2093
2045 2094
2046 2047
2046 2093
2046 2094
2046 2095
2047 2048
2047 2094
2047 2095
2048 2095
2048 2096
2049 2050
2049 2096
2050 2097
2051 2052
2051 2097
2051 2098
2051 2099
2052 2053
2052 2098
2052 2099
2052 2100
2053 2054
2053 2099
2053 2100
2053 2101
2054 2055
2054 2100
2054 2101
2054 2102
2055 2056
2055 2101
2055 2102
2055 2103
2056 2057
2056 2102
2056 2103
2057 2058
2057 2103
2057 2104
2058 2059
2058 2104
2058 2105
2059 2060
2059 2104
2059 2105
2059 2106
2060 2105
2060 2106
2060 2107
2061 2108
2061 2109
2062 2063
2062 2110
2062 2111
2063 2064
2063 2110
2063 2111
2064 2065
2064 2111
2064 2112
2065 2112
2065 2113
2066 2067
2066 2115
2066 2116
2066 2117
2067 2068
2067 2116
2067 2117
2067 2118
2068 2069
2068 2117
2068 2118
2068 2119
2069 2070
2069 2118
2069 2119
2069 2120
2070 2071
2070 2119
2070 2120
2070 2121
2071 2072
2071 2120
2071 2121
2071 2122
2072 2121
2072 2122
2072 2123
2073 2074
2073 2123
2074 2075
2074 2124
2075 2076
2075 2124
2075 2125
2076 2077
2076 2124
2076 2125
2077 2078
2077 2125
2077 2126
2078 2079
2078 2126
2078 2127
2079 2126
2079 2127
2079 2128
2080 2081
2080 2128
2080 2129
2080 2130
2081 2082
2081 2129
2081 2130
2081 2131
2082 2083
2082 2130
2082 2131
2082 2132
2083 2131
2083 2132
2083 2133
2084 2085
2084 2133
2084 2134
2084 2135
2085 2134
2085 2135
2086 2087
2086 2136
2086 2137
2087 2088
2087 2136
2087 2137
2087 2138
2088 2089
2088 2137
2088 2138
2088 2139
2089 2090
2089 2138
2089 2139
2089 2140
2090 2139
2090 2140
2091 2092
2091 2141
2091 2142
2092 2093
2092 2141
2092 2142
2092 2143
2093 2094
2093 2142
2093 2143
2093 2144
2094 2095
2094 2143
2094 2144
2094 2145
2095 2144
2095 2145
2096 2146
2096 2147
2097 2098
2097 2148
2097 2149
2098 2099
2098 2149
2099 2100
2099 2150
2100 2101
2100 2150
2100 2151
2101 2102
2101 2150
2101 2151
2101 2152
2102 2103
2102 2151
2102 2152
2102 2153
2103 2152
2103 2153
2103 2154
2104 2105
2104 2154
2104 2155
2104 2156
2105 2106
2105 2155
2105 2156
2105 2157
2106 2107
2106 2156
2106 2157
2106 2158
2107 2108
2107 2157
2107 2158
2107 2159
2108 2109
2108 2158
2108 2159
2108 2160
2109 2159
2109 2160
2110 2111
2110 2161
2110 2162
2111 2161
2111 2162
2111 2163
2112 2113
2112 2163
2113 2114
2113 2164
2114 2115
2114 2164
2114 2165
2115 2116
2115 2164
2115 2165
2116 2117
2116 2165
2116 2166
2117 2118
2117 2166
2118 2119
2118 2166
2118 2167
2119 2120
2119 2167
2119 2168
2120 2121
2120 2167
2120 2168
2121 2122
2121 2168
2121 2169
2122 2123
2122 2169
2122 2170
2123 2169
2123 2170
2123 2171
2124 2125
2124 2172
2124 2173
2124 2174
2125 2173
2125 2174
2125 2175
2126 2127
2126 2175
2126 2176
2127 2128
2127 2176
2127 2177
2128 2129
2128 2177
2128 2178
2129 2130
2129 2177
2129 2178
2129 2179
2130 2131
2130 2178
2130 2179
2130 2180
2131 2132
2131 2179
2131 2180
2131 2181
2132 2133
2132 2180
2132 2181
2133 2134
2133 2181
2134 2135
2134 2182
2135 2182
2135 2183
2136 2137
2136 2183
2136 2184
2136 2185
2137 2138
2137 2184
2137 2185
2137 2186
2138 2139
2138 2185
2138 2186
2139 2140
2139 2186
2139 2187
2140 2187
2141 2142
2141 2188
2141 2189
2142 2143
2142 2188
2142 2189
2142 2190
2143 2144
2143 2189
2143 2190
2144 2145
2144 2190
2144 2191
2145 2191
2145 2192
2146 2147
2146 2192
2146 2193
2146 2194
2147 2148
2147 2193
2147 2194
2147 2195
2148 2149
2148 2194
2148 2195
2148 2196
2149 2195
2149 2196
2149 2197
2150 2151
2150 2198
2150 2199
2150 2200
2151 2152
2151 2199
2151 2200
2151 2201
2152 2153
2152 2200
2152 2201
2153 2154
2153 2201
2153 2202
2154 2155
2154 2202
2154 2203
2155 2156
2155 2202
2155 2203
2156 2157
2156 2203
2156 2204
2157 2158
2157 2204
2157 2205
2158 2159
2158 2204
2158 2205
2158 2206
2159 2160
2159 2205
2159 2206
2159 2207
2160 2206
2160 2207
2161 2162
2161 2208
2161 2209
2162 2163
2162 2208
2162 2209
2162 2210
2163 2209
2163 2210
2164 2165
2164 2211
2164 2212
2164 2213
2165 2212
2165 2213
2167 2168
2167 2214
2167 2215
2168 2214
2168 2215
2168 2216
2169 2170
2169 2216
2169 2217
2169 2218
2170 2171
2170 2217
2170 2218
2170 2219
2171 2172
2171 2218
2171 2219
2171 2220
2172 2173
2172 2219
2172 2220
2172 2221
2173 2174
2173 2220
2173 2221
2174 2175
2174 2221
2174 2222
2175 2176
2175 2222
2175 2223
2176 2222
2176 2223
2177 2178
2177 2224
2177 2225
2178 2179
2178 2224
2178 2225
2179 2180
2179 2225
2179 2226
2180 2181
2180 2226
2180 2227
2181 2226
2181 2227
2181 2228
2182 2183
2182 2229
2182 2230
2182 2231
2183 2184
2183 2230
2183 2231
2184 2185
2184 2231
2184 2232
2185 2186
2185 2232
2185 2233
2186 2232
2186 2233
2186 2234
2187 2234
2187 2235
2187 2236
2188 2189
2188 2236
2188 2237
2188 2238
2189 2190
2189 2237
2189 2238
2189 2239
2190 2238
2190 2239
2190 2240
2191 2192
2191 2240
2191 2241
2191 2242
2192 2193
2192 2241
2192 2242
2193 2194
2193 2242
2193 2243
2194 2195
2194 2243
2194 2244
2195 2196
2195 2243
2195 2244
2195 2245
2196 2197
2196 2244
2196 2245
2197 2198
2197 2245
2197 2246
2198 2199
2198 2246
2199 2200
2199 2246
2199 2247
2200 2201
2200 2247
2200 2248
2201 2247
2201 2248
2201 2249
2202 2203
2202 2249
2202 2250
2202 2251
2203 2250
2203 2251
2203 2252
2204 2205
2204 2252
2204 2253
2204 2254
2205 2206
2205 2253
2205 2254
2206 2207
2206 2254
2206 2255
2207 2255
2208 2209
2208 2256
2208 2257
2209 2210
2209 2256
2209 2257
2209 2258
2210 2257
2210 2258
2210 2259
2211 2212
2211 2259
2211 2260
2211 2261
2212 2213
2212 2260
2212 2261
2212 2262
2213 2261
2213 2262
2213 2263
2214 2215
2214 2265
2214 2266
2215 2216
2215 2266
2215 2267
2216 2217
2216 2266
2216 2267
2216 2268
2217 2218
2217 2267
2217 2268
2217 2269
2218 2219
2218 2268
2218 2269
2218 2270
2219 2220
2219 2269
2219 2270
2219 2271
2220 2221
2220 2270
2220 2271
2220 2272
2221 2271
2221 2272
2221 2273
2222 2223
2222 2273
2222 2274
2222 2275
2223 2274
2223 2275
2223 2276
2224 2225
2224 2276
2224 2277
2224 2278
2225 2277
2225 2278
2225 2279
2226 2227
2226 2279
2226 2280
2226 2281
2227 2228
2227 2280
2227 2281
2227 2282
2228 2229
2228 2281
2228 2282
2228 2283
2229 2230
2229 2282
2229 2283
2230 2231
2230 2283
2231 2284
2232 2233
2232 2284
2232 2285
2232 2286
2233 2234
2233 2285
2233 2286
2234 2235
2234 2286
2235 2236
2235 2287
2236 2237
2236 2287
2236 2288
2237 2238
2237 2287
2237 2288
2237 2289
2238 2239
2238 2288
2238 2289
2239 2240
2239 2289
2239 2290
2240 2241
2240 2290
2240 2291
2241 2242
2241 2290
2241 2291
2241 2292
2242 2291
2242 2292
2242 2293
2243 2244
2243 2293
2243 2294
2244 2245
2244 2294
2245 2295
2246 2295
2246 2296
2246 2297
2247 2248
2247 2297
2247 2298
2247 2299
2248 2249
2248 2298
2248 2299
2249 2250
2249 2299
2249 2300
2250 2251
2250 2300
2250 2301
2251 2252
2251 2300
2251 2301
2251 2302
2252 2253
2252 2301
2252 2302
2253 2254
2253 2302
2255 2303
2256 2257
2256 2304
2256 2305
2257 2258
2257 2304
2257 2305
2257 2306
2258 2259
2258 2305
2258 2306
2258 2307
2259 2260
2259 2306
2259 2307
2259 2308
2260 2261
2260 2307
2260 2308
2261 2262
2261 2308
2261 2309
2262 2263
2262 2309
2262 2310
2263 2264
2263 2309
2263 2310
2263 2311
2264 2265
2264 2310
2264 2311
2264 2312
2265 2311
2265 2312
2265 2313
2266 2267
2266 2313
2266 2314
2267 2268
2267 2314
2267 2315
2268 2269
2268 2315
2268 2316
2269 2270
2269 2315
2269 2316
2269 2317
2270 2271
2270 2316
2270 2317
2270 2318
2271 2272
2271 2317
2271 2318
2271 2319
2272 2273
2272 2318
2272 2319
2272 2320
2273 2274
2273 2319
2273 2320
2273 2321
2274 2275
2274 2320
2274 2321
2274 2322
2275 2276
2275 2321
2275 2322
2275 2323
2276 2277
2276 2322
2276 2323
2276 2324
2277 2278
2277 2323
2277 2324
2277 2325
2278 2279
2278 2324
2278 2325
2279 2280
2279 2325
2279 2326
2280 2281
2280 2326
2281 2282
2281 2326
2281 2327
2282 2283
2282 2327
2283 2327
2283 2328
2284 2285
2284 2329
2284 2330
2284 2331
2285 2286
2285 2330
2285 2331
2285 2332
2286 2331
2286 2332
2286 2333
2287 2288
2287 2334
2287 2335
2287 2336
2288 2289
2288 2335
2288 2336
2288 2337
2289 2336
2289 2337
2289 2338
2290 2291
2290 2338
2290 2339
2290 2340
2291 2292
2291 2339
2291 2340
2291 2341
2292 2293
2292 2340
2292 2341
2292 2342
2293 2294
2293 2341
2293 2342
2293 2343
2294 2342
2294 2343
2294 2344
2295 2296
2295 2345
2295 2346
2296 2297
2296 2345
2296 2346
2296 2347
2297 2298
2297 2346
2297 2347
2297 2348
2298 2299
2298 2347
2298 2348
2299 2348
2300 2301
2300 2349
2301 2302
2301 2349
2302 2349
2302 2350
2303 2352
2303 2353
2304 2305
2304 2354
2304 2355
2305 2306
2305 2354
2305 2355
2305 2356
2306 2307
2306 2355
2306 2356
2307 2308
2307 2356
2307 2357
2308 2357
2308 2358
2309 2310
2309 2358
2309 2359
2310 2311
2310 2359
2310 2360
2311 2312
2311 2359
2311 2360
2311 2361
2312 2313
2312 2360
2312 2361
2312 2362
2313 2314
2313 2361
2313 2362
2313 2363
2314 2362
2314 2363
2314 2364
2315 2316
2315 2364
2315 2365
2315 2366
2316 2317
2316 2365
2316 2366
2316 2367
2317 2318
2317 2366
2317 2367
2317 2368
2318 2319
2318 2367
2318 2368
2318 2369
2319 2320
2319 2368
2319 2369
2319 2370
2320 2321
2320 2369
2320 2370
2320 2371
2321 2322
2321 2370
2321 2371
2321 2372
2322 2323
2322 2371
2322 2372
2322 2373
2323 2324
2323 2372
2323 2373
2323 2374
2324 2325
2324 2373
2324 2374
2324 2375
2325 2374
2325 2375
2325 2376
2326 2376
2326 2377
2327 2377
2327 2378
2327 2379
2328 2329
2328 2379
2329 2330
2329 2380
2330 2331
2330 2380
2331 2332
2331 2380
2331 2381
2332 2333
2332 2381
2332 2382
2333 2334
2333 2381
2333 2382
2333 2383
2334 2335
2334 2382
2334 2383
2335 2336
2335 2383
2335 2384
2336 2337
2336 2384
2336 2385
2337 2338
2337 2384
2337 2385
2337 2386
2338 2339
2338 2385
2338 2386
2338 2387
2339 2340
2339 2386
2339 2387
2339 2388
2340 2341
2340 2387
2340 2388
2340 2389
2341 2342
2341 2388
2341 2389
2341 2390
2342 2343
2342 2389
2342 2390
2342 2391
2343 2344
2343 2390
2343 2391
2343 2392
2344 2391
2344 2392
2344 2393
2345 2346
2345 2393
2346 2347
2347 2348
2347 2394
2348 2394
2348 2395
2349 2397
2349 2398
2350 2351
2350 2398
2350 2399
2350 2400
2351 2352
2351 2399
2351 2400
2351 2401
2352 2353
2352 2400
2352 2401
2352 2402
2353 2401
2353 2402
2354 2355
2354 2403
2354 2404
2355 2356
2355 2403
2355 2404
2356 2404
2356 2405
2357 2358
2357 2405
2357 2406
2357 2407
2358 2406
2358 2407
2358 2408
2359 2360
2359 2408
2359 2409
2359 2410
2360 2361
2360 2409
2360 2410
2360 2411
2361 2362
2361 2410
2361 2411
2361 2412
2362 2363
2362 2411
2362 2412
2362 2413
2363 2364
2363 2412
2363 2413
2363 2414
2364 2365
2364 2413
2364 2414
2364 2415
2365 2366
2365 2414
2365 2415
2365 2416
2366 2367
2366 2415
2366 2416
2366 2417
2367 2368
2367 2416
2367 2417
2367 2418
2368 2369
2368 2417
2368 2418
2369 2370
2369 2418
2369 2419
2370 2371
2370 2419
2370 2420
2371 2372
2371 2419
2371 2420
2372 2373
2372 2420
2372 2421
2373 2374
2373 2421
2373 2422
2374 2375
2374 2421
2374 2422
2374 2423
2375 2376
2375 2422
2375 2423
2375 2424
2376 2423
2376 2424
2376 2425
2377 2378
2377 2425
2377 2426
2378 2379
2378 2426
2379 2426
2379 2427
2380 2428
2381 2382
2381 2428
2381 2429
2381 2430
2382 2383
2382 2429
2382 2430
2382 2431
2383 2430
2383 2431
2383 2432
2384 2385
2384 2432
2384 2433
2384 2434
2385 2386
2385 2433
2385 2434
2385 2435
2386 2387
2386 2434
2386 2435
2386 2436
2387 2388
2387 2435
2387 2436
2387 2437
2388 2389
2388 2436
2388 2437
2389 2390
2389 2437
2389 2438
2390 2391
2390 2438
2390 2439
2391 2392
2391 2438
2391 2439
2391 2440
2392 2393
2392 2439
2392 2440
2392 2441
2393 2440
2393 2441
2393 2442
2394 2395
2394 2444
2394 2445
2394 2446
2395 2396
2395 2445
2395 2446
2396 2446
2396 2447
2397 2398
2397 2447
2397 2448
2397 2449
2398 2399
2398 2448
2398 2449
2399 2400
2399 2449
2399 2450
2400 2401
2400 2450
2400 2451
2401 2402
2401 2450
2401 2451
2402 2451
2403 2404
2403 2452
2403 2453
2404 2452
2404 2453
2404 2454
2405 2406
2405 2454
2406 2407
2406 2455
2407 2408
2407 2455
2407 2456
2408 2409
2408 2455
2408 2456
2409 2410
2409 2456
2409 2457
2410 2411
2410 2457
2410 2458
2411 2412
2411 2457
2411 2458
2411 2459
2412 2413
2412 2458
2412 2459
2412 2460
2413 2414
2413 2459
2413 2460
2414 2415
2414 2460
2414 2461
2415 2416
2415 2461
2416 2417
2416 2461
2416 2462
2417 2418
2417 2462
2418 2462
2419 2420
2419 2463
2420 2463
2420 2464
2421 2422
2421 2464
2421 2465
2421 2466
2422 2423
2422 2465
2422 2466
2422 2467
2423 2424
2423 2466
2423 2467
2424 2425
2424 2467
2425 2468
2426 2468
2426 2469
2426 2470
2427 2470
2427 2471
2428 2429
2428 2472
2428 2473
2428 2474
2429 2430
2429 2473
2429 2474
2429 2475
2430 2431
2430 2474
2430 2475
2430 2476
2431 2432
2431 2475
2431 2476
2432 2433
2432 2476
2432 2477
2433 2434
2433 2477
2433 2478
2434 2435
2434 2477
2434 2478
2434 2479
2435 2436
2435 2478
2435 2479
2435 2480
2436 2437
2436 2479
2436 2480
2436 2481
2437 2480
2437 2481
2438 2439
2438 2482
2439 2440
2439 2482
2439 2483
2440 2441
2440 2483
2441 2442
2441 2483
2441 2484
2442 2443
2442 2484
2442 2485
2443 2444
2443 2484
2443 2485
2443 2486
2444 2445
2444 2485
2444 2486
2444 2487
2445 2446
2445 2486
2445 2487
2446 2487
2447 2448
2447 2488
2447 2489
2448 2449
2448 2488
2448 2489
2448 2490
2449 2489
2449 2490
2449 2491
2450 2451
2450 2491
2450 2492
2450 2493
2451 2492
2451 2493
2451 2494
2452 2453
2452 2495
2453 2454
2453 2495
2453 2496
2454 2495
2454 2496
2454 2497
2455 2456
2455 2498
2455 2499
2455 2500
2456 2499
2456 2500
2456 2501
2457 2458
2457 2501
2457 2502
2457 2503
2458 2459
2458 2502
2458 2503
2458 2504
2459 2460
2459 2503
2459 2504
2459 2505
2460 2504
2460 2505
2460 2506
2461 2506
2461 2507
2461 2508
2462 2508
2462 2509
2462 2510
2463 2464
2463 2512
2463 2513
2463 2514
2464 2465
2464 2513
2464 2514
2464 2515
2465 2466
2465 2514
2465 2515
2465 2516
2466 2467
2466 2515
2466 2516
2466 2517
2467 2516
2467 2517
2467 2518
2468 2469
2468 2519
2468 2520
2468 2521
2469 2470
2469 2520
2469 2521
2469 2522
2470 2521
2470 2522
2470 2523
2471 2472
2471 2523
2471 2524
2472 2473
2472 2524
2472 2525
2473 2474
2473 2524
2473 2525
2473 2526
2474 2475
2474 2525
2474 2526
2474 2527
2475 2476
2475 2526
2475 2527
2475 2528
2476 2527
2476 2528
2476 2529
2477 2478
2477 2529
2477 2530
2478 2479
2478 2530
2478 2531
2479 2480
2479 2531
2479 2532
2480 2481
2480 2531
2480 2532
2480 2533
2481 2532
2481 2533
2481 2534
2482 2534
2482 2535
2483 2536
2483 2537
2484 2485
2484 2537
2484 2538
2485 2486
2485 2538
2485 2539
2486 2487
2486 2538
2486 2539
2486 2540
2487 2539
2487 2540
2487 2541
2488 2489
2488 2542
2488 2543
2488 2544
2489 2490
2489 2543
2489 2544
2490 2491
2490 2544
2490 2545
2491 2492
2491 2545
2492 2493
2492 2545
2493 2494
2493 2546
2494 2546
2495 2496
2495 2547
2496 2497
2496 2547
2496 2548
2497 2498
2497 2547
2497 2548
2497 2549
2498 2499
2498 2548
2498 2549
2498 2550
2499 2500
2499 2549
2499 2550
2500 2501
2500 2550
2500 2551
2501 2502
2501 2551
2501 2552
2502 2503
2502 2551
2502 2552
2502 2553
2503 2504
2503 2552
2503 2553
2503 2554
2504 2505
2504 2553
2504 2554
2505 2506
2505 2554
2506 2507
2506 2555
2507 2508
2507 2555
2507 2556
2508 2509
2508 2555
2508 2556
2509 2510
2509 2556
2509 2557
2510 2511
2510 2557
2510 2558
2511 2512
2511 2557
2511 2558
2511 2559
2512 2513
2512 2558
2512 2559
2512 2560
2513 2514
2513 2559
2513 2560
2513 2561
2514 2515
2514 2560
2514 2561
2514 2562
2515 2516
2515 2561
2515 2562
2516 2517
2516 2562
2516 2563
2517 2518
2517 2563
2517 2564
2518 2519
2518 2563
2518 2564
2518 2565
2519 2520
2519 2564
2519 2565
2519 2566
2520 2521
2520 2565
2520 2566
2520 2567
2521 2522
2521 2566
2521 2567
2521 2568
2522 2523
2522 2567
2522 2568
2522 2569
2523 2568
2523 2569
2523 2570
2524 2525
2524 2570
2524 2571
2524 2572
2525 2526
2525 2571
2525 2572
2525 2573
2526 2527
2526 2572
2526 2573
2527 2528
2527 2573
2527 2574
2528 2529
2528 2574
2528 2575
2529 2530
2529 2574
2529 2575
2529 2576
2530 2575
2530 2576
2531 2532
2531 2577
2531 2578
2532 2533
2532 2577
2532 2578
2532 2579
2533 2534
2533 2578
2533 2579
2533 2580
2534 2535
2534 2579
2534 2580
2534 2581
2535 2580
2535 2581
2535 2582
2536 2537
2536 2582
2536 2583
2536 2584
2537 2583
2537 2584
2537 2585
2538 2539
2538 2585
2538 2586
2538 2587
2539 2540
2539 2586
2539 2587
2539 2588
2540 2541
2540 2587
2540 2588
2540 2589
2541 2542
2541 2588
2541 2589
2542 2543
2542 2589
2542 2590
2543 2544
2543 2590
2543 2591
2544 2590
2544 2591
2544 2592
2545 2592
2545 2593
2545 2594
2546 2595
2546 2596
2547 2548
2547 2597
2547 2598
2547 2599
2548 2549
2548 2598
2548 2599
2548 2600
2549 2550
2549 2599
2549 2600
2549 2601
2550 2600
2550 2601
2550 2602
2551 2552
2551 2602
2551 2603
2551 2604
2552 2553
2552 2603
2552 2604
2553 2554
2553 2604
2554 2605
2555 2556
2555 2606
2555 2607
2556 2607
2557 2558
2557 2608
2557 2609
2558 2559
2558 2608
2558 2609
2558 2610
2559 2560
2559 2609
2559 2610
2559 2611
2560 2561
2560 2610
2560 2611
2561 2562
2561 2611
2561 2612
2562 2612
2563 2564
2563 2613
2563 2614
2564 2565
2564 2613
2564 2614
2564 2615
2565 2566
2565 2614
2565 2615
2565 2616
2566 2567
2566 2615
2566 2616
2566 2617
2567 2568
2567 2616
2567 2617
2568 2569
2568 2617
2569 2570
2569 2618
2570 2571
2570 2618
2570 2619
2571 2572
2571 2618
2571 2619
2571 2620
2572 2573
2572 2619
2572 2620
2572 2621
2573 2620
2573 2621
2573 2622
2574 2575
2574 2622
2574 2623
2574 2624
2575 2576
2575 2623
2575 2624
2575 2625
2576 2624
2576 2625
2576 2626
2577 2578
2577 2626
2577 2627
2577 2628
2578 2579
2578 2627
2578 2628
2578 2629
2579 2580
2579 2628
2579 2629
2579 2630
2580 2581
2580 2629
2580 2630
2580 2631
2581 2582
2581 2630
2581 2631
2581 2632
2582 2583
2582 2631
2582 2632
2582 2633
2583 2584
2583 2632
2583 2633
2583 2634
2584 2585
2584 2633
2584 2634
2585 2586
2585 2634
2585 2635
2586 2587
2586 2635
2586 2636
2587 2588
2587 2635
2587 2636
2587 2637
2588 2589
2588 2636
2588 2637
2588 2638
2589 2637
2589 2638
2589 2639
2590 2591
2590 2639
2590 2640
2590 2641
2591 2592
2591 2640
2591 2641
2591 2642
2592 2593
2592 2641
2592 2642
2592 2643
2593 2594
2593 2642
2593 2643
2593 2644
2594 2595
2594 2643
2594 2644
2594 2645
2595 2596
2595 2644
2595 2645
2595 2646
2596 2645
2596 2646
2597 2598
2597 2647
2597 2648
2598 2599
2598 2648
2598 2649
2599 2600
2599 2648
2599 2649
2599 2650
2600 2601
2600 2649
2600 2650
2600 2651
2601 2602
2601 2650
2601 2651
2602 2603
2602 2651
2602 2652
2603 2604
2603 2652
2604 2652
2604 2653
2605 2606
2605 2654
2605 2655
2605 2656
2606 2655
2606 2656
2606 2657
2607 2657
2607 2658
2607 2659
2608 2609
2608 2659
2608 2660
2608 2661
2609 2610
2609 2660
2609 2661
2609 2662
2610 2611
2610 2661
2610 2662
2610 2663
2611 2662
2611 2663
2612 2664
2613 2614
2613 2665
2614 2615
2614 2665
2615 2616
2615 2665
2615 2666
2616 2617
2616 2666
2616 2667
2617 2666
2617 2667
2617 2668
2618 2619
2618 2669
2618 2670
2618 2671
2619 2620
2619 2670
2619 2671
2620 2621
2620 2671
2621 2622
2621 2672
2622 2623
2622 2672
2622 2673
2623 2624
2623 2672
2623 2673
2623 2674
2624 2625
2624 2673
2624 2674
2624 2675
2625 2626
2625 2674
2625 2675
2625 2676
2626 2627
2626 2675
2626 2676
2626 2677
2627 2628
2627 2676
2627 2677
2627 2678
2628 2629
2628 2677
2628 2678
2628 2679
2629 2630
2629 2678
2629 2679
2629 2680
2630 2631
2630 2679
2630 2680
2631 2632
2631 2680
2631 2681
2632 2633
2632 2681
2632 2682
2633 2634
2633 2681
2633 2682
2634 2682
2634 2683
2635 2636
2635 2683
2635 2684
2635 2685
2636 2637
2636 2684
2636 2685
2636 2686
2637 2638
2637 2685
2637 2686
2638 2639
2638 2686
2638 2687
2639 2640
2639 2687
2639 2688
2640 2641
2640 2687
2640 2688
2640 2689
2641 2642
2641 2688
2641 2689
2641 2690
2642 2643
2642 2689
2642 2690
2642 2691
2643 2644
2643 2690
2643 2691
2643 2692
2644 2645
2644 2691
2644 2692
2644 2693
2645 2646
2645 2692
2645 2693
2645 2694
2646 2693
2646 2694
2647 2695
2647 2696
2648 2649
2648 2696
2648 2697
2648 2698
2649 2650
2649 2697
2649 2698
2650 2651
2650 2698
2650 2699
2651 2699
2651 2700
2652 2700
2652 2701
2652 2702
2653 2654
2653 2702
2653 2703
2654 2655
2654 2703
2654 2704
2655 2656
2655 2704
2655 2705
2656 2657
2656 2704
2656 2705
2656 2706
2657 2658
2657 2705
2657 2706
2657 2707
2658 2659
2658 2706
2658 2707
2659 2660
2659 2707
2659 2708
2660 2661
2660 2708
2660 2709
2661 2662
2661 2708
2661 2709
2662 2663
2662 2709
2662 2710
2663 2710
2663 2711
2664 2711
2664 2712
2664 2713
2665 2714
2665 2715
2665 2716
2666 2667
2666 2716
2666 2717
2667 2668
2667 2717
2667 2718
2668 2669
2668 2718
2669 2670
2669 2718
2669 2719
2670 2671
2670 2719
2671 2719
2671 2720
2672 2673
2672 2721
2672 2722
2672 2723
2673 2674
2673 2722
2673 2723
2673 2724
2674 2675
2674 2723
2674 2724
2675 2676
2675 2724
2675 2725
2676 2677
2676 2725
2676 2726
2677 2678
2677 2725
2677 2726
2678 2679
2678 2726
2678 2727
2679 2680
2679 2727
2679 2728
2680 2727
2680 2728
2680 2729
2681 2682
2681 2729
2681 2730
2681 2731
2682 2730
2682 2731
2682 2732
2683 2684
2683 2732
2683 2733
2683 2734
2684 2685
2684 2733
2684 2734
2684 2735
2685 2686
2685 2734
2685 2735
2685 2736
2686 2735
2686 2736
2686 2737
2687 2688
2687 2737
2688 2689
2688 2738
2689 2690
2689 2738
2689 2739
2690 2691
2690 2738
2690 2739
2691 2692
2691 2739
2691 2740
2692 2693
2692 2740
2693 2694
2693 2740
2693 2741
2694 2741
2695 2696
2695 2742
2696 2697
2696 2742
2696 2743
2697 2698
2697 2742
2697 2743
2698 2743
2699 2700
2699 2744
2700 2701
2700 2744
2701 2702
2701 2745
2702 2703
2702 2745
2702 2746
2703 2745
2703 2746
2703 2747
2704 2705
2704 2747
2704 2748
2704 2749
2705 2706
2705 2748
2705 2749
2705 2750
2706 2707
2706 2749
2706 2750
2706 2751
2707 2750
2707 2751
2707 2752
2708 2709
2708 2752
2708 2753
2708 2754
2709 2753
2709 2754
2709 2755
2710 2711
2710 2755
2710 2756
2710 2757
2711 2712
2711 2756
2711 2757
2712 2713
2712 2757
2712 2758
2713 2714
2713 2758
2713 2759
2714 2715
2714 2758
2714 2759
2714 2760
2715 2716
2715 2759
2715 2760
2715 2761
2716 2717
2716 2760
2716 2761
2716 2762
2717 2761
2717 2762
2718 2763
2719 2763
2719 2764
2720 2721
2720 2765
2720 2766
2721 2722
2721 2765
2721 2766
2721 2767
2722 2723
2722 2766
2722 2767
2722 2768
2723 2724
2723 2767
2723 2768
2723 2769
2724 2768
2724 2769
2725 2726
2725 2770
2725 2771
2726 2770
2726 2771
2726 2772
2727 2728
2727 2772
2727 2773
2728 2729
2728 2773
2729 2730
2729 2774
2730 2731
2730 2774
2730 2775
2731 2732
2731 2774
2731 2775
2731 2776
2732 2733
2732 2775
2732 2776
2732 2777
2733 2734
2733 2776
2733 2777
2733 2778
2734 2735
2734 2777
2734 2778
2735 2736
2735 2778
2735 2779
2736 2737
2736 2779
2736 2780
2737 2779
2737 2780
2737 2781
2738 2739
2738 2782
2739 2783
2740 2783
2740 2784
2740 2785
2741 2785
2741 2786
2742 2743
2742 2787
2742 2788
2743 2788
2744 2789
2744 2790
2744 2791
2745 2746
2745 2792
2745 2793
2745 2794
2746 2747
2746 2793
2746 2794
2746 2795
2747 2748
2747 2794
2747 2795
2748 2749
2748 2795
2748 2796
2749 2750
2749 2796
2749 2797
2750 2751
2750 2796
2750 2797
2750 2798
2751 2752
2751 2797
2751 2798
2751 2799
2752 2753
2752 2798
2752 2799
2752 2800
2753 2754
2753 2799
2753 2800
2753 2801
2754 2755
2754 2800
2754 2801
2754 2802
2755 2756
2755 2801
2755 2802
2755 2803
2756 2757
2756 2802
2756 2803
2757 2803
2757 2804
2758 2759
2758 2804
2758 2805
2758 2806
2759 2760
2759 2805
2759 2806
2759 2807
2760 2761
2760 2806
2760 2807
2760 2808
2761 2762
2761 2807
2761 2808
2761 2809
2762 2808
2762 2809
2763 2764
2763 2810
2763 2811
2764 2810
2764 2811
2764 2812
2765 2766
2765 2812
2765 2813
2765 2814
2766 2767
2766 2813
2766 2814
2766 2815
2767 2768
2767 2814
2767 2815
2768 2769
2768 2815
2769 2816
2770 2771
2770 2816
2770 2817
2771 2772
2771 2817
2771 2818
2772 2773
2772 2818
2772 2819
2773 2818
2773 2819
2773 2820
2774 2775
2774 2821
2774 2822
2775 2776
2775 2822
2775 2823
2776 2777
2776 2823
2777 2778
2777 2823
2777 2824
2778 2824
2778 2825
2779 2780
2779 2825
2779 2826
2779 2827
2780 2781
2780 2826
2780 2827
2781 2782
2781 2827
2781 2828
2782 2828
2783 2784
2783 2829
2783 2830
2783 2831
2784 2785
2784 2830
2784 2831
2785 2786
2785 2831
2785 2832
2786 2832
2787 2788
2787 2833
2787 2834
2788 2833
2788 2834
2788 2835
2789 2790
2789 2836
2789 2837
2790 2791
2790 2837
2790 2838
2791 2792
2791 2838
2791 2839
2792 2793
2792 2838
2792 2839
2792 2840
2793 2794
2793 2839
2793 2840
2793 2841
2794 2795
2794 2840
2794 2841
2794 2842
2795 2841
2795 2842
2795 2843
2796 2797
2796 2843
2796 2844
2796 2845
2797 2798
2797 2844
2797 2845
2797 2846
2798 2799
2798 2845
2798 2846
2798 2847
2799 2800
2799 2846
2799 2847
2800 2801
2800 2847
2800 2848
2801 2802
2801 2848
2802 2803
2802 2848
2803 2849
2804 2805
2804 2849
2804 2850
2805 2806
2805 2850
2806 2807
2806 2850
2806 2851
2807 2808
2807 2851
2807 2852
2808 2809
2808 2851
2808 2852
2808 2853
2809 2852
2809 2853
2809 2854
2810 2811
2810 2855
2811 2812
2811 2855
2811 2856
2812 2813
2812 2856
2812 2857
2813 2814
2813 2856
2813 2857
2813 2858
2814 2815
2814 2857
2814 2858
2814 2859
2815 2858
2815 2859
2815 2860
2816 2817
2816 2861
2816 2862
2817 2862
2817 2863
2818 2819
2818 2863
2818 2864
2818 2865
2819 2820
2819 2864
2819 2865
2819 2866
2820 2821
2820 2865
2820 2866
2821 2822
2821 2866
2821 2867
2822 2867
2822 2868
2823 2868
2823 2869
2824 2825
2824 2869
2824 2870
2824 2871
2825 2826
2825 2870
2825 2871
2825 2872
2826 2827
2826 2871
2826 2872
2826 2873
2827 2872
2827 2873
2827 2874
2828 2874
2828 2875
2828 2876
2829 2830
2829 2876
2829 2877
2830 2831
2830 2877
2830 2878
2831 2877
2831 2878
2831 2879
2832 2879
2832 2880
2833 2834
2834 2835
2835 2836
2836 2837
2838 2839
2839 2840
2840 2841
2841 2842
2842 2843
2843 2844
2844 2845
2845 2846
2846 2847
2851 2852
2852 2853
2853 2854
2856 2857
2857 2858
2858 2859
2859 2860
2860 2861
2862 2863
2863 2864
2864 2865
2865 2866
2867 2868
2869 2870
2870 2871
2871 2872
2872 2873
2873 2874
2874 2875
2875 2876
2877 2878
2878 2879
2879 2880
