# Random KSG graph
n = 60
seed = 8
type = random_ksg

vertices: 2880
edges:
1 2
1 51
2 3
2 51
2 52
3 4
3 51
3 52
3 53
4 5
4 52
4 53
5 6
5 53
5 54
6 7
6 54
6 55
7 54
7 55
7 56
8 9
8 56
8 57
8 58
9 10
9 57
9 58
10 58
10 59
11 12
11 60
11 61
12 13
12 61
12 62
13 62
13 63
14 15
14 63
14 64
14 65
15 16
15 64
15 65
15 66
16 17
16 65
16 66
17 18
17 66
18 19
18 67
19 20
19 67
19 68
20 21
20 67
20 68
20 69
21 22
21 68
21 69
22 69
22 70
23 24
23 70
23 71
24 71
24 72
25 26
25 72
25 73
25 74
26 27
26 73
26 74
26 75
27 28
27 74
27 75
27 76
28 75
28 76
28 77
29 30
29 77
29 78
29 79
30 31
30 78
30 79
31 79
31 80
32 33
32 81
32 82
33 82
33 83
34 35
34 83
34 84
35 36
35 84
35 85
36 37
36 84
36 85
37 38
37 85
37 86
38 39
38 86
38 87
39 40
39 86
39 87
39 88
40 41
40 87
40 88
41 42
41 88
41 89
42 43
42 89
43 44
43 89
43 90
44 45
44 90
44 91
45 46
45 90
45 91
45 92
46 47
46 91
46 92
46 93
47 48
47 92
47 93
47 94
48 49
48 93
48 94
49 50
49 94
49 95
50 95
51 52
51 96
51 97
52 53
52 96
52 97
52 98
53 97
53 98
54 55
54 99
54 100
55 56
55 99
55 100
55 101
56 57
56 100
56 101
57 58
57 101
57 102
58 102
59 60
59 103
60 61
60 103
60 104
61 104
61 105
62 63
62 105
62 106
62 107
63 64
63 106
63 107
63 108
64 65
64 107
64 108
64 109
65 66
65 108
65 109
65 110
66 109
66 110
66 111
67 68
67 112
67 113
67 114
68 69
68 113
68 114
68 115
69 114
69 115
69 116
70 116
70 117
70 118
71 72
71 118
71 119
71 120
72 73
72 119
72 120
72 121
73 74
73 120
73 121
73 122
74 75
74 121
74 122
75 76
75 122
76 77
76 123
77 78
77 123
78 79
78 123
78 124
79 124
79 125
80 81
80 125
80 126
81 82
81 126
81 127
82 127
83 128
83 129
84 85
84 129
84 130
85 130
85 131
86 87
86 131
86 132
86 133
87 88
87 132
87 133
88 133
89 134
89 135
90 91
90 135
90 136
90 137
91 92
91 136
91 137
91 138
92 93
92 137
92 138
92 139
93 94
93 138
93 139
93 140
94 139
94 140
94 141
95 141
95 142
96 97
96 143
96 144
97 98
97 144
97 145
98 145
98 146
99 100
99 146
99 147
99 148
100 101
100 147
100 148
100 149
101 148
101 149
101 150
102 150
102 151
102 152
103 152
103 153
104 105
104 154
104 155
105 106
105 154
105 155
105 156
106 107
106 155
106 156
106 157
107 108
107 156
107 157
107 158
108 109
108 157
108 158
108 159
109 110
109 158
109 159
109 160
110 111
110 159
110 160
110 161
111 112
111 160
111 161
111 162
112 113
112 161
112 162
112 163
113 114
113 162
113 163
114 115
114 163
115 116
115 164
116 117
116 164
116 165
117 118
117 164
117 165
117 166
118 119
118 165
118 166
118 167
119 120
119 166
119 167
119 168
120 121
120 167
120 168
121 122
121 168
121 169
122 169
123 170
123 171
123 172
124 125
124 172
124 173
124 174
125 126
125 173
125 174
125 175
126 174
126 175
126 176
127 176
127 177
128 129
128 178
128 179
129 130
129 178
129 179
130 179
130 180
131 132
131 180
131 181
131 182
132 133
132 181
132 182
132 183
133 182
133 183
134 135
134 184
134 185
134 186
135 136
135 185
135 186
135 187
136 137
136 186
136 187
136 188
137 138
137 187
137 188
137 189
138 139
138 188
138 189
138 190
139 140
139 189
139 190
139 191
140 141
140 190
140 191
141 142
141 191
141 192
142 192
143 144
143 193
144 193
144 194
145 146
145 194
145 195
146 147
146 195
146 196
147 148
147 195
147 196
147 197
148 149
148 196
148 197
148 198
149 150
149 197
149 198
149 199
150 151
150 198
150 199
150 200
151 152
151 199
151 200
151 201
152 153
152 200
152 201
152 202
153 201
153 202
153 203
154 155
154 203
154 204
154 205
155 156
155 204
155 205
156 157
156 205
157 158
157 206
158 159
158 206
158 207
159 160
159 206
159 207
160 161
160 207
160 208
161 162
161 208
161 209
162 163
162 208
162 209
162 210
163 209
163 210
164 165
164 211
165 166
165 212
166 167
166 212
166 213
167 168
167 212
167 213
168 213
168 214
169 214
169 215
169 216
170 171
170 216
170 217
171 172
171 217
171 218
172 173
172 218
172 219
173 174
173 218
173 219
173 220
174 175
174 219
174 220
174 221
175 176
175 220
175 221
175 222
176 177
176 221
176 222
177 222
178 179
178 223
179 223
179 224
180 181
180 224
180 225
180 226
181 182
181 225
181 226
181 227
182 183
182 226
182 227
182 228
183 227
183 228
184 185
185 186
185 229
186 187
186 229
186 230
187 188
187 229
187 230
187 231
188 189
188 230
188 231
188 232
189 190
189 231
189 232
189 233
190 191
190 232
190 233
190 234
191 233
191 234
191 235
192 235
192 236
193 194
193 237
193 238
193 239
194 238
194 239
194 240
195 196
195 240
195 241
195 242
196 197
196 241
196 242
196 243
197 198
197 242
197 243
197 244
198 199
198 243
198 244
198 245
199 200
199 244
199 245
200 201
200 245
200 246
201 202
201 246
201 247
202 203
202 246
202 247
202 248
203 204
203 247
203 248
204 205
204 248
204 249
205 249
205 250
206 207
206 251
206 252
206 253
207 252
207 253
207 254
208 209
208 254
208 255
208 256
209 210
209 255
209 256
209 257
210 256
210 257
211 258
211 259
212 213
212 260
212 261
212 262
213 261
213 262
213 263
214 215
214 263
214 264
214 265
215 216
215 264
215 265
215 266
216 217
216 265
216 266
216 267
217 266
217 267
217 268
218 219
218 268
218 269
218 270
219 220
219 269
219 270
219 271
220 221
220 270
220 271
221 222
221 271
221 272
222 272
222 273
223 224
223 275
223 276
223 277
224 225
224 276
224 277
224 278
225 226
225 277
225 278
225 279
226 227
226 278
226 279
226 280
227 228
227 279
227 280
228 280
228 281
229 230
229 282
229 283
229 284
230 231
230 283
230 284
230 285
231 232
231 284
231 285
231 286
232 233
232 285
232 286
232 287
233 234
233 286
233 287
234 235
234 287
234 288
235 236
235 288
235 289
236 288
236 289
237 238
237 290
238 239
238 290
239 240
239 291
240 241
240 291
240 292
241 242
241 291
241 292
241 293
242 243
242 292
242 293
243 244
243 293
243 294
244 245
244 294
244 295
245 294
245 295
246 247
246 296
247 248
247 296
248 297
249 250
249 297
249 298
250 251
250 298
251 252
251 299
252 253
252 299
252 300
253 254
253 299
253 300
253 301
254 255
254 300
254 301
254 302
255 256
255 301
255 302
255 303
256 257
256 302
256 303
256 304
257 303
257 304
257 305
258 259
258 305
258 306
258 307
259 260
259 306
259 307
260 261
260 307
260 308
261 262
261 308
261 309
262 263
262 308
262 309
262 310
263 264
263 309
263 310
263 311
264 265
264 310
264 311
264 312
265 266
265 311
265 312
266 267
266 312
266 313
267 268
267 313
268 269
268 313
269 270
270 271
270 314
271 314
271 315
272 273
272 315
272 316
273 274
273 316
273 317
274 275
274 317
274 318
275 276
275 317
275 318
275 319
276 277
276 318
276 319
276 320
277 278
277 319
277 320
277 321
278 279
278 320
278 321
279 280
279 321
279 322
280 322
281 323
282 283
282 323
282 324
283 284
283 324
283 325
284 285
284 325
284 326
285 286
285 325
285 326
285 327
286 287
286 326
286 327
286 328
287 327
287 328
287 329
288 289
288 329
288 330
288 331
289 330
289 331
290 332
291 292
291 333
291 334
291 335
292 293
292 334
292 335
293 335
294 295
294 336
294 337
295 336
295 337
295 338
296 338
296 339
296 340
297 298
297 341
297 342
297 343
298 342
298 343
298 344
299 300
299 345
299 346
300 301
300 346
300 347
301 302
301 347
301 348
302 303
302 347
302 348
302 349
303 304
303 348
303 349
303 350
304 305
304 349
304 350
304 351
305 306
305 350
305 351
305 352
306 307
306 351
306 352
307 352
307 353
308 309
308 353
308 354
309 310
309 354
309 355
310 311
310 355
310 356
311 312
311 355
311 356
311 357
312 356
312 357
312 358
313 358
313 359
313 360
314 315
314 362
314 363
315 316
315 363
315 364
316 364
317 318
317 365
317 366
318 319
318 365
318 366
318 367
319 320
319 366
319 367
319 368
320 321
320 367
320 368
320 369
321 368
321 369
321 370
322 370
322 371
322 372
323 324
323 373
324 373
324 374
325 326
325 374
325 375
325 376
326 327
326 375
326 376
326 377
327 328
327 376
327 377
327 378
328 329
328 377
328 378
328 379
329 330
329 378
329 379
329 380
330 331
330 379
330 380
330 381
331 380
331 381
332 382
333 334
333 382
333 383
333 384
334 335
334 383
334 384
335 384
335 385
336 337
336 386
336 387
336 388
337 338
337 387
337 388
338 339
338 388
339 340
339 389
340 341
340 389
340 390
341 342
341 389
341 390
341 391
342 343
342 390
342 391
342 392
343 344
343 391
343 392
343 393
344 345
344 392
344 393
344 394
345 346
345 393
345 394
346 394
346 395
347 348
347 395
347 396
347 397
348 349
348 396
348 397
349 350
349 397
349 398
350 351
350 398
350 399
351 352
351 398
351 399
351 400
352 399
352 400
352 401
353 354
353 401
353 402
353 403
354 402
354 403
354 404
355 356
355 404
355 405
355 406
356 357
356 405
356 406
357 358
357 406
357 407
358 359
358 407
358 408
359 360
359 407
359 408
360 361
360 408
360 409
361 362
361 409
362 363
362 409
362 410
363 410
363 411
364 411
364 412
364 413
365 366
365 413
365 414
366 367
366 414
366 415
367 368
367 414
367 415
368 369
368 415
368 416
369 370
369 416
369 417
370 371
370 416
370 417
370 418
371 372
371 417
371 418
371 419
372 418
372 419
372 420
373 420
373 421
373 422
374 375
374 422
374 423
374 424
375 376
375 423
375 424
375 425
376 377
376 424
376 425
376 426
377 378
377 425
377 426
377 427
378 379
378 426
378 427
379 380
379 427
379 428
380 381
380 428
381 428
382 383
382 429
382 430
383 384
383 430
383 431
384 430
384 431
385 386
385 432
385 433
386 387
386 432
386 433
387 388
387 433
387 434
388 434
388 435
389 390
389 436
389 437
390 391
390 437
390 438
391 392
391 438
392 393
392 438
392 439
393 394
393 439
393 440
394 439
394 440
394 441
395 396
395 441
396 397
396 442
397 442
397 443
398 399
398 443
398 444
398 445
399 400
399 444
399 445
399 446
400 401
400 445
400 446
400 447
401 402
401 446
401 447
401 448
402 403
402 447
402 448
402 449
403 404
403 448
403 449
403 450
404 405
404 449
404 450
405 406
405 450
405 451
406 451
406 452
407 408
407 452
407 453
407 454
408 453
408 454
409 455
409 456
410 411
410 456
410 457
410 458
411 412
411 457
411 458
411 459
412 413
412 458
412 459
412 460
413 459
413 460
413 461
414 415
414 461
414 462
414 463
415 462
415 463
415 464
416 417
416 464
416 465
417 418
417 465
417 466
418 419
418 466
418 467
419 420
419 466
419 467
419 468
420 421
420 467
420 468
421 422
421 468
421 469
422 423
422 469
422 470
423 424
423 469
423 470
424 425
424 470
424 471
425 426
425 471
426 427
426 471
426 472
427 472
427 473
428 473
428 474
429 475
429 476
430 431
430 476
430 477
430 478
431 477
431 478
431 479
432 433
432 479
432 480
432 481
433 480
433 481
433 482
434 435
434 482
434 483
435 436
435 483
435 484
436 437
436 483
436 484
436 485
437 484
437 485
437 486
438 486
438 487
439 440
439 488
439 489
440 441
440 488
440 489
440 490
441 489
441 490
441 491
442 443
442 492
442 493
443 444
443 493
443 494
444 445
444 493
444 494
445 446
445 494
445 495
446 447
446 495
446 496
447 448
447 495
447 496
447 497
448 449
448 496
448 497
448 498
449 450
449 497
449 498
450 498
450 499
451 452
451 499
451 500
452 453
452 500
452 501
453 454
453 501
453 502
454 501
454 502
454 503
455 456
455 503
455 504
455 505
456 457
456 504
456 505
456 506
457 458
457 505
457 506
457 507
458 459
458 506
458 507
458 508
459 460
459 507
459 508
459 509
460 461
460 508
460 509
460 510
461 462
461 509
461 510
461 511
462 463
462 510
462 511
463 464
463 511
463 512
464 465
464 512
465 512
465 513
466 467
466 513
466 514
467 468
467 514
467 515
468 515
468 516
469 470
469 516
469 517
470 517
470 518
471 518
471 519
471 520
472 473
472 520
472 521
473 521
473 522
474 522
474 523
475 476
475 524
475 525
476 477
476 524
476 525
476 526
477 478
477 525
477 526
478 479
478 526
478 527
479 480
479 527
479 528
480 481
480 527
480 528
480 529
481 482
481 528
481 529
481 530
482 529
482 530
482 531
483 484
483 531
483 532
484 485
484 532
484 533
485 486
485 532
485 533
485 534
486 487
486 533
486 534
486 535
487 534
487 535
487 536
488 489
488 536
488 537
488 538
489 490
489 537
489 538
489 539
490 491
490 538
490 539
490 540
491 492
491 539
491 540
491 541
492 540
492 541
492 542
493 494
493 542
493 543
494 543
494 544
495 496
495 544
495 545
496 497
496 545
496 546
497 498
497 546
498 546
498 547
499 500
499 547
499 548
500 548
500 549
501 502
501 549
501 550
501 551
502 503
502 550
502 551
503 504
503 551
503 552
504 505
504 552
504 553
505 506
505 552
505 553
505 554
506 507
506 553
506 554
506 555
507 508
507 554
507 555
507 556
508 509
508 555
508 556
508 557
509 510
509 556
509 557
509 558
510 511
510 557
510 558
511 558
511 559
512 559
512 560
512 561
513 514
513 561
513 562
513 563
514 562
514 563
515 516
515 564
515 565
516 517
516 564
516 565
516 566
517 565
517 566
517 567
518 519
518 567
519 520
519 568
520 521
520 568
520 569
521 568
521 569
522 523
522 570
523 570
524 525
524 571
524 572
525 526
525 571
525 572
525 573
526 572
526 573
526 574
527 528
527 574
527 575
527 576
528 529
528 575
528 576
528 577
529 530
529 576
529 577
529 578
530 531
530 577
530 578
530 579
531 578
531 579
532 533
532 580
533 534
533 580
533 581
534 535
534 580
534 581
534 582
535 536
535 581
535 582
535 583
536 537
536 582
536 583
536 584
537 538
537 583
537 584
538 539
538 584
538 585
539 540
539 585
539 586
540 541
540 585
540 586
540 587
541 542
541 586
541 587
541 588
542 587
542 588
542 589
543 544
543 589
543 590
543 591
544 545
544 590
544 591
544 592
545 591
545 592
545 593
546 593
546 594
546 595
547 548
547 595
547 596
547 597
548 596
548 597
548 598
549 550
549 598
549 599
549 600
550 551
550 599
550 600
551 600
552 553
552 601
553 554
553 601
553 602
554 555
554 602
555 556
555 602
555 603
556 557
556 603
556 604
557 558
557 603
557 604
557 605
558 604
558 605
558 606
559 560
559 606
559 607
559 608
560 561
560 607
560 608
560 609
561 562
561 608
561 609
562 563
562 609
563 610
564 565
564 610
564 611
564 612
565 566
565 611
565 612
565 613
566 567
566 612
566 613
566 614
567 613
567 614
567 615
568 569
568 616
568 617
568 618
569 617
569 618
569 619
570 620
570 621
571 572
571 622
572 573
572 622
573 574
573 622
573 623
574 575
574 623
574 624
575 576
575 623
575 624
575 625
576 577
576 624
576 625
576 626
577 578
577 625
577 626
577 627
578 579
578 626
578 627
578 628
579 627
579 628
579 629
580 581
580 630
580 631
580 632
581 582
581 631
581 632
581 633
582 583
582 632
582 633
582 634
583 584
583 633
583 634
583 635
584 634
584 635
584 636
585 586
585 636
585 637
585 638
586 587
586 637
586 638
586 639
587 588
587 638
587 639
587 640
588 589
588 639
588 640
588 641
589 590
589 640
589 641
589 642
590 591
590 641
590 642
590 643
591 592
591 642
591 643
591 644
592 593
592 643
592 644
593 594
593 644
593 645
594 595
594 645
594 646
595 596
595 645
595 646
595 647
596 597
596 646
596 647
596 648
597 598
597 647
597 648
598 599
598 648
598 649
599 600
599 649
600 649
600 650
601 651
601 652
601 653
602 653
602 654
602 655
603 604
603 655
603 656
604 605
604 656
604 657
605 606
605 656
605 657
605 658
606 607
606 657
606 658
606 659
607 608
607 658
607 659
607 660
608 609
608 659
608 660
608 661
609 660
609 661
610 611
610 662
610 663
610 664
611 612
611 663
611 664
611 665
612 613
612 664
612 665
613 614
613 665
613 666
614 615
614 666
615 616
615 666
616 617
616 667
617 618
617 667
617 668
618 619
618 667
618 668
618 669
619 620
619 668
619 669
620 621
620 669
620 670
621 670
622 671
622 672
622 673
623 624
623 673
623 674
624 625
624 674
624 675
625 626
625 675
625 676
626 627
626 675
626 676
626 677
627 628
627 676
627 677
627 678
628 629
628 677
628 678
628 679
629 630
629 678
629 679
629 680
630 631
630 679
630 680
631 632
631 680
631 681
632 633
632 681
632 682
633 634
633 681
633 682
633 683
634 635
634 682
634 683
635 636
635 683
635 684
636 637
636 684
636 685
637 638
637 684
637 685
637 686
638 639
638 685
638 686
638 687
639 640
639 686
639 687
639 688
640 641
640 687
640 688
640 689
641 642
641 688
641 689
641 690
642 643
642 689
642 690
642 691
643 644
643 690
643 691
643 692
644 691
644 692
644 693
645 646
645 693
646 647
646 694
647 648
647 694
647 695
648 694
648 695
648 696
649 696
649 697
650 651
650 698
650 699
651 652
651 698
651 699
651 700
652 653
652 699
652 700
652 701
653 654
653 700
653 701
654 655
654 701
655 702
656 657
656 702
656 703
656 704
657 658
657 703
657 704
657 705
658 659
658 704
658 705
658 706
659 660
659 705
659 706
659 707
660 661
660 706
660 707
660 708
661 707
661 708
661 709
662 663
662 709
662 710
662 711
663 664
663 710
663 711
663 712
664 665
664 711
664 712
664 713
665 712
665 713
665 714
666 714
666 715
666 716
667 668
667 717
667 718
667 719
668 669
668 718
668 719
668 720
669 719
669 720
670 721
671 672
671 722
671 723
672 673
672 722
672 723
673 674
673 723
673 724
674 724
674 725
675 676
675 725
675 726
675 727
676 677
676 726
676 727
676 728
677 678
677 727
677 728
677 729
678 679
678 728
678 729
678 730
679 680
679 729
679 730
679 731
680 730
680 731
680 732
681 682
681 732
681 733
682 683
682 733
682 734
683 733
683 734
683 735
684 685
684 735
684 736
685 686
685 736
685 737
686 687
686 737
686 738
687 688
687 737
687 738
687 739
688 689
688 738
688 739
688 740
689 690
689 739
689 740
689 741
690 691
690 740
690 741
690 742
691 692
691 741
691 742
691 743
692 693
692 742
692 743
693 743
694 695
694 744
694 745
694 746
695 696
695 745
695 746
695 747
696 697
696 746
696 747
697 747
697 748
698 699
698 748
698 749
698 750
699 700
699 749
699 750
699 751
700 701
700 750
700 751
700 752
701 751
701 752
701 753
702 703
702 754
702 755
703 704
703 755
703 756
704 705
704 755
704 756
704 757
705 706
705 756
705 757
705 758
706 707
706 757
706 758
706 759
707 708
707 758
707 759
707 760
708 709
708 759
708 760
708 761
709 710
709 760
709 761
709 762
710 711
710 761
710 762
711 712
711 762
711 763
712 713
712 763
712 764
713 714
713 763
713 764
714 715
714 764
714 765
715 716
715 765
715 766
716 717
716 765
716 766
716 767
717 718
717 766
717 767
717 768
718 719
718 767
718 768
719 720
719 768
719 769
720 769
720 770
721 770
721 771
722 723
722 772
723 772
723 773
724 725
724 773
724 774
724 775
725 726
725 774
725 775
725 776
726 727
726 775
726 776
727 728
727 776
728 729
729 730
729 777
730 731
730 777
730 778
731 732
731 777
731 778
731 779
732 778
732 779
732 780
733 734
733 780
733 781
733 782
734 735
734 781
734 782
735 736
735 782
735 783
736 783
736 784
737 738
737 784
737 785
738 739
738 785
739 740
740 741
740 786
741 742
741 786
741 787
742 743
742 786
742 787
742 788
743 787
743 788
743 789
744 745
744 790
744 791
744 792
745 746
745 791
745 792
745 793
746 747
746 792
746 793
746 794
747 793
747 794
747 795
748 749
748 795
748 796
748 797
749 750
749 796
749 797
750 751
750 797
750 798
751 752
751 798
751 799
752 753
752 798
752 799
752 800
753 754
753 799
753 800
753 801
754 800
754 801
754 802
755 756
755 802
755 803
755 804
756 757
756 803
756 804
757 758
757 804
758 759
758 805
759 760
759 805
759 806
760 761
760 805
760 806
761 762
761 806
761 807
762 807
763 764
763 808
763 809
764 808
764 809
764 810
765 766
765 810
765 811
765 812
766 767
766 811
766 812
766 813
767 768
767 812
767 813
768 813
768 814
769 770
769 814
769 815
770 771
770 815
770 816
771 816
772 773
772 817
772 818
773 774
773 818
773 819
774 775
774 819
774 820
775 776
775 819
775 820
775 821
776 820
776 821
776 822
777 778
777 824
777 825
777 826
778 779
778 825
778 826
779 780
779 826
779 827
780 781
780 827
780 828
781 782
781 827
781 828
781 829
782 828
782 829
782 830
783 784
783 830
783 831
783 832
784 785
784 831
784 832
784 833
785 832
785 833
786 787
786 835
786 836
786 837
787 788
787 836
787 837
787 838
788 789
788 837
788 838
788 839
789 790
789 838
789 839
790 791
790 839
790 840
791 792
791 840
791 841
792 793
792 840
792 841
792 842
793 794
793 841
793 842
793 843
794 795
794 842
794 843
794 844
795 796
795 843
795 844
796 797
796 844
796 845
797 845
797 846
798 799
798 846
798 847
799 800
799 847
799 848
800 801
800 848
800 849
801 802
801 848
801 849
801 850
802 803
802 849
802 850
802 851
803 804
803 850
803 851
803 852
804 851
804 852
804 853
805 806
805 854
805 855
806 855
806 856
807 856
807 857
808 809
808 857
808 858
808 859
809 810
809 858
809 859
809 860
810 811
810 859
810 860
810 861
811 812
811 860
811 861
811 862
812 813
812 861
812 862
812 863
813 862
813 863
814 815
814 864
814 865
815 864
815 865
815 866
816 866
816 867
817 818
817 868
818 868
818 869
819 820
819 869
819 870
819 871
820 821
820 870
820 871
821 822
821 871
822 823
822 872
823 824
823 872
824 825
824 872
824 873
825 826
825 873
825 874
826 873
826 874
826 875
827 828
827 875
827 876
827 877
828 829
828 876
828 877
828 878
829 830
829 877
829 878
830 831
830 878
830 879
831 832
831 879
831 880
832 833
832 879
832 880
832 881
833 880
833 881
833 882
834 835
834 882
835 836
835 883
836 837
836 883
836 884
837 838
837 883
837 884
837 885
838 839
838 884
838 885
838 886
839 885
839 886
840 841
840 887
841 842
841 887
841 888
842 843
842 888
842 889
843 844
843 888
843 889
843 890
844 889
844 890
844 891
845 846
845 891
845 892
845 893
846 847
846 892
846 893
846 894
847 893
847 894
847 895
848 849
848 895
848 896
848 897
849 850
849 896
849 897
849 898
850 851
850 897
850 898
850 899
851 852
851 898
851 899
851 900
852 853
852 899
852 900
853 854
853 900
853 901
854 855
854 901
854 902
855 901
855 902
855 903
856 903
856 904
856 905
857 858
857 905
857 906
857 907
858 859
858 906
858 907
858 908
859 860
859 907
859 908
859 909
860 861
860 908
860 909
861 862
861 909
861 910
862 863
862 910
862 911
863 910
863 911
863 912
864 865
864 912
864 913
864 914
865 866
865 913
865 914
865 915
866 867
866 914
866 915
866 916
867 915
867 916
868 869
868 917
869 870
869 918
870 871
870 918
870 919
871 918
871 919
871 920
872 921
872 922
873 874
873 922
873 923
873 924
874 875
874 923
874 924
874 925
875 876
875 924
875 925
875 926
876 877
876 925
876 926
876 927
877 878
877 926
877 927
877 928
878 927
878 928
879 880
879 929
880 881
880 929
880 930
881 882
881 929
881 930
881 931
882 930
882 931
882 932
883 884
883 933
883 934
883 935
884 885
884 934
884 935
885 886
885 935
885 936
886 936
886 937
887 937
887 938
887 939
888 889
888 939
888 940
889 890
889 940
889 941
890 891
890 940
890 941
891 892
891 941
892 893
892 942
893 894
893 942
893 943
894 895
894 942
894 943
895 896
895 943
895 944
896 897
896 944
896 945
897 898
897 944
897 945
898 899
898 945
899 900
899 946
900 946
901 902
901 947
901 948
902 903
902 947
902 948
902 949
903 904
903 948
903 949
903 950
904 905
904 949
904 950
905 906
905 950
906 907
906 951
907 908
907 951
907 952
908 909
908 951
908 952
908 953
909 952
909 953
909 954
910 911
910 954
910 955
910 956
911 912
911 955
911 956
911 957
912 913
912 956
912 957
912 958
913 914
913 957
913 958
913 959
914 915
914 958
914 959
914 960
915 916
915 959
915 960
916 960
917 961
917 962
918 919
918 963
918 964
918 965
919 920
919 964
919 965
919 966
920 965
920 966
920 967
921 922
921 967
921 968
921 969
922 923
922 968
922 969
922 970
923 924
923 969
923 970
923 971
924 925
924 970
924 971
924 972
925 926
925 971
925 972
926 927
926 972
926 973
927 928
927 973
928 973
928 974
929 930
929 975
929 976
929 977
930 931
930 976
930 977
930 978
931 932
931 977
931 978
931 979
932 933
932 978
932 979
932 980
933 934
933 979
933 980
933 981
934 935
934 980
934 981
934 982
935 981
935 982
935 983
936 937
936 983
936 984
936 985
937 938
937 984
937 985
938 939
938 985
938 986
939 986
940 941
940 987
941 987
941 988
942 943
942 989
942 990
943 990
943 991
944 945
944 991
944 992
944 993
945 992
945 993
945 994
947 948
947 995
947 996
948 949
948 995
948 996
948 997
949 950
949 996
949 997
949 998
950 997
950 998
951 952
951 999
951 1000
951 1001
952 953
952 1000
952 1001
952 1002
953 954
953 1001
953 1002
954 955
954 1002
954 1003
955 956
955 1003
956 957
956 1003
956 1004
957 958
957 1004
957 1005
958 959
958 1004
958 1005
958 1006
959 960
959 1005
959 1006
959 1007
960 1006
960 1007
960 1008
961 962
961 1009
961 1010
962 963
962 1009
962 1010
962 1011
963 964
963 1010
963 1011
964 965
964 1011
964 1012
965 966
965 1012
966 967
966 1012
966 1013
967 968
967 1013
968 969
968 1013
968 1014
969 970
969 1014
969 1015
970 971
970 1014
970 1015
970 1016
971 972
971 1015
971 1016
971 1017
972 1016
972 1017
972 1018
973 1018
973 1019
973 1020
974 975
974 1020
974 1021
974 1022
975 976
975 1021
975 1022
975 1023
976 977
976 1022
976 1023
976 1024
977 978
977 1023
977 1024
977 1025
978 979
978 1024
978 1025
978 1026
979 980
979 1025
979 1026
979 1027
980 981
980 1026
980 1027
980 1028
981 982
981 1027
981 1028
982 983
982 1028
982 1029
983 984
983 1029
984 985
984 1029
984 1030
985 1030
985 1031
986 1031
986 1032
986 1033
987 1033
987 1034
987 1035
988 989
988 1035
988 1036
988 1037
989 1036
989 1037
989 1038
990 991
990 1038
990 1039
991 992
991 1039
992 993
992 1039
992 1040
993 994
993 1040
993 1041
994 1040
994 1041
994 1042
995 996
995 1043
995 1044
995 1045
996 997
996 1044
996 1045
996 1046
997 998
997 1045
997 1046
998 1046
998 1047
999 1000
999 1047
999 1048
1000 1001
1000 1048
1001 1002
1001 1048
1001 1049
1002 1049
1002 1050
1003 1050
1004 1005
1004 1051
1004 1052
1005 1006
1005 1051
1005 1052
1005 1053
1006 1007
1006 1052
1006 1053
1006 1054
1007 1008
1007 1053
1007 1054
1007 1055
1008 1054
1008 1055
1009 1010
1009 1056
1010 1011
1010 1056
1010 1057
1011 1056
1011 1057
1011 1058
1012 1058
1012 1059
1013 1060
1013 1061
1014 1015
1014 1061
1014 1062
1014 1063
1015 1016
1015 1062
1015 1063
1015 1064
1016 1017
1016 1063
1016 1064
1016 1065
1017 1018
1017 1064
1017 1065
1017 1066
1018 1019
1018 1065
1018 1066
1018 1067
1019 1020
1019 1066
1019 1067
1019 1068
1020 1021
1020 1067
1020 1068
1020 1069
1021 1022
1021 1068
1021 1069
1021 1070
1022 1023
1022 1069
1022 1070
1022 1071
1023 1024
1023 1070
1023 1071
1023 1072
1024 1025
1024 1071
1024 1072
1024 1073
1025 1026
1025 1072
1025 1073
1025 1074
1026 1027
1026 1073
1026 1074
1026 1075
1027 1028
1027 1074
1027 1075
1028 1075
1028 1076
1029 1076
1029 1077
1030 1031
1030 1077
1031 1032
1031 1078
1032 1033
1032 1078
1032 1079
1033 1034
1033 1078
1033 1079
1034 1035
1034 1079
1035 1036
1036 1037
1036 1080
1037 1038
1037 1080
1038 1080
1038 1081
1039 1081
1039 1082
1040 1041
1040 1082
1040 1083
1041 1042
1041 1083
1041 1084
1042 1083
1042 1084
1042 1085
1043 1044
1043 1085
1043 1086
1043 1087
1044 1045
1044 1086
1044 1087
1045 1046
1045 1087
1045 1088
1046 1088
1046 1089
1047 1089
1047 1090
1047 1091
1048 1091
1048 1092
1048 1093
1049 1050
1049 1093
1049 1094
1050 1094
1050 1095
1051 1052
1051 1096
1051 1097
1051 1098
1052 1053
1052 1097
1052 1098
1052 1099
1053 1054
1053 1098
1053 1099
1053 1100
1054 1055
1054 1099
1054 1100
1054 1101
1055 1100
1055 1101
1056 1057
1056 1102
1056 1103
1056 1104
1057 1058
1057 1103
1057 1104
1057 1105
1058 1059
1058 1104
1058 1105
1058 1106
1059 1105
1059 1106
1059 1107
1060 1061
1060 1107
1060 1108
1060 1109
1061 1062
1061 1108
1061 1109
1061 1110
1062 1063
1062 1109
1062 1110
1062 1111
1063 1064
1063 1110
1063 1111
1063 1112
1064 1065
1064 1111
1064 1112
1064 1113
1065 1066
1065 1112
1065 1113
1066 1067
1066 1113
1066 1114
1067 1068
1067 1114
1067 1115
1068 1069
1068 1114
1068 1115
1068 1116
1069 1070
1069 1115
1069 1116
1069 1117
1070 1071
1070 1116
1070 1117
1070 1118
1071 1072
1071 1117
1071 1118
1071 1119
1072 1073
1072 1118
1072 1119
1072 1120
1073 1074
1073 1119
1073 1120
1073 1121
1074 1075
1074 1120
1074 1121
1075 1121
1075 1122
1076 1122
1076 1123
1076 1124
1077 1124
1077 1125
1078 1079
1078 1126
1079 1127
1080 1129
1080 1130
1080 1131
1081 1131
1081 1132
1081 1133
1082 1133
1082 1134
1082 1135
1083 1084
1083 1135
1083 1136
1084 1085
1084 1136
1084 1137
1085 1086
1085 1136
1085 1137
1085 1138
1086 1087
1086 1137
1086 1138
1086 1139
1087 1138
1087 1139
1087 1140
1088 1089
1088 1140
1088 1141
1088 1142
1089 1090
1089 1141
1089 1142
1089 1143
1090 1091
1090 1142
1090 1143
1090 1144
1091 1092
1091 1143
1091 1144
1091 1145
1092 1093
1092 1144
1092 1145
1092 1146
1093 1145
1093 1146
1094 1095
1094 1147
1094 1148
1095 1096
1095 1147
1095 1148
1095 1149
1096 1097
1096 1148
1096 1149
1097 1098
1097 1149
1097 1150
1098 1099
1098 1150
1098 1151
1099 1100
1099 1150
1099 1151
1100 1101
1100 1151
1100 1152
1101 1152
1102 1103
1102 1153
1102 1154
1103 1104
1103 1153
1103 1154
1103 1155
1104 1105
1104 1154
1104 1155
1104 1156
1105 1106
1105 1155
1105 1156
1105 1157
1106 1107
1106 1156
1106 1157
1106 1158
1107 1108
1107 1157
1107 1158
1107 1159
1108 1109
1108 1158
1108 1159
1108 1160
1109 1110
1109 1159
1109 1160
1109 1161
1110 1111
1110 1160
1110 1161
1110 1162
1111 1112
1111 1161
1111 1162
1111 1163
1112 1113
1112 1162
1112 1163
1112 1164
1113 1163
1113 1164
1113 1165
1114 1115
1114 1165
1114 1166
1115 1116
1115 1166
1115 1167
1116 1117
1116 1167
1116 1168
1117 1118
1117 1167
1117 1168
1117 1169
1118 1119
1118 1168
1118 1169
1119 1120
1119 1169
1119 1170
1120 1121
1120 1170
1120 1171
1121 1170
1121 1171
1121 1172
1122 1123
1122 1172
1122 1173
1122 1174
1123 1124
1123 1173
1123 1174
1123 1175
1124 1174
1124 1175
1124 1176
1125 1126
1125 1176
1125 1177
1126 1177
1126 1178
1127 1128
1127 1179
1127 1180
1128 1129
1128 1180
1128 1181
1129 1130
1129 1181
1129 1182
1130 1131
1130 1181
1130 1182
1130 1183
1131 1132
1131 1182
1131 1183
1131 1184
1132 1133
1132 1183
1132 1184
1132 1185
1133 1134
1133 1184
1133 1185
1133 1186
1134 1135
1134 1185
1134 1186
1135 1186
1135 1187
1136 1137
1136 1187
1137 1138
1137 1188
1138 1139
1138 1188
1138 1189
1139 1140
1139 1188
1139 1189
1139 1190
1140 1141
1140 1189
1140 1190
1140 1191
1141 1142
1141 1190
1141 1191
1141 1192
1142 1143
1142 1191
1142 1192
1142 1193
1143 1144
1143 1192
1143 1193
1144 1145
1144 1193
1144 1194
1145 1146
1145 1194
1145 1195
1146 1194
1146 1195
1146 1196
1147 1148
1147 1196
1147 1197
1148 1149
1148 1197
1148 1198
1149 1197
1149 1198
1149 1199
1150 1151
1150 1199
1150 1200
1150 1201
1151 1200
1151 1201
1153 1154
1153 1202
1154 1155
1154 1202
1155 1156
1155 1203
1156 1157
1156 1203
1157 1158
1157 1203
1157 1204
1158 1159
1158 1204
1159 1160
1159 1204
1159 1205
1160 1161
1160 1205
1160 1206
1161 1162
1161 1205
1161 1206
1161 1207
1162 1163
1162 1206
1162 1207
1162 1208
1163 1164
1163 1207
1163 1208
1164 1165
1164 1208
1164 1209
1165 1166
1165 1209
1165 1210
1166 1209
1166 1210
1166 1211
1167 1168
1167 1211
1167 1212
1167 1213
1168 1169
1168 1212
1168 1213
1168 1214
1169 1213
1169 1214
1169 1215
1170 1171
1170 1215
1170 1216
1170 1217
1171 1172
1171 1216
1171 1217
1171 1218
1172 1173
1172 1217
1172 1218
1172 1219
1173 1174
1173 1218
1173 1219
1173 1220
1174 1175
1174 1219
1174 1220
1174 1221
1175 1176
1175 1220
1175 1221
1175 1222
1176 1177
1176 1221
1176 1222
1176 1223
1177 1222
1177 1223
1178 1179
1178 1224
1178 1225
1179 1180
1179 1224
1179 1225
1180 1225
1180 1226
1181 1182
1181 1226
1181 1227
1182 1183
1182 1227
1183 1184
1183 1228
1184 1185
1184 1228
1184 1229
1185 1186
1185 1228
1185 1229
1185 1230
1186 1229
1186 1230
1186 1231
1187 1231
1187 1232
1187 1233
1188 1189
1188 1234
1188 1235
1188 1236
1189 1190
1189 1235
1189 1236
1189 1237
1190 1191
1190 1236
1190 1237
1190 1238
1191 1192
1191 1237
1191 1238
1191 1239
1192 1193
1192 1238
1192 1239
1192 1240
1193 1239
1193 1240
1193 1241
1194 1195
1194 1241
1194 1242
1194 1243
1195 1196
1195 1242
1195 1243
1195 1244
1196 1243
1196 1244
1196 1245
1197 1198
1197 1245
1197 1246
1198 1199
1198 1246
1198 1247
1199 1200
1199 1246
1199 1247
1199 1248
1200 1201
1200 1247
1200 1248
1200 1249
1201 1248
1201 1249
1201 1250
1202 1252
1202 1253
1203 1254
1203 1255
1203 1256
1204 1256
1204 1257
1204 1258
1205 1206
1205 1258
1205 1259
1205 1260
1206 1207
1206 1259
1206 1260
1206 1261
1207 1208
1207 1260
1207 1261
1207 1262
1208 1261
1208 1262
1208 1263
1209 1210
1209 1263
1209 1264
1209 1265
1210 1211
1210 1264
1210 1265
1210 1266
1211 1212
1211 1265
1211 1266
1211 1267
1212 1213
1212 1266
1212 1267
1212 1268
1213 1214
1213 1267
1213 1268
1213 1269
1214 1215
1214 1268
1214 1269
1215 1216
1215 1269
1216 1217
1216 1270
1217 1218
1217 1270
1217 1271
1218 1219
1218 1270
1218 1271
1218 1272
1219 1220
1219 1271
1219 1272
1219 1273
1220 1221
1220 1272
1220 1273
1221 1222
1221 1273
1221 1274
1222 1223
1222 1274
1222 1275
1223 1274
1223 1275
1223 1276
1224 1225
1224 1276
1224 1277
1224 1278
1225 1277
1225 1278
1225 1279
1226 1227
1226 1279
1226 1280
1226 1281
1227 1280
1227 1281
1227 1282
1228 1229
1228 1283
1228 1284
1229 1230
1229 1283
1229 1284
1229 1285
1230 1231
1230 1284
1230 1285
1231 1232
1231 1285
1231 1286
1232 1233
1232 1286
1232 1287
1233 1234
1233 1286
1233 1287
1234 1235
1234 1287
1235 1236
1235 1288
1236 1237
1236 1288
1236 1289
1237 1238
1237 1288
1237 1289
1237 1290
1238 1239
1238 1289
1238 1290
1239 1240
1239 1290
1239 1291
1240 1241
1240 1291
1240 1292
1241 1242
1241 1291
1241 1292
1241 1293
1242 1243
1242 1292
1242 1293
1242 1294
1243 1244
1243 1293
1243 1294
1243 1295
1244 1245
1244 1294
1244 1295
1245 1295
1246 1247
1246 1296
1246 1297
1247 1248
1247 1296
1247 1297
1247 1298
1248 1249
1248 1297
1248 1298
1248 1299
1249 1250
1249 1298
1249 1299
1249 1300
1250 1251
1250 1299
1250 1300
1250 1301
1251 1300
1251 1301
1252 1253
1252 1302
1253 1254
1253 1302
1254 1255
1255 1256
1255 1303
1256 1257
1256 1303
1256 1304
1257 1258
1257 1303
1257 1304
1257 1305
1258 1259
1258 1304
1258 1305
1258 1306
1259 1260
1259 1305
1259 1306
1260 1261
1260 1306
1261 1262
1261 1307
1262 1263
1262 1307
1263 1264
1263 1307
1263 1308
1264 1265
1264 1308
1264 1309
1265 1266
1265 1308
1265 1309
1265 1310
1266 1267
1266 1309
1266 1310
1266 1311
1267 1268
1267 1310
1267 1311
1267 1312
1268 1269
1268 1311
1268 1312
1268 1313
1269 1312
1269 1313
1270 1271
1270 1314
1271 1272
1271 1314
1271 1315
1272 1273
1272 1314
1272 1315
1272 1316
1273 1315
1273 1316
1273 1317
1274 1275
1274 1317
1274 1318
1274 1319
1275 1276
1275 1318
1275 1319
1275 1320
1276 1277
1276 1319
1276 1320
1277 1278
1277 1320
1277 1321
1278 1279
1278 1321
1278 1322
1279 1280
1279 1321
1279 1322
1279 1323
1280 1281
1280 1322
1280 1323
1280 1324
1281 1282
1281 1323
1281 1324
1281 1325
1282 1324
1282 1325
1282 1326
1283 1284
1283 1326
1283 1327
1283 1328
1284 1285
1284 1327
1284 1328
1284 1329
1285 1328
1285 1329
1285 1330
1286 1287
1286 1330
1286 1331
1287 1331
1287 1332
1288 1289
1288 1333
1288 1334
1288 1335
1289 1290
1289 1334
1289 1335
1290 1335
1290 1336
1291 1292
1291 1336
1291 1337
1291 1338
1292 1293
1292 1337
1292 1338
1292 1339
1293 1294
1293 1338
1293 1339
1293 1340
1294 1295
1294 1339
1294 1340
1294 1341
1295 1340
1295 1341
1295 1342
1296 1297
1296 1343
1296 1344
1296 1345
1297 1298
1297 1344
1297 1345
1298 1299
1298 1345
1298 1346
1299 1300
1299 1346
1300 1301
1300 1346
1300 1347
1301 1347
1302 1348
1302 1349
1303 1304
1303 1351
1303 1352
1303 1353
1304 1305
1304 1352
1304 1353
1304 1354
1305 1306
1305 1353
1305 1354
1306 1354
1306 1355
1307 1356
1307 1357
1307 1358
1308 1309
1308 1358
1308 1359
1308 1360
1309 1310
1309 1359
1309 1360
1309 1361
1310 1311
1310 1360
1310 1361
1311 1312
1311 1361
1311 1362
1312 1313
1312 1362
1312 1363
1313 1362
1313 1363
1313 1364
1314 1315
1314 1366
1314 1367
1314 1368
1315 1316
1315 1367
1315 1368
1315 1369
1316 1317
1316 1368
1316 1369
1316 1370
1317 1318
1317 1369
1317 1370
1318 1319
1318 1370
1318 1371
1319 1320
1319 1371
1319 1372
1320 1371
1320 1372
1320 1373
1321 1322
1321 1373
1321 1374
1321 1375
1322 1323
1322 1374
1322 1375
1322 1376
1323 1324
1323 1375
1323 1376
1324 1325
1324 1376
1324 1377
1325 1326
1325 1377
1326 1327
1326 1377
1326 1378
1327 1328
1327 1378
1327 1379
1328 1329
1328 1378
1328 1379
1328 1380
1329 1330
1329 1379
1329 1380
1329 1381
1330 1380
1330 1381
1330 1382
1331 1332
1331 1382
1331 1383
1331 1384
1332 1333
1332 1383
1332 1384
1333 1334
1333 1384
1334 1335
1334 1385
1335 1385
1335 1386
1336 1337
1336 1386
1336 1387
1336 1388
1337 1338
1337 1387
1337 1388
1337 1389
1338 1339
1338 1388
1338 1389
1338 1390
1339 1340
1339 1389
1339 1390
1340 1341
1340 1390
1340 1391
1341 1342
1341 1391
1341 1392
1342 1343
1342 1391
1342 1392
1342 1393
1343 1344
1343 1392
1343 1393
1343 1394
1344 1345
1344 1393
1344 1394
1344 1395
1345 1394
1345 1395
1345 1396
1346 1396
1346 1397
1346 1398
1347 1398
1347 1399
1348 1349
1348 1400
1348 1401
1349 1350
1349 1400
1349 1401
1350 1351
1350 1401
1350 1402
1351 1352
1351 1402
1351 1403
1352 1353
1352 1402
1352 1403
1352 1404
1353 1354
1353 1403
1353 1404
1354 1404
1354 1405
1355 1356
1355 1405
1355 1406
1355 1407
1356 1357
1356 1406
1356 1407
1356 1408
1357 1358
1357 1407
1357 1408
1357 1409
1358 1359
1358 1408
1358 1409
1358 1410
1359 1360
1359 1409
1359 1410
1359 1411
1360 1361
1360 1410
1360 1411
1360 1412
1361 1411
1361 1412
1361 1413
1362 1363
1362 1413
1363 1364
1364 1365
1365 1366
1365 1414
1366 1367
1366 1414
1366 1415
1367 1368
1367 1414
1367 1415
1367 1416
1368 1369
1368 1415
1368 1416
1369 1370
1369 1416
1369 1417
1370 1417
1370 1418
1371 1372
1371 1418
1371 1419
1371 1420
1372 1373
1372 1419
1372 1420
1372 1421
1373 1374
1373 1420
1373 1421
1373 1422
1374 1375
1374 1421
1374 1422
1374 1423
1375 1376
1375 1422
1375 1423
1375 1424
1376 1423
1376 1424
1376 1425
1377 1425
1377 1426
1377 1427
1378 1379
1378 1427
1379 1380
1380 1381
1380 1428
1381 1382
1381 1428
1381 1429
1382 1383
1382 1428
1382 1429
1382 1430
1383 1384
1383 1429
1383 1430
1383 1431
1384 1430
1384 1431
1384 1432
1385 1386
1385 1433
1385 1434
1386 1387
1386 1433
1386 1434
1386 1435
1387 1388
1387 1434
1387 1435
1387 1436
1388 1389
1388 1435
1388 1436
1388 1437
1389 1390
1389 1436
1389 1437
1389 1438
1390 1437
1390 1438
1390 1439
1391 1392
1391 1439
1391 1440
1391 1441
1392 1393
1392 1440
1392 1441
1392 1442
1393 1394
1393 1441
1393 1442
1393 1443
1394 1395
1394 1442
1394 1443
1394 1444
1395 1396
1395 1443
1395 1444
1395 1445
1396 1397
1396 1444
1396 1445
1396 1446
1397 1398
1397 1445
1397 1446
1397 1447
1398 1399
1398 1446
1398 1447
1398 1448
1399 1447
1399 1448
1400 1401
1400 1449
1400 1450
1401 1449
1401 1450
1401 1451
1402 1403
1402 1451
1403 1404
1403 1452
1404 1452
1404 1453
1405 1406
1405 1453
1405 1454
1406 1407
1406 1454
1406 1455
1407 1408
1407 1454
1407 1455
1407 1456
1408 1409
1408 1455
1408 1456
1408 1457
1409 1410
1409 1456
1409 1457
1409 1458
1410 1411
1410 1457
1410 1458
1411 1412
1411 1458
1412 1413
1412 1459
1413 1459
1413 1460
1414 1415
1414 1463
1414 1464
1414 1465
1415 1416
1415 1464
1415 1465
1415 1466
1416 1465
1416 1466
1416 1467
1417 1418
1417 1467
1417 1468
1417 1469
1418 1419
1418 1468
1418 1469
1418 1470
1419 1420
1419 1469
1419 1470
1419 1471
1420 1421
1420 1470
1420 1471
1420 1472
1421 1422
1421 1471
1421 1472
1421 1473
1422 1423
1422 1472
1422 1473
1422 1474
1423 1424
1423 1473
1423 1474
1423 1475
1424 1425
1424 1474
1424 1475
1425 1426
1425 1475
1425 1476
1426 1427
1426 1476
1426 1477
1427 1476
1427 1477
1428 1429
1428 1478
1428 1479
1428 1480
1429 1430
1429 1479
1429 1480
1429 1481
1430 1431
1430 1480
1430 1481
1430 1482
1431 1432
1431 1481
1431 1482
1432 1482
1433 1434
1433 1483
1433 1484
1434 1435
1434 1483
1434 1484
1434 1485
1435 1436
1435 1484
1435 1485
1435 1486
1436 1437
1436 1485
1436 1486
1436 1487
1437 1438
1437 1486
1437 1487
1437 1488
1438 1439
1438 1487
1438 1488
1438 1489
1439 1440
1439 1488
1439 1489
1439 1490
1440 1441
1440 1489
1440 1490
1440 1491
1441 1442
1441 1490
1441 1491
1441 1492
1442 1443
1442 1491
1442 1492
1442 1493
1443 1444
1443 1492
1443 1493
1444 1445
1444 1493
1444 1494
1445 1446
1445 1494
1445 1495
1446 1447
1446 1494
1446 1495
1447 1448
1447 1495
1447 1496
1448 1496
1449 1450
1449 1497
1449 1498
1450 1451
1450 1497
1450 1498
1450 1499
1451 1498
1451 1499
1451 1500
1452 1453
1452 1501
1452 1502
1453 1501
1453 1502
1453 1503
1454 1455
1454 1503
1454 1504
1455 1456
1455 1504
1455 1505
1456 1457
1456 1505
1456 1506
1457 1458
1457 1505
1457 1506
1457 1507
1458 1506
1458 1507
1458 1508
1459 1460
1459 1509
1459 1510
1459 1511
1460 1461
1460 1510
1460 1511
1460 1512
1461 1462
1461 1511
1461 1512
1462 1463
1462 1512
1462 1513
1463 1464
1463 1513
1463 1514
1464 1465
1464 1513
1464 1514
1465 1466
1465 1514
1466 1467
1467 1468
1467 1515
1468 1469
1468 1515
1468 1516
1469 1470
1469 1515
1469 1516
1469 1517
1470 1471
1470 1516
1470 1517
1470 1518
1471 1472
1471 1517
1471 1518
1471 1519
1472 1473
1472 1518
1472 1519
1472 1520
1473 1474
1473 1519
1473 1520
1473 1521
1474 1475
1474 1520
1474 1521
1474 1522
1475 1521
1475 1522
1475 1523
1476 1477
1476 1523
1476 1524
1476 1525
1477 1524
1477 1525
1477 1526
1478 1479
1478 1527
1478 1528
1478 1529
1479 1480
1479 1528
1479 1529
1480 1481
1480 1529
1480 1530
1481 1482
1481 1530
1482 1530
1482 1531
1483 1484
1483 1532
1483 1533
1484 1485
1484 1533
1484 1534
1485 1486
1485 1533
1485 1534
1485 1535
1486 1487
1486 1534
1486 1535
1486 1536
1487 1488
1487 1535
1487 1536
1487 1537
1488 1489
1488 1536
1488 1537
1489 1490
1489 1537
1489 1538
1490 1491
1490 1538
1490 1539
1491 1492
1491 1538
1491 1539
1491 1540
1492 1493
1492 1539
1492 1540
1492 1541
1493 1540
1493 1541
1493 1542
1494 1495
1494 1542
1494 1543
1495 1543
1495 1544
1496 1544
1497 1498
1497 1545
1497 1546
1498 1499
1498 1545
1498 1546
1498 1547
1499 1500
1499 1546
1499 1547
1500 1547
1500 1548
1501 1502
1501 1548
1501 1549
1501 1550
1502 1503
1502 1549
1502 1550
1502 1551
1503 1504
1503 1550
1503 1551
1503 1552
1504 1551
1504 1552
1504 1553
1505 1506
1505 1553
1505 1554
1505 1555
1506 1507
1506 1554
1506 1555
1506 1556
1507 1508
1507 1555
1507 1556
1507 1557
1508 1509
1508 1556
1508 1557
1509 1510
1509 1557
1509 1558
1510 1511
1510 1558
1510 1559
1511 1512
1511 1558
1511 1559
1511 1560
1512 1559
1512 1560
1512 1561
1513 1514
1513 1561
1513 1562
1513 1563
1514 1562
1514 1563
1514 1564
1515 1516
1515 1566
1515 1567
1515 1568
1516 1517
1516 1567
1516 1568
1517 1518
1517 1568
1517 1569
1518 1519
1518 1569
1518 1570
1519 1520
1519 1569
1519 1570
1520 1521
1520 1570
1520 1571
1521 1522
1521 1571
1521 1572
1522 1523
1522 1571
1522 1572
1522 1573
1523 1524
1523 1572
1523 1573
1523 1574
1524 1525
1524 1573
1524 1574
1525 1526
1525 1574
1525 1575
1526 1527
1526 1575
1527 1528
1527 1575
1527 1576
1528 1529
1528 1576
1529 1576
1530 1577
1530 1578
1531 1532
1531 1578
1531 1579
1531 1580
1532 1579
1532 1580
1532 1581
1533 1534
1533 1581
1533 1582
1534 1535
1534 1582
1534 1583
1535 1536
1535 1583
1535 1584
1536 1537
1536 1583
1536 1584
1536 1585
1537 1584
1537 1585
1537 1586
1538 1539
1538 1586
1538 1587
1538 1588
1539 1540
1539 1587
1539 1588
1539 1589
1540 1541
1540 1588
1540 1589
1540 1590
1541 1542
1541 1589
1541 1590
1541 1591
1542 1543
1542 1590
1542 1591
1542 1592
1543 1591
1543 1592
1544 1593
1545 1546
1545 1594
1545 1595
1546 1547
1546 1594
1546 1595
1546 1596
1547 1595
1547 1596
1548 1549
1548 1597
1549 1550
1549 1597
1549 1598
1550 1551
1550 1598
1550 1599
1551 1552
1551 1598
1551 1599
1551 1600
1552 1553
1552 1599
1552 1600
1553 1554
1553 1600
1553 1601
1554 1555
1554 1601
1554 1602
1555 1556
1555 1601
1555 1602
1555 1603
1556 1557
1556 1602
1556 1603
1556 1604
1557 1603
1557 1604
1557 1605
1558 1559
1558 1605
1558 1606
1558 1607
1559 1560
1559 1606
1559 1607
1560 1561
1560 1607
1560 1608
1561 1562
1561 1608
1561 1609
1562 1563
1562 1608
1562 1609
1562 1610
1563 1564
1563 1609
1563 1610
1563 1611
1564 1565
1564 1610
1564 1611
1564 1612
1565 1566
1565 1611
1565 1612
1566 1567
1566 1612
1566 1613
1567 1568
1567 1613
1567 1614
1568 1613
1568 1614
1568 1615
1569 1570
1569 1615
1569 1616
1570 1616
1570 1617
1571 1572
1571 1617
1571 1618
1571 1619
1572 1573
1572 1618
1572 1619
1573 1574
1573 1619
1573 1620
1574 1620
1574 1621
1575 1621
1575 1622
1576 1623
1576 1624
1577 1578
1577 1625
1577 1626
1578 1579
1578 1625
1578 1626
1578 1627
1579 1580
1579 1626
1579 1627
1579 1628
1580 1581
1580 1627
1580 1628
1581 1582
1581 1628
1581 1629
1582 1629
1582 1630
1583 1584
1583 1630
1583 1631
1583 1632
1584 1585
1584 1631
1584 1632
1584 1633
1585 1586
1585 1632
1585 1633
1585 1634
1586 1587
1586 1633
1586 1634
1586 1635
1587 1588
1587 1634
1587 1635
1588 1589
1588 1635
1589 1590
1589 1636
1590 1591
1590 1636
1591 1592
1591 1636
1591 1637
1592 1637
1592 1638
1593 1639
1593 1640
1594 1595
1594 1641
1595 1596
1595 1641
1596 1642
1597 1642
1597 1643
1597 1644
1598 1599
1598 1644
1598 1645
1598 1646
1599 1600
1599 1645
1599 1646
1599 1647
1600 1646
1600 1647
1600 1648
1601 1602
1601 1648
1601 1649
1602 1603
1602 1649
1602 1650
1603 1604
1603 1649
1603 1650
1603 1651
1604 1605
1604 1650
1604 1651
1604 1652
1605 1606
1605 1651
1605 1652
1606 1607
1606 1652
1607 1653
1608 1609
1608 1653
1608 1654
1608 1655
1609 1610
1609 1654
1609 1655
1610 1611
1610 1655
1610 1656
1611 1612
1611 1656
1611 1657
1612 1656
1612 1657
1612 1658
1613 1614
1613 1658
1613 1659
1614 1615
1614 1659
1614 1660
1615 1616
1615 1660
1615 1661
1616 1660
1616 1661
1616 1662
1617 1618
1617 1662
1617 1663
1617 1664
1618 1619
1618 1663
1618 1664
1618 1665
1619 1664
1619 1665
1619 1666
1620 1621
1620 1666
1620 1667
1620 1668
1621 1622
1621 1667
1621 1668
1621 1669
1622 1668
1622 1669
1622 1670
1623 1624
1623 1670
1623 1671
1623 1672
1624 1671
1624 1672
1624 1673
1625 1626
1625 1673
1625 1674
1626 1627
1626 1674
1626 1675
1627 1628
1627 1674
1627 1675
1627 1676
1628 1675
1628 1676
1628 1677
1629 1630
1629 1677
1629 1678
1629 1679
1630 1631
1630 1678
1630 1679
1631 1632
1631 1679
1632 1633
1632 1680
1633 1634
1633 1680
1634 1635
1634 1680
1634 1681
1635 1681
1635 1682
1636 1683
1637 1638
1637 1684
1637 1685
1638 1639
1638 1684
1638 1685
1638 1686
1639 1640
1639 1685
1639 1686
1639 1687
1640 1686
1640 1687
1641 1688
1641 1689
1642 1643
1642 1690
1642 1691
1643 1644
1643 1691
1643 1692
1644 1645
1644 1692
1644 1693
1645 1646
1645 1692
1645 1693
1646 1647
1646 1693
1647 1648
1647 1694
1648 1694
1648 1695
1649 1650
1649 1695
1649 1696
1649 1697
1650 1651
1650 1696
1650 1697
1650 1698
1651 1652
1651 1697
1651 1698
1651 1699
1652 1698
1652 1699
1652 1700
1653 1654
1653 1701
1653 1702
1653 1703
1654 1655
1654 1702
1654 1703
1654 1704
1655 1703
1655 1704
1656 1657
1656 1705
1656 1706
1657 1658
1657 1705
1657 1706
1658 1659
1658 1706
1658 1707
1659 1707
1659 1708
1660 1661
1660 1708
1660 1709
1660 1710
1661 1662
1661 1709
1661 1710
1661 1711
1662 1663
1662 1710
1662 1711
1663 1664
1663 1711
1663 1712
1664 1665
1664 1712
1665 1666
1665 1712
1665 1713
1666 1667
1666 1713
1666 1714
1667 1668
1667 1713
1667 1714
1667 1715
1668 1669
1668 1714
1668 1715
1668 1716
1669 1670
1669 1715
1669 1716
1670 1671
1670 1716
1670 1717
1671 1672
1671 1717
1671 1718
1672 1673
1672 1717
1672 1718
1672 1719
1673 1718
1673 1719
1673 1720
1674 1675
1674 1720
1674 1721
1674 1722
1675 1676
1675 1721
1675 1722
1675 1723
1676 1677
1676 1722
1676 1723
1677 1678
1677 1723
1677 1724
1678 1679
1678 1724
1678 1725
1679 1724
1679 1725
1679 1726
1680 1727
1680 1728
1681 1682
1681 1728
1681 1729
1682 1729
1683 1730
1684 1685
1684 1730
1684 1731
1684 1732
1685 1686
1685 1731
1685 1732
1685 1733
1686 1687
1686 1732
1686 1733
1686 1734
1687 1733
1687 1734
1688 1689
1688 1735
1688 1736
1689 1690
1689 1735
1689 1736
1689 1737
1690 1691
1690 1736
1690 1737
1691 1737
1692 1693
1692 1738
1693 1738
1693 1739
1694 1695
1694 1740
1694 1741
1694 1742
1695 1696
1695 1741
1695 1742
1695 1743
1696 1697
1696 1742
1696 1743
1697 1698
1697 1743
1697 1744
1698 1699
1698 1744
1698 1745
1699 1700
1699 1744
1699 1745
1700 1701
1700 1745
1700 1746
1701 1702
1701 1746
1701 1747
1702 1703
1702 1746
1702 1747
1703 1704
1703 1747
1703 1748
1704 1748
1705 1706
1705 1749
1706 1749
1706 1750
1707 1708
1707 1750
1707 1751
1707 1752
1708 1709
1708 1751
1708 1752
1708 1753
1709 1710
1709 1752
1709 1753
1709 1754
1710 1711
1710 1753
1710 1754
1710 1755
1711 1754
1711 1755
1711 1756
1712 1756
1712 1757
1712 1758
1713 1714
1713 1758
1713 1759
1713 1760
1714 1715
1714 1759
1714 1760
1714 1761
1715 1716
1715 1760
1715 1761
1715 1762
1716 1761
1716 1762
1716 1763
1717 1718
1717 1763
1717 1764
1717 1765
1718 1719
1718 1764
1718 1765
1718 1766
1719 1720
1719 1765
1719 1766
1720 1721
1720 1766
1721 1722
1721 1767
1722 1723
1722 1767
1722 1768
1723 1767
1723 1768
1723 1769
1724 1725
1724 1769
1724 1770
1725 1726
1725 1770
1725 1771
1726 1770
1726 1771
1726 1772
1727 1728
1727 1772
1727 1773
1727 1774
1728 1729
1728 1773
1728 1774
1728 1775
1729 1774
1729 1775
1729 1776
1730 1731
1730 1778
1730 1779
1731 1732
1731 1778
1731 1779
1732 1733
1732 1779
1732 1780
1733 1734
1733 1780
1733 1781
1734 1780
1734 1781
1735 1736
1735 1782
1736 1737
1736 1782
1736 1783
1737 1782
1737 1783
1737 1784
1738 1785
1738 1786
1739 1740
1739 1786
1739 1787
1739 1788
1740 1741
1740 1787
1740 1788
1740 1789
1741 1742
1741 1788
1741 1789
1741 1790
1742 1743
1742 1789
1742 1790
1743 1790
1744 1745
1744 1791
1744 1792
1745 1791
1745 1792
1746 1747
1746 1793
1746 1794
1747 1793
1747 1794
1748 1795
1749 1796
1750 1751
1750 1796
1750 1797
1751 1752
1751 1797
1751 1798
1752 1753
1752 1798
1752 1799
1753 1754
1753 1798
1753 1799
1754 1755
1754 1799
1754 1800
1755 1756
1755 1800
1755 1801
1756 1757
1756 1800
1756 1801
1756 1802
1757 1758
1757 1801
1757 1802
1757 1803
1758 1759
1758 1802
1758 1803
1758 1804
1759 1760
1759 1803
1759 1804
1759 1805
1760 1761
1760 1804
1760 1805
1760 1806
1761 1762
1761 1805
1761 1806
1761 1807
1762 1763
1762 1806
1762 1807
1762 1808
1763 1764
1763 1807
1763 1808
1763 1809
1764 1765
1764 1808
1764 1809
1764 1810
1765 1766
1765 1809
1765 1810
1765 1811
1766 1810
1766 1811
1766 1812
1767 1768
1767 1813
1767 1814
1767 1815
1768 1769
1768 1814
1768 1815
1768 1816
1769 1815
1769 1816
1769 1817
1770 1771
1770 1817
1770 1818
1771 1772
1771 1818
1771 1819
1772 1773
1772 1818
1772 1819
1772 1820
1773 1774
1773 1819
1773 1820
1773 1821
1774 1775
1774 1820
1774 1821
1775 1776
1775 1821
1775 1822
1776 1777
1776 1822
1776 1823
1777 1822
1777 1823
1777 1824
1778 1779
1778 1824
1778 1825
1778 1826
1779 1825
1779 1826
1780 1781
1780 1827
1781 1827
1782 1783
1782 1828
1782 1829
1782 1830
1783 1784
1783 1829
1783 1830
1783 1831
1784 1830
1784 1831
1784 1832
1785 1786
1785 1832
1785 1833
1785 1834
1786 1787
1786 1833
1786 1834
1786 1835
1787 1788
1787 1834
1787 1835
1787 1836
1788 1789
1788 1835
1788 1836
1789 1790
1789 1836
1790 1837
1791 1792
1791 1838
1791 1839
1792 1839
1792 1840
1793 1794
1793 1840
1793 1841
1794 1841
1795 1842
1795 1843
1796 1797
1796 1844
1796 1845
1796 1846
1797 1845
1797 1846
1797 1847
1798 1799
1798 1847
1798 1848
1798 1849
1799 1848
1799 1849
1799 1850
1800 1801
1800 1850
1800 1851
1800 1852
1801 1802
1801 1851
1801 1852
1802 1803
1802 1852
1802 1853
1803 1804
1803 1853
1804 1805
1804 1853
1804 1854
1805 1806
1805 1854
1806 1807
1806 1854
1806 1855
1807 1808
1807 1855
1807 1856
1808 1809
1808 1855
1808 1856
1808 1857
1809 1810
1809 1856
1809 1857
1809 1858
1810 1811
1810 1857
1810 1858
1810 1859
1811 1812
1811 1858
1811 1859
1811 1860
1812 1813
1812 1859
1812 1860
1812 1861
1813 1814
1813 1860
1813 1861
1813 1862
1814 1815
1814 1861
1814 1862
1815 1816
1815 1862
1816 1817
1816 1863
1817 1863
1818 1819
1818 1864
1819 1820
1819 1864
1819 1865
1820 1821
1820 1864
1820 1865
1820 1866
1821 1865
1821 1866
1821 1867
1822 1823
1822 1867
1822 1868
1822 1869
1823 1824
1823 1868
1823 1869
1823 1870
1824 1825
1824 1869
1824 1870
1824 1871
1825 1826
1825 1870
1825 1871
1825 1872
1826 1871
1826 1872
1826 1873
1827 1874
1827 1875
1828 1829
1828 1876
1828 1877
1829 1830
1829 1876
1829 1877
1829 1878
1830 1831
1830 1877
1830 1878
1831 1832
1831 1878
1831 1879
1832 1833
1832 1879
1832 1880
1833 1834
1833 1879
1833 1880
1833 1881
1834 1835
1834 1880
1834 1881
1834 1882
1835 1836
1835 1881
1835 1882
1835 1883
1836 1882
1836 1883
1836 1884
1837 1838
1837 1885
1837 1886
1837 1887
1838 1839
1838 1886
1838 1887
1839 1887
1839 1888
1840 1888
1840 1889
1840 1890
1841 1890
1841 1891
1842 1843
1842 1891
1842 1892
1842 1893
1843 1844
1843 1892
1843 1893
1843 1894
1844 1845
1844 1893
1844 1894
1845 1846
1845 1894
1845 1895
1846 1847
1846 1895
1846 1896
1847 1848
1847 1895
1847 1896
1848 1849
1848 1896
1848 1897
1849 1850
1849 1897
1849 1898
1850 1851
1850 1897
1850 1898
1850 1899
1851 1852
1851 1898
1851 1899
1851 1900
1852 1899
1852 1900
1852 1901
1853 1901
1853 1902
1853 1903
1854 1903
1854 1904
1855 1856
1855 1904
1855 1905
1855 1906
1856 1857
1856 1905
1856 1906
1856 1907
1857 1858
1857 1906
1857 1907
1858 1859
1858 1907
1858 1908
1859 1860
1859 1908
1859 1909
1860 1861
1860 1908
1860 1909
1861 1862
1861 1909
1861 1910
1862 1910
1862 1911
1863 1912
1863 1913
1863 1914
1864 1865
1864 1915
1864 1916
1864 1917
1865 1866
1865 1916
1865 1917
1865 1918
1866 1867
1866 1917
1866 1918
1866 1919
1867 1868
1867 1918
1867 1919
1867 1920
1868 1869
1868 1919
1868 1920
1868 1921
1869 1870
1869 1920
1869 1921
1869 1922
1870 1871
1870 1921
1870 1922
1870 1923
1871 1872
1871 1922
1871 1923
1872 1873
1872 1923
1873 1874
1873 1924
1874 1875
1874 1924
1874 1925
1875 1924
1875 1925
1876 1877
1876 1926
1877 1878
1877 1926
1877 1927
1878 1927
1879 1880
1879 1928
1879 1929
1880 1881
1880 1928
1880 1929
1880 1930
1881 1882
1881 1929
1881 1930
1882 1883
1882 1930
1882 1931
1883 1884
1883 1931
1883 1932
1884 1885
1884 1931
1884 1932
1884 1933
1885 1886
1885 1932
1885 1933
1885 1934
1886 1887
1886 1933
1886 1934
1886 1935
1887 1934
1887 1935
1887 1936
1888 1889
1888 1936
1888 1937
1888 1938
1889 1890
1889 1937
1889 1938
1889 1939
1890 1938
1890 1939
1891 1892
1891 1940
1891 1941
1892 1893
1892 1940
1892 1941
1893 1894
1893 1941
1893 1942
1894 1942
1894 1943
1895 1896
1895 1943
1895 1944
1896 1944
1896 1945
1897 1898
1897 1945
1897 1946
1898 1899
1898 1946
1898 1947
1899 1900
1899 1947
1899 1948
1900 1901
1900 1947
1900 1948
1900 1949
1901 1902
1901 1948
1901 1949
1901 1950
1902 1903
1902 1949
1902 1950
1902 1951
1903 1950
1903 1951
1903 1952
1904 1905
1904 1952
1904 1953
1905 1906
1905 1953
1905 1954
1906 1907
1906 1954
1907 1954
1908 1909
1908 1955
1909 1955
1909 1956
1910 1911
1910 1956
1910 1957
1910 1958
1911 1912
1911 1957
1911 1958
1912 1913
1912 1958
1912 1959
1913 1914
1913 1959
1914 1915
1914 1959
1914 1960
1915 1916
1915 1960
1915 1961
1916 1917
1916 1960
1916 1961
1916 1962
1917 1918
1917 1961
1917 1962
1917 1963
1918 1919
1918 1962
1918 1963
1919 1920
1919 1963
1919 1964
1920 1921
1920 1964
1920 1965
1921 1922
1921 1964
1921 1965
1921 1966
1922 1923
1922 1965
1922 1966
1922 1967
1923 1966
1923 1967
1923 1968
1924 1925
1924 1969
1924 1970
1925 1969
1925 1970
1926 1971
1927 1972
1928 1929
1928 1973
1928 1974
1929 1930
1929 1973
1929 1974
1929 1975
1930 1974
1930 1975
1930 1976
1931 1932
1931 1976
1931 1977
1931 1978
1932 1933
1932 1977
1932 1978
1932 1979
1933 1934
1933 1978
1933 1979
1933 1980
1934 1935
1934 1979
1934 1980
1934 1981
1935 1936
1935 1980
1935 1981
1935 1982
1936 1937
1936 1981
1936 1982
1936 1983
1937 1938
1937 1982
1937 1983
1937 1984
1938 1939
1938 1983
1938 1984
1939 1984
1940 1941
1940 1985
1940 1986
1941 1985
1941 1986
1941 1987
1942 1943
1942 1987
1942 1988
1942 1989
1943 1944
1943 1988
1943 1989
1944 1989
1944 1990
1945 1946
1945 1990
1945 1991
1945 1992
1946 1991
1946 1992
1946 1993
1947 1948
1947 1993
1947 1994
1947 1995
1948 1949
1948 1994
1948 1995
1948 1996
1949 1950
1949 1995
1949 1996
1949 1997
1950 1951
1950 1996
1950 1997
1950 1998
1951 1952
1951 1997
1951 1998
1952 1953
1952 1998
1952 1999
1953 1999
1953 2000
1954 2000
1954 2001
1954 2002
1955 2003
1955 2004
1955 2005
1956 1957
1956 2005
1956 2006
1956 2007
1957 1958
1957 2006
1957 2007
1958 2007
1958 2008
1959 2008
1959 2009
1960 1961
1960 2009
1960 2010
1960 2011
1961 1962
1961 2010
1961 2011
1962 1963
1962 2011
1962 2012
1963 2012
1963 2013
1964 1965
1964 2013
1964 2014
1964 2015
1965 1966
1965 2014
1965 2015
1965 2016
1966 1967
1966 2015
1966 2016
1966 2017
1967 1968
1967 2016
1967 2017
1967 2018
1968 2017
1968 2018
1968 2019
1969 1970
1969 2019
1969 2020
1969 2021
1970 2020
1970 2021
1971 2022
1972 2023
1972 2024
1973 1974
1973 2024
1973 2025
1974 1975
1974 2025
1975 1976
1975 2025
1975 2026
1976 1977
1976 2026
1976 2027
1977 1978
1977 2026
1977 2027
1977 2028
1978 1979
1978 2027
1978 2028
1978 2029
1979 1980
1979 2028
1979 2029
1979 2030
1980 1981
1980 2029
1980 2030
1980 2031
1981 1982
1981 2030
1981 2031
1981 2032
1982 1983
1982 2031
1982 2032
1983 1984
1983 2032
1983 2033
1984 2033
1984 2034
1985 1986
1985 2035
1985 2036
1985 2037
1986 1987
1986 2036
1986 2037
1986 2038
1987 1988
1987 2037
1987 2038
1987 2039
1988 1989
1988 2038
1988 2039
1988 2040
1989 2039
1989 2040
1990 1991
1990 2041
1990 2042
1991 1992
1991 2041
1991 2042
1991 2043
1992 1993
1992 2042
1992 2043
1992 2044
1993 1994
1993 2043
1993 2044
1994 1995
1994 2044
1995 1996
1995 2045
1996 1997
1996 2045
1996 2046
1997 1998
1997 2045
1997 2046
1997 2047
1998 2046
1998 2047
1998 2048
1999 2000
1999 2048
1999 2049
1999 2050
2000 2001
2000 2049
2000 2050
2000 2051
2001 2002
2001 2050
2001 2051
2001 2052
2002 2003
2002 2051
2002 2052
2002 2053
2003 2004
2003 2052
2003 2053
2003 2054
2004 2005
2004 2053
2004 2054
2005 2006
2005 2054
2006 2007
2008 2055
2008 2056
2009 2010
2009 2056
2009 2057
2009 2058
2010 2011
2010 2057
2010 2058
2011 2058
2011 2059
2012 2013
2012 2059
2012 2060
2012 2061
2013 2014
2013 2060
2013 2061
2013 2062
2014 2015
2014 2061
2014 2062
2014 2063
2015 2016
2015 2062
2015 2063
2015 2064
2016 2017
2016 2063
2016 2064
2016 2065
2017 2018
2017 2064
2017 2065
2017 2066
2018 2019
2018 2065
2018 2066
2018 2067
2019 2020
2019 2066
2019 2067
2019 2068
2020 2021
2020 2067
2020 2068
2020 2069
2021 2068
2021 2069
2022 2070
2022 2071
2023 2024
2023 2071
2023 2072
2023 2073
2024 2072
2024 2073
2024 2074
2025 2074
2025 2075
2026 2027
2026 2076
2026 2077
2027 2028
2027 2076
2027 2077
2027 2078
2028 2029
2028 2077
2028 2078
2028 2079
2029 2030
2029 2078
2029 2079
2029 2080
2030 2031
2030 2079
2030 2080
2030 2081
2031 2032
2031 2080
2031 2081
2032 2081
2033 2034
2033 2082
2033 2083
2034 2035
2034 2082
2034 2083
2034 2084
2035 2036
2035 2083
2035 2084
2035 2085
2036 2037
2036 2084
2036 2085
2036 2086
2037 2038
2037 2085
2037 2086
2038 2039
2038 2086
2038 2087
2039 2040
2039 2087
2039 2088
2040 2087
2040 2088
2041 2042
2041 2089
2042 2043
2042 2089
2042 2090
2043 2044
2043 2090
2043 2091
2044 2090
2044 2091
2044 2092
2045 2046
2045 2093
2045 2094
2045 2095
2046 2047
2046 2094
2046 2095
2046 2096
2047 2048
2047 2095
2047 2096
2047 2097
2048 2049
2048 2096
2048 2097
2048 2098
2049 2050
2049 2097
2049 2098
2049 2099
2050 2051
2050 2098
2050 2099
2050 2100
2051 2052
2051 2099
2051 2100
2052 2053
2052 2100
2053 2054
2053 2101
2054 2101
2054 2102
2055 2056
2055 2104
2055 2105
2055 2106
2056 2057
2056 2105
2056 2106
2056 2107
2057 2058
2057 2106
2057 2107
2058 2107
2058 2108
2059 2060
2059 2108
2059 2109
2059 2110
2060 2061
2060 2109
2060 2110
2061 2062
2061 2110
2061 2111
2062 2063
2062 2111
2062 2112
2063 2064
2063 2111
2063 2112
2064 2065
2064 2112
2064 2113
2065 2066
2065 2113
2065 2114
2066 2067
2066 2113
2066 2114
2066 2115
2067 2068
2067 2114
2067 2115
2067 2116
2068 2069
2068 2115
2068 2116
2068 2117
2069 2116
2069 2117
2070 2071
2070 2118
2070 2119
2071 2072
2071 2118
2071 2119
2071 2120
2072 2073
2072 2119
2072 2120
2072 2121
2073 2074
2073 2120
2073 2121
2073 2122
2074 2075
2074 2121
2074 2122
2074 2123
2075 2122
2075 2123
2075 2124
2076 2077
2076 2124
2076 2125
2076 2126
2077 2078
2077 2125
2077 2126
2077 2127
2078 2079
2078 2126
2078 2127
2078 2128
2079 2080
2079 2127
2079 2128
2080 2081
2080 2128
2080 2129
2081 2129
2081 2130
2082 2083
2082 2131
2082 2132
2082 2133
2083 2084
2083 2132
2083 2133
2083 2134
2084 2085
2084 2133
2084 2134
2084 2135
2085 2086
2085 2134
2085 2135
2086 2135
2087 2088
2087 2136
2088 2136
2088 2137
2089 2137
2089 2138
2089 2139
2090 2091
2090 2139
2090 2140
2090 2141
2091 2092
2091 2140
2091 2141
2091 2142
2092 2093
2092 2141
2092 2142
2092 2143
2093 2094
2093 2142
2093 2143
2093 2144
2094 2095
2094 2143
2094 2144
2095 2096
2095 2144
2095 2145
2096 2097
2096 2145
2096 2146
2097 2098
2097 2145
2097 2146
2097 2147
2098 2099
2098 2146
2098 2147
2098 2148
2099 2100
2099 2147
2099 2148
2100 2148
2100 2149
2101 2102
2101 2150
2101 2151
2102 2151
2102 2152
2103 2104
2103 2152
2103 2153
2104 2105
2104 2153
2104 2154
2105 2106
2105 2154
2105 2155
2106 2107
2106 2154
2106 2155
2106 2156
2107 2155
2107 2156
2107 2157
2108 2109
2108 2157
2108 2158
2108 2159
2109 2110
2109 2158
2109 2159
2109 2160
2110 2159
2110 2160
2111 2112
2111 2161
2112 2161
2112 2162
2113 2114
2113 2162
2113 2163
2113 2164
2114 2115
2114 2163
2114 2164
2115 2116
2115 2164
2115 2165
2116 2117
2116 2165
2116 2166
2117 2165
2117 2166
2118 2119
2118 2167
2119 2120
2119 2167
2119 2168
2120 2121
2120 2167
2120 2168
2120 2169
2121 2122
2121 2168
2121 2169
2122 2123
2122 2169
2122 2170
2123 2124
2123 2170
2123 2171
2124 2125
2124 2170
2124 2171
2124 2172
2125 2126
2125 2171
2125 2172
2125 2173
2126 2127
2126 2172
2126 2173
2127 2128
2127 2173
2127 2174
2128 2174
2128 2175
2129 2130
2129 2175
2129 2176
2130 2131
2130 2176
2130 2177
2131 2132
2131 2177
2131 2178
2132 2133
2132 2177
2132 2178
2132 2179
2133 2134
2133 2178
2133 2179
2133 2180
2134 2135
2134 2179
2134 2180
2134 2181
2135 2180
2135 2181
2135 2182
2136 2137
2136 2184
2136 2185
2137 2138
2137 2184
2137 2185
2137 2186
2138 2139
2138 2185
2138 2186
2138 2187
2139 2140
2139 2186
2139 2187
2139 2188
2140 2141
2140 2187
2140 2188
2140 2189
2141 2142
2141 2188
2141 2189
2141 2190
2142 2143
2142 2189
2142 2190
2142 2191
2143 2144
2143 2190
2143 2191
2143 2192
2144 2191
2144 2192
2144 2193
2145 2146
2145 2193
2146 2147
2146 2194
2147 2148
2147 2194
2148 2194
2148 2195
2149 2150
2149 2195
2149 2196
2149 2197
2150 2151
2150 2196
2150 2197
2150 2198
2151 2197
2151 2198
2151 2199
2152 2153
2152 2199
2152 2200
2152 2201
2153 2200
2153 2201
2153 2202
2154 2155
2154 2202
2154 2203
2154 2204
2155 2156
2155 2203
2155 2204
2156 2157
2156 2204
2156 2205
2157 2158
2157 2205
2157 2206
2158 2159
2158 2205
2158 2206
2158 2207
2159 2160
2159 2206
2159 2207
2159 2208
2160 2207
2160 2208
2160 2209
2161 2209
2161 2210
2161 2211
2162 2163
2162 2211
2162 2212
2163 2164
2163 2212
2163 2213
2164 2212
2164 2213
2165 2166
2165 2214
2166 2214
2167 2168
2167 2215
2167 2216
2167 2217
2168 2169
2168 2216
2168 2217
2168 2218
2169 2217
2169 2218
2170 2171
2170 2219
2171 2172
2171 2219
2171 2220
2172 2173
2172 2219
2172 2220
2172 2221
2173 2220
2173 2221
2173 2222
2174 2175
2174 2222
2174 2223
2175 2176
2175 2223
2175 2224
2176 2223
2176 2224
2176 2225
2177 2178
2177 2225
2177 2226
2177 2227
2178 2179
2178 2226
2178 2227
2178 2228
2179 2180
2179 2227
2179 2228
2179 2229
2180 2181
2180 2228
2180 2229
2181 2182
2181 2229
2181 2230
2182 2183
2182 2230
2182 2231
2183 2230
2183 2231
2183 2232
2184 2185
2184 2232
2184 2233
2184 2234
2185 2186
2185 2233
2185 2234
2185 2235
2186 2187
2186 2234
2186 2235
2186 2236
2187 2188
2187 2235
2187 2236
2188 2189
2188 2236
2189 2190
2189 2237
2190 2191
2190 2237
2191 2192
2191 2237
2191 2238
2192 2193
2192 2238
2192 2239
2193 2238
2193 2239
2193 2240
2194 2241
2194 2242
2195 2196
2195 2242
2195 2243
2195 2244
2196 2197
2196 2243
2196 2244
2196 2245
2197 2198
2197 2244
2197 2245
2198 2199
2198 2245
2198 2246
2199 2200
2199 2246
2199 2247
2200 2201
2200 2246
2200 2247
2201 2202
2201 2247
2201 2248
2202 2203
2202 2248
2203 2204
2203 2248
2203 2249
2204 2249
2204 2250
2205 2206
2205 2250
2206 2207
2206 2251
2207 2208
2207 2251
2207 2252
2208 2209
2208 2251
2208 2252
2208 2253
2209 2210
2209 2252
2209 2253
2210 2211
2210 2253
2210 2254
2211 2254
2211 2255
2212 2213
2212 2255
2212 2256
2212 2257
2213 2256
2213 2257
2213 2258
2214 2258
2215 2216
2216 2217
2216 2259
2217 2218
2217 2259
2217 2260
2218 2259
2218 2260
2218 2261
2219 2220
2219 2262
2219 2263
2219 2264
2220 2221
2220 2263
2220 2264
2220 2265
2221 2222
2221 2264
2221 2265
2222 2265
2222 2266
2223 2224
2223 2266
2223 2267
2223 2268
2224 2225
2224 2267
2224 2268
2224 2269
2225 2226
2225 2268
2225 2269
2225 2270
2226 2227
2226 2269
2226 2270
2227 2228
2227 2270
2227 2271
2228 2229
2228 2271
2229 2271
2229 2272
2230 2231
2230 2272
2230 2273
2231 2232
2231 2273
2231 2274
2232 2233
2232 2274
2232 2275
2233 2234
2233 2274
2233 2275
2234 2235
2234 2275
2234 2276
2235 2236
2235 2276
2235 2277
2236 2276
2236 2277
2236 2278
2237 2279
2237 2280
2237 2281
2238 2239
2238 2281
2238 2282
2238 2283
2239 2240
2239 2282
2239 2283
2239 2284
2240 2241
2240 2283
2240 2284
2240 2285
2241 2284
2241 2285
2241 2286
2242 2243
2242 2286
2242 2287
2242 2288
2243 2244
2243 2287
2243 2288
2243 2289
2244 2245
2244 2288
2244 2289
2245 2289
2245 2290
2246 2247
2246 2290
2246 2291
2247 2291
2247 2292
2248 2292
2248 2293
2248 2294
2249 2250
2249 2294
2249 2295
2249 2296
2250 2295
2250 2296
2250 2297
2251 2252
2251 2298
2251 2299
2251 2300
2252 2253
2252 2299
2252 2300
2252 2301
2253 2300
2253 2301
2253 2302
2254 2255
2254 2302
2254 2303
2255 2256
2255 2303
2255 2304
2256 2257
2256 2304
2256 2305
2257 2258
2257 2304
2257 2305
2257 2306
2258 2305
2258 2306
2258 2307
2259 2260
2259 2310
2260 2261
2260 2311
2261 2262
2261 2311
2262 2263
2262 2311
2263 2264
2263 2312
2264 2265
2264 2312
2264 2313
2265 2312
2265 2313
2265 2314
2266 2267
2266 2314
2266 2315
2266 2316
2267 2268
2267 2315
2267 2316
2267 2317
2268 2269
2268 2316
2268 2317
2268 2318
2269 2270
2269 2317
2269 2318
2269 2319
2270 2318
2270 2319
2270 2320
2271 2320
2271 2321
2272 2273
2272 2322
2272 2323
2273 2322
2273 2323
2274 2275
2274 2324
2275 2324
2275 2325
2276 2277
2276 2325
2276 2326
2277 2278
2277 2326
2277 2327
2278 2279
2278 2326
2278 2327
2279 2280
2279 2327
2279 2328
2280 2281
2280 2328
2280 2329
2281 2282
2281 2328
2281 2329
2281 2330
2282 2283
2282 2329
2282 2330
2283 2284
2283 2330
2284 2285
2284 2331
2285 2286
2285 2331
2285 2332
2286 2287
2286 2331
2286 2332
2287 2288
2287 2332
2287 2333
2288 2289
2288 2333
2288 2334
2289 2333
2289 2334
2290 2335
2291 2292
2291 2336
2291 2337
2292 2293
2292 2336
2292 2337
2292 2338
2293 2294
2293 2337
2293 2338
2294 2295
2294 2338
2294 2339
2295 2296
2295 2339
2295 2340
2296 2297
2296 2339
2296 2340
2296 2341
2297 2298
2297 2340
2297 2341
2297 2342
2298 2299
2298 2341
2298 2342
2298 2343
2299 2300
2299 2342
2299 2343
2299 2344
2300 2301
2300 2343
2300 2344
2300 2345
2301 2302
2301 2344
2301 2345
2301 2346
2302 2303
2302 2345
2302 2346
2302 2347
2303 2346
2303 2347
2303 2348
2304 2305
2304 2348
2304 2349
2305 2306
2305 2349
2306 2307
2306 2350
2307 2308
2307 2350
2307 2351
2308 2350
2308 2351
2309 2310
2309 2352
2309 2353
2310 2352
2310 2353
2310 2354
2311 2355
2311 2356
2311 2357
2312 2313
2312 2358
2312 2359
2312 2360
2313 2314
2313 2359
2313 2360
2314 2315
2314 2360
2314 2361
2315 2316
2315 2361
2315 2362
2316 2317
2316 2361
2316 2362
2316 2363
2317 2318
2317 2362
2317 2363
2317 2364
2318 2319
2318 2363
2318 2364
2319 2320
2319 2364
2319 2365
2320 2321
2320 2365
2320 2366
2321 2365
2321 2366
2322 2323
2322 2367
2323 2367
2323 2368
2324 2325
2324 2369
2324 2370
2324 2371
2325 2370
2325 2371
2326 2327
2326 2372
2326 2373
2327 2372
2327 2373
2327 2374
2328 2329
2328 2374
2328 2375
2328 2376
2329 2330
2329 2375
2329 2376
2330 2376
2330 2377
2331 2332
2331 2378
2331 2379
2331 2380
2332 2379
2332 2380
2332 2381
2333 2334
2333 2381
2333 2382
2333 2383
2334 2382
2334 2383
2334 2384
2335 2384
2335 2385
2335 2386
2336 2337
2336 2386
2336 2387
2337 2338
2337 2387
2337 2388
2338 2387
2338 2388
2338 2389
2339 2340
2339 2389
2339 2390
2340 2341
2340 2390
2341 2342
2342 2343
2342 2391
2343 2344
2343 2391
2344 2345
2344 2391
2344 2392
2345 2346
2345 2392
2346 2347
2346 2392
2346 2393
2347 2348
2347 2393
2347 2394
2348 2349
2348 2393
2348 2394
2348 2395
2349 2394
2349 2395
2349 2396
2350 2351
2350 2397
2350 2398
2350 2399
2351 2398
2351 2399
2352 2353
2353 2354
2353 2400
2354 2355
2354 2400
2354 2401
2355 2356
2355 2400
2355 2401
2355 2402
2356 2357
2356 2401
2356 2402
2357 2358
2357 2402
2358 2359
2358 2403
2359 2360
2359 2403
2359 2404
2360 2403
2360 2404
2360 2405
2361 2362
2361 2405
2361 2406
2361 2407
2362 2363
2362 2406
2362 2407
2362 2408
2363 2364
2363 2407
2363 2408
2363 2409
2364 2408
2364 2409
2365 2366
2365 2410
2365 2411
2366 2410
2366 2411
2367 2412
2367 2413
2368 2369
2368 2413
2368 2414
2368 2415
2369 2370
2369 2414
2369 2415
2369 2416
2370 2371
2370 2415
2370 2416
2370 2417
2371 2416
2371 2417
2371 2418
2372 2373
2372 2418
2372 2419
2372 2420
2373 2374
2373 2419
2373 2420
2373 2421
2374 2375
2374 2420
2374 2421
2374 2422
2375 2376
2375 2421
2375 2422
2375 2423
2376 2422
2376 2423
2376 2424
2377 2378
2377 2424
2377 2425
2377 2426
2378 2379
2378 2425
2378 2426
2378 2427
2379 2380
2379 2426
2379 2427
2380 2381
2380 2427
2381 2382
2382 2383
2382 2428
2383 2384
2383 2428
2383 2429
2384 2385
2384 2428
2384 2429
2385 2386
2385 2429
2385 2430
2386 2430
2386 2431
2387 2388
2387 2431
2387 2432
2387 2433
2388 2389
2388 2432
2388 2433
2388 2434
2389 2390
2389 2433
2389 2434
2389 2435
2390 2434
2390 2435
2390 2436
2391 2438
2391 2439
2392 2439
2392 2440
2392 2441
2393 2394
2393 2441
2393 2442
2394 2395
2394 2442
2394 2443
2395 2396
2395 2443
2395 2444
2396 2397
2396 2443
2396 2444
2396 2445
2397 2398
2397 2444
2397 2445
2397 2446
2398 2399
2398 2445
2398 2446
2398 2447
2399 2446
2399 2447
2400 2401
2400 2449
2400 2450
2400 2451
2401 2402
2401 2450
2401 2451
2401 2452
2402 2451
2402 2452
2402 2453
2403 2404
2403 2454
2403 2455
2403 2456
2404 2405
2404 2455
2404 2456
2404 2457
2405 2406
2405 2456
2405 2457
2406 2407
2406 2457
2406 2458
2407 2408
2407 2458
2407 2459
2408 2409
2408 2458
2408 2459
2409 2459
2409 2460
2410 2411
2410 2460
2410 2461
2410 2462
2411 2461
2411 2462
2411 2463
2412 2413
2412 2463
2412 2464
2413 2414
2413 2464
2413 2465
2414 2415
2414 2464
2414 2465
2414 2466
2415 2416
2415 2465
2415 2466
2415 2467
2416 2417
2416 2466
2416 2467
2416 2468
2417 2418
2417 2467
2417 2468
2417 2469
2418 2419
2418 2468
2418 2469
2418 2470
2419 2420
2419 2469
2419 2470
2420 2421
2420 2470
2420 2471
2421 2422
2421 2471
2421 2472
2422 2423
2422 2471
2422 2472
2423 2424
2423 2472
2423 2473
2424 2425
2424 2473
2424 2474
2425 2426
2425 2473
2425 2474
2426 2427
2426 2474
2428 2429
2428 2476
2428 2477
2428 2478
2429 2477
2429 2478
2429 2479
2430 2431
2430 2479
2430 2480
2430 2481
2431 2432
2431 2480
2431 2481
2431 2482
2432 2433
2432 2481
2432 2482
2433 2434
2433 2482
2433 2483
2434 2435
2434 2483
2434 2484
2435 2436
2435 2483
2435 2484
2435 2485
2436 2437
2436 2484
2436 2485
2436 2486
2437 2485
2437 2486
2437 2487
2438 2439
2438 2487
2438 2488
2439 2440
2439 2488
2439 2489
2440 2441
2440 2488
2440 2489
2440 2490
2441 2442
2441 2489
2441 2490
2441 2491
2442 2490
2442 2491
2442 2492
2443 2444
2443 2492
2443 2493
2444 2445
2444 2493
2445 2446
2445 2493
2445 2494
2446 2447
2446 2494
2446 2495
2447 2494
2447 2495
2448 2449
2448 2496
2449 2450
2449 2496
2449 2497
2450 2451
2450 2497
2450 2498
2451 2452
2451 2497
2451 2498
2451 2499
2452 2453
2452 2498
2452 2499
2452 2500
2453 2454
2453 2499
2453 2500
2453 2501
2454 2455
2454 2500
2454 2501
2454 2502
2455 2456
2455 2501
2455 2502
2456 2457
2456 2502
2456 2503
2457 2503
2457 2504
2458 2459
2458 2504
2458 2505
2459 2505
2459 2506
2460 2461
2460 2506
2460 2507
2460 2508
2461 2462
2461 2507
2461 2508
2461 2509
2462 2463
2462 2508
2462 2509
2463 2509
2464 2465
2464 2510
2464 2511
2465 2466
2465 2510
2465 2511
2465 2512
2466 2467
2466 2511
2466 2512
2467 2468
2467 2512
2467 2513
2468 2469
2468 2513
2468 2514
2469 2470
2469 2513
2469 2514
2469 2515
2470 2514
2470 2515
2470 2516
2471 2472
2471 2516
2471 2517
2472 2517
2473 2474
2473 2518
2474 2518
2474 2519
2475 2476
2475 2521
2475 2522
2475 2523
2476 2477
2476 2522
2476 2523
2477 2478
2477 2523
2477 2524
2478 2479
2478 2524
2478 2525
2479 2480
2479 2524
2479 2525
2479 2526
2480 2481
2480 2525
2480 2526
2481 2482
2481 2526
2481 2527
2482 2527
2482 2528
2483 2484
2483 2528
2483 2529
2483 2530
2484 2485
2484 2529
2484 2530
2484 2531
2485 2486
2485 2530
2485 2531
2485 2532
2486 2487
2486 2531
2486 2532
2486 2533
2487 2532
2487 2533
2487 2534
2488 2489
2488 2534
2488 2535
2488 2536
2489 2490
2489 2535
2489 2536
2490 2491
2490 2536
2490 2537
2491 2492
2491 2537
2491 2538
2492 2537
2492 2538
2493 2539
2493 2540
2494 2495
2494 2540
2494 2541
2494 2542
2495 2541
2495 2542
2496 2543
2496 2544
2497 2498
2497 2544
2497 2545
2498 2499
2498 2545
2499 2500
2499 2545
2500 2501
2501 2502
2501 2546
2502 2546
2503 2504
2503 2547
2503 2548
2504 2505
2504 2547
2504 2548
2504 2549
2505 2548
2505 2549
2505 2550
2506 2507
2506 2550
2506 2551
2507 2508
2507 2551
2507 2552
2508 2509
2508 2552
2508 2553
2509 2552
2509 2553
2509 2554
2510 2511
2510 2555
2510 2556
2511 2512
2511 2556
2511 2557
2512 2557
2512 2558
2513 2514
2513 2558
2513 2559
2513 2560
2514 2515
2514 2559
2514 2560
2514 2561
2515 2516
2515 2560
2515 2561
2515 2562
2516 2561
2516 2562
2516 2563
2517 2563
2517 2564
2518 2565
2518 2566
2519 2520
2519 2566
2519 2567
2519 2568
2520 2521
2520 2567
2520 2568
2520 2569
2521 2522
2521 2568
2521 2569
2521 2570
2522 2523
2522 2569
2522 2570
2522 2571
2523 2570
2523 2571
2524 2525
2524 2572
2525 2526
2525 2572
2525 2573
2526 2572
2526 2573
2526 2574
2527 2528
2527 2574
2527 2575
2527 2576
2528 2529
2528 2575
2528 2576
2528 2577
2529 2530
2529 2576
2529 2577
2529 2578
2530 2531
2530 2577
2530 2578
2530 2579
2531 2532
2531 2578
2531 2579
2531 2580
2532 2533
2532 2579
2532 2580
2533 2534
2533 2580
2533 2581
2534 2535
2534 2581
2534 2582
2535 2536
2535 2581
2535 2582
2535 2583
2536 2582
2536 2583
2536 2584
2537 2538
2537 2584
2537 2585
2537 2586
2538 2585
2538 2586
2538 2587
2539 2540
2539 2587
2539 2588
2540 2541
2540 2588
2540 2589
2541 2542
2541 2588
2541 2589
2541 2590
2542 2589
2542 2590
2543 2544
2543 2591
2544 2591
2544 2592
2545 2592
2545 2593
2545 2594
2546 2596
2546 2597
2546 2598
2547 2548
2547 2598
2547 2599
2547 2600
2548 2549
2548 2599
2548 2600
2548 2601
2549 2550
2549 2600
2549 2601
2549 2602
2550 2551
2550 2601
2550 2602
2550 2603
2551 2602
2551 2603
2551 2604
2552 2553
2552 2604
2552 2605
2552 2606
2553 2554
2553 2605
2553 2606
2553 2607
2554 2555
2554 2606
2554 2607
2554 2608
2555 2556
2555 2607
2555 2608
2555 2609
2556 2608
2556 2609
2557 2558
2557 2610
2557 2611
2558 2559
2558 2610
2558 2611
2558 2612
2559 2560
2559 2611
2559 2612
2559 2613
2560 2561
2560 2612
2560 2613
2561 2562
2561 2613
2561 2614
2562 2563
2562 2614
2562 2615
2563 2564
2563 2614
2563 2615
2563 2616
2564 2615
2564 2616
2564 2617
2565 2566
2565 2617
2565 2618
2565 2619
2566 2567
2566 2618
2566 2619
2566 2620
2567 2568
2567 2619
2567 2620
2567 2621
2568 2569
2568 2620
2568 2621
2568 2622
2569 2570
2569 2621
2569 2622
2569 2623
2570 2571
2570 2622
2570 2623
2570 2624
2571 2623
2571 2624
2571 2625
2572 2573
2572 2626
2572 2627
2573 2574
2573 2627
2574 2575
2574 2628
2575 2576
2575 2628
2575 2629
2576 2577
2576 2628
2576 2629
2576 2630
2577 2578
2577 2629
2577 2630
2577 2631
2578 2579
2578 2630
2578 2631
2578 2632
2579 2580
2579 2631
2579 2632
2579 2633
2580 2632
2580 2633
2580 2634
2581 2582
2581 2634
2581 2635
2582 2583
2582 2635
2583 2584
2583 2636
2584 2585
2584 2636
2585 2586
2585 2636
2585 2637
2586 2587
2586 2637
2586 2638
2587 2637
2587 2638
2587 2639
2588 2589
2588 2639
2588 2640
2589 2590
2589 2640
2589 2641
2590 2640
2590 2641
2591 2642
2591 2643
2592 2593
2592 2643
2593 2594
2594 2595
2595 2596
2595 2644
2596 2597
2596 2644
2596 2645
2597 2598
2597 2644
2597 2645
2597 2646
2598 2599
2598 2645
2598 2646
2599 2600
2599 2646
2599 2647
2600 2601
2600 2647
2601 2602
2601 2647
2601 2648
2602 2603
2602 2648
2602 2649
2603 2604
2603 2648
2603 2649
2604 2605
2604 2649
2605 2606
2605 2650
2606 2607
2606 2650
2606 2651
2607 2608
2607 2650
2607 2651
2608 2609
2608 2651
2608 2652
2609 2652
2609 2653
2610 2611
2610 2653
2610 2654
2610 2655
2611 2612
2611 2654
2611 2655
2611 2656
2612 2613
2612 2655
2612 2656
2613 2656
2614 2615
2614 2657
2614 2658
2615 2616
2615 2657
2615 2658
2615 2659
2616 2617
2616 2658
2616 2659
2616 2660
2617 2618
2617 2659
2617 2660
2617 2661
2618 2619
2618 2660
2618 2661
2619 2620
2619 2661
2619 2662
2620 2621
2620 2662
2620 2663
2621 2622
2621 2662
2621 2663
2621 2664
2622 2623
2622 2663
2622 2664
2622 2665
2623 2624
2623 2664
2623 2665
2623 2666
2624 2625
2624 2665
2624 2666
2624 2667
2625 2626
2625 2666
2625 2667
2625 2668
2626 2627
2626 2667
2626 2668
2626 2669
2627 2668
2627 2669
2628 2629
2628 2670
2628 2671
2629 2630
2629 2670
2629 2671
2629 2672
2630 2631
2630 2671
2630 2672
2630 2673
2631 2632
2631 2672
2631 2673
2631 2674
2632 2633
2632 2673
2632 2674
2632 2675
2633 2634
2633 2674
2633 2675
2634 2635
2634 2675
2634 2676
2635 2676
2636 2677
2636 2678
2637 2638
2637 2678
2637 2679
2637 2680
2638 2639
2638 2679
2638 2680
2638 2681
2639 2680
2639 2681
2639 2682
2640 2641
2640 2682
2640 2683
2640 2684
2641 2683
2641 2684
2642 2643
2642 2685
2643 2685
2643 2686
2644 2645
2644 2689
2645 2646
2645 2689
2645 2690
2646 2690
2646 2691
2647 2691
2647 2692
2647 2693
2648 2649
2648 2693
2648 2694
2648 2695
2649 2694
2649 2695
2650 2651
2650 2696
2650 2697
2650 2698
2651 2697
2651 2698
2651 2699
2652 2653
2652 2699
2652 2700
2653 2654
2653 2700
2653 2701
2654 2655
2654 2701
2654 2702
2655 2656
2655 2701
2655 2702
2656 2702
2656 2703
2657 2658
2657 2704
2657 2705
2657 2706
2658 2659
2658 2705
2658 2706
2658 2707
2659 2660
2659 2706
2659 2707
2659 2708
2660 2661
2660 2707
2660 2708
2660 2709
2661 2708
2661 2709
2661 2710
2662 2663
2662 2710
2662 2711
2662 2712
2663 2664
2663 2711
2663 2712
2663 2713
2664 2665
2664 2712
2664 2713
2665 2666
2665 2713
2665 2714
2666 2667
2666 2714
2666 2715
2667 2668
2667 2714
2667 2715
2667 2716
2668 2669
2668 2715
2668 2716
2668 2717
2669 2716
2669 2717
2669 2718
2670 2671
2670 2719
2670 2720
2670 2721
2671 2672
2671 2720
2671 2721
2671 2722
2672 2673
2672 2721
2672 2722
2672 2723
2673 2674
2673 2722
2673 2723
2673 2724
2674 2675
2674 2723
2674 2724
2674 2725
2675 2724
2675 2725
2675 2726
2676 2726
2676 2727
2677 2728
2677 2729
2678 2679
2678 2729
2678 2730
2679 2680
2679 2730
2679 2731
2680 2681
2680 2730
2680 2731
2680 2732
2681 2682
2681 2731
2681 2732
2681 2733
2682 2683
2682 2732
2682 2733
2682 2734
2683 2684
2683 2733
2683 2734
2683 2735
2684 2734
2684 2735
2685 2736
2685 2737
2686 2687
2686 2737
2686 2738
2686 2739
2687 2688
2687 2738
2687 2739
2687 2740
2688 2739
2688 2740
2688 2741
2689 2741
2689 2742
2690 2691
2690 2742
2690 2743
2690 2744
2691 2692
2691 2743
2691 2744
2691 2745
2692 2693
2692 2744
2692 2745
2692 2746
2693 2694
2693 2745
2693 2746
2693 2747
2694 2695
2694 2746
2694 2747
2694 2748
2695 2747
2695 2748
2696 2697
2696 2749
2696 2750
2697 2698
2697 2749
2697 2750
2697 2751
2698 2699
2698 2750
2698 2751
2698 2752
2699 2700
2699 2751
2699 2752
2699 2753
2700 2752
2700 2753
2700 2754
2701 2702
2701 2754
2701 2755
2701 2756
2702 2755
2702 2756
2702 2757
2703 2704
2703 2757
2703 2758
2703 2759
2704 2705
2704 2758
2704 2759
2704 2760
2705 2706
2705 2759
2705 2760
2705 2761
2706 2707
2706 2760
2706 2761
2706 2762
2707 2708
2707 2761
2707 2762
2707 2763
2708 2709
2708 2762
2708 2763
2709 2710
2709 2763
2710 2711
2710 2764
2711 2712
2711 2764
2711 2765
2712 2713
2712 2764
2712 2765
2712 2766
2713 2765
2713 2766
2713 2767
2714 2715
2714 2767
2715 2716
2716 2717
2716 2768
2717 2718
2717 2768
2717 2769
2718 2719
2718 2768
2718 2769
2718 2770
2719 2720
2719 2769
2719 2770
2720 2721
2720 2770
2720 2771
2721 2722
2721 2771
2721 2772
2722 2723
2722 2771
2722 2772
2722 2773
2723 2724
2723 2772
2723 2773
2724 2725
2724 2773
2724 2774
2725 2726
2725 2774
2726 2727
2726 2774
2726 2775
2727 2775
2727 2776
2728 2729
2728 2776
2728 2777
2728 2778
2729 2777
2729 2778
2730 2731
2730 2779
2731 2732
2731 2779
2731 2780
2732 2733
2732 2779
2732 2780
2732 2781
2733 2734
2733 2780
2733 2781
2733 2782
2734 2735
2734 2781
2734 2782
2735 2782
2736 2737
2736 2783
2736 2784
2737 2738
2737 2783
2737 2784
2737 2785
2738 2739
2738 2784
2738 2785
2738 2786
2739 2740
2739 2785
2739 2786
2739 2787
2740 2741
2740 2786
2740 2787
2740 2788
2741 2787
2741 2788
2741 2789
2742 2743
2742 2789
2742 2790
2742 2791
2743 2744
2743 2790
2743 2791
2743 2792
2744 2745
2744 2791
2744 2792
2744 2793
2745 2746
2745 2792
2745 2793
2746 2747
2746 2793
2746 2794
2747 2748
2747 2794
2747 2795
2748 2794
2748 2795
2748 2796
2749 2750
2749 2796
2749 2797
2749 2798
2750 2751
2750 2797
2750 2798
2750 2799
2751 2752
2751 2798
2751 2799
2751 2800
2752 2753
2752 2799
2752 2800
2752 2801
2753 2754
2753 2800
2753 2801
2753 2802
2754 2755
2754 2801
2754 2802
2754 2803
2755 2756
2755 2802
2755 2803
2755 2804
2756 2757
2756 2803
2756 2804
2756 2805
2757 2758
2757 2804
2757 2805
2757 2806
2758 2759
2758 2805
2758 2806
2758 2807
2759 2760
2759 2806
2759 2807
2760 2761
2760 2807
2760 2808
2761 2762
2761 2808
2761 2809
2762 2763
2762 2808
2762 2809
2762 2810
2763 2809
2763 2810
2763 2811
2764 2765
2764 2812
2765 2766
2765 2813
2766 2767
2766 2813
2766 2814
2767 2813
2767 2814
2767 2815
2768 2769
2768 2817
2768 2818
2768 2819
2769 2770
2769 2818
2769 2819
2769 2820
2770 2819
2770 2820
2771 2772
2771 2821
2772 2773
2772 2821
2773 2822
2774 2822
2774 2823
2775 2776
2775 2824
2775 2825
2776 2777
2776 2824
2776 2825
2776 2826
2777 2778
2777 2825
2777 2826
2777 2827
2778 2826
2778 2827
2779 2780
2779 2828
2779 2829
2779 2830
2780 2781
2780 2829
2780 2830
2780 2831
2781 2782
2781 2830
2781 2831
2781 2832
2782 2831
2782 2832
2782 2833
2783 2784
2783 2834
2783 2835
2784 2785
2784 2834
2784 2835
2785 2786
2785 2835
2785 2836
2786 2787
2786 2836
2786 2837
2787 2788
2787 2836
2787 2837
2787 2838
2788 2789
2788 2837
2788 2838
2788 2839
2789 2790
2789 2838
2789 2839
2789 2840
2790 2791
2790 2839
2790 2840
2790 2841
2791 2792
2791 2840
2791 2841
2791 2842
2792 2793
2792 2841
2792 2842
2793 2842
2793 2843
2794 2795
2794 2843
2794 2844
2794 2845
2795 2796
2795 2844
2795 2845
2796 2797
2796 2845
2796 2846
2797 2798
2797 2846
2797 2847
2798 2799
2798 2846
2798 2847
2799 2800
2799 2847
2799 2848
2800 2801
2800 2848
2800 2849
2801 2802
2801 2848
2801 2849
2801 2850
2802 2803
2802 2849
2802 2850
2803 2804
2803 2850
2803 2851
2804 2805
2804 2851
2804 2852
2805 2806
2805 2851
2805 2852
2805 2853
2806 2807
2806 2852
2806 2853
2807 2853
2808 2809
2808 2854
2809 2810
2809 2854
2809 2855
2810 2811
2810 2855
2810 2856
2811 2812
2811 2855
2811 2856
2812 2856
2812 2857
2813 2814
2813 2858
2813 2859
2813 2860
2814 2815
2814 2859
2814 2860
2814 2861
2815 2816
2815 2860
2815 2861
2816 2817
2816 2861
2816 2862
2817 2818
2817 2862
2817 2863
2818 2819
2818 2862
2818 2863
2818 2864
2819 2820
2819 2863
2819 2864
2819 2865
2820 2864
2820 2865
2820 2866
2821 2866
2821 2867
2821 2868
2822 2823
2822 2869
2822 2870
2822 2871
2823 2870
2823 2871
2823 2872
2824 2825
2824 2872
2825 2826
2825 2873
2826 2827
2826 2873
2826 2874
2827 2873
2827 2874
2827 2875
2828 2829
2828 2875
2828 2876
2828 2877
2829 2830
2829 2876
2829 2877
2829 2878
2830 2831
2830 2877
2830 2878
2830 2879
2831 2832
2831 2878
2831 2879
2831 2880
2832 2833
2832 2879
2832 2880
2833 2880
2834 2835
2836 2837
2837 2838
2838 2839
2839 2840
2840 2841
2841 2842
2843 2844
2844 2845
2846 2847
2848 2849
2849 2850
2851 2852
2852 2853
2855 2856
2857 2858
2858 2859
2859 2860
2860 2861
2862 2863
2863 2864
2864 2865
2865 2866
2866 2867
2867 2868
2868 2869
2869 2870
2870 2871
2871 2872
2873 2874
2874 2875
2875 2876
2876 2877
2877 2878
2878 2879
2879 2880
