# Random KSG graph
n = 60
seed = 7
type = random_ksg

vertices: 2880
edges:
1 2
1 50
1 51
2 3
2 50
2 51
2 52
3 4
3 51
3 52
3 53
4 5
4 52
4 53
4 54
5 6
5 53
5 54
5 55
6 7
6 54
6 55
6 56
7 8
7 55
7 56
7 57
8 9
8 56
8 57
9 10
9 57
9 58
10 11
10 58
11 58
11 59
12 13
12 59
12 60
13 14
13 60
13 61
14 15
14 60
14 61
14 62
15 16
15 61
15 62
15 63
16 17
16 62
16 63
16 64
17 63
17 64
17 65
18 19
18 66
18 67
18 68
19 20
19 67
19 68
19 69
20 21
20 68
20 69
20 70
21 22
21 69
21 70
22 70
22 71
23 24
23 71
23 72
24 25
24 72
24 73
25 26
25 73
25 74
26 27
26 73
26 74
27 28
27 74
27 75
28 29
28 75
28 76
29 30
29 75
29 76
29 77
30 31
30 76
30 77
30 78
31 32
31 77
31 78
31 79
32 33
32 78
32 79
32 80
33 79
33 80
33 81
34 35
34 81
34 82
34 83
35 82
35 83
35 84
36 37
36 85
36 86
36 87
37 38
37 86
37 87
37 88
38 87
38 88
38 89
39 40
39 90
39 91
40 41
40 91
40 92
41 91
41 92
41 93
42 43
42 93
42 94
42 95
43 44
43 94
43 95
44 45
44 95
44 96
45 46
45 96
45 97
46 47
46 96
46 97
46 98
47 48
47 97
47 98
47 99
48 49
48 98
48 99
48 100
49 99
49 100
49 101
50 51
50 102
50 103
51 52
51 102
51 103
51 104
52 53
52 103
52 104
52 105
53 54
53 104
53 105
53 106
54 55
54 105
54 106
54 107
55 56
55 106
55 107
55 108
56 57
56 107
56 108
56 109
57 108
57 109
57 110
58 110
58 111
58 112
59 112
59 113
60 61
60 114
60 115
61 62
61 114
61 115
61 116
62 63
62 115
62 116
62 117
63 64
63 116
63 117
63 118
64 65
64 117
64 118
64 119
65 66
65 118
65 119
65 120
66 67
66 119
66 120
66 121
67 68
67 120
67 121
67 122
68 69
68 121
68 122
68 123
69 70
69 122
69 123
69 124
70 123
70 124
70 125
71 72
71 125
71 126
71 127
72 126
72 127
72 128
73 74
73 128
73 129
74 129
75 76
75 130
75 131
76 77
76 130
76 131
76 132
77 78
77 131
77 132
77 133
78 79
78 132
78 133
78 134
79 80
79 133
79 134
79 135
80 81
80 134
80 135
80 136
81 82
81 135
81 136
81 137
82 83
82 136
82 137
82 138
83 84
83 137
83 138
84 85
84 138
84 139
85 86
85 139
86 87
86 139
86 140
87 88
87 140
87 141
88 89
88 140
88 141
88 142
89 90
89 141
89 142
90 142
90 143
91 92
91 143
91 144
91 145
92 93
92 144
92 145
92 146
93 94
93 145
93 146
93 147
94 95
94 146
94 147
94 148
95 147
95 148
95 149
96 97
96 149
96 150
96 151
97 98
97 150
97 151
97 152
98 99
98 151
98 152
98 153
99 100
99 152
99 153
99 154
100 101
100 153
100 154
100 155
101 154
101 155
102 103
102 156
103 104
103 156
103 157
104 105
104 156
104 157
105 106
105 157
105 158
106 107
106 158
106 159
107 108
107 158
107 159
107 160
108 109
108 159
108 160
108 161
109 110
109 160
109 161
109 162
110 111
110 161
110 162
111 112
111 162
111 163
112 113
112 163
112 164
113 163
113 164
113 165
114 115
114 165
114 166
114 167
115 116
115 166
115 167
115 168
116 117
116 167
116 168
116 169
117 118
117 168
117 169
118 119
118 169
118 170
119 120
119 170
119 171
120 121
120 170
120 171
120 172
121 122
121 171
121 172
121 173
122 123
122 172
122 173
122 174
123 124
123 173
123 174
123 175
124 125
124 174
124 175
125 126
125 175
125 176
126 127
126 176
126 177
127 128
127 176
127 177
127 178
128 129
128 177
128 178
128 179
129 178
129 179
130 131
130 180
130 181
131 132
131 181
131 182
132 133
132 181
132 182
132 183
133 134
133 182
133 183
134 135
134 183
134 184
135 136
135 184
135 185
136 137
136 184
136 185
136 186
137 138
137 185
137 186
137 187
138 186
138 187
138 188
139 188
139 189
140 141
140 190
141 142
141 190
141 191
142 190
142 191
142 192
143 144
143 192
143 193
143 194
144 145
144 193
144 194
144 195
145 146
145 194
145 195
146 147
146 195
146 196
147 148
147 196
148 149
148 196
148 197
149 150
149 197
149 198
150 151
150 197
150 198
151 152
151 198
152 153
152 199
153 154
153 199
153 200
154 155
154 199
154 200
154 201
155 200
155 201
156 157
156 202
156 203
157 203
157 204
158 159
158 204
158 205
158 206
159 160
159 205
159 206
159 207
160 161
160 206
160 207
160 208
161 162
161 207
161 208
161 209
162 208
162 209
162 210
163 164
163 210
163 211
163 212
164 165
164 211
164 212
164 213
165 166
165 212
165 213
165 214
166 167
166 213
166 214
166 215
167 168
167 214
167 215
167 216
168 169
168 215
168 216
168 217
169 216
169 217
169 218
170 171
170 218
170 219
170 220
171 172
171 219
171 220
171 221
172 173
172 220
172 221
172 222
173 174
173 221
173 222
173 223
174 175
174 222
174 223
174 224
175 223
175 224
176 177
177 178
178 179
178 225
179 225
179 226
180 226
180 227
180 228
181 182
181 228
181 229
181 230
182 183
182 229
182 230
182 231
183 230
183 231
183 232
184 185
184 232
184 233
184 234
185 186
185 233
185 234
185 235
186 187
186 234
186 235
186 236
187 188
187 235
187 236
187 237
188 189
188 236
188 237
188 238
189 237
189 238
190 191
190 239
191 192
191 239
192 193
192 239
192 240
193 194
193 240
193 241
194 195
194 240
194 241
194 242
195 241
195 242
195 243
196 243
196 244
197 198
197 244
197 245
197 246
198 245
198 246
198 247
199 200
199 248
199 249
199 250
200 201
200 249
200 250
200 251
201 250
201 251
202 252
202 253
203 204
203 253
203 254
204 205
204 254
204 255
205 206
205 255
205 256
206 207
206 255
206 256
206 257
207 208
207 256
207 257
207 258
208 209
208 257
208 258
209 210
209 258
209 259
210 211
210 259
210 260
211 212
211 259
211 260
211 261
212 213
212 260
212 261
212 262
213 214
213 261
213 262
213 263
214 215
214 262
214 263
214 264
215 216
215 263
215 264
216 217
216 264
216 265
217 218
217 265
218 219
218 265
218 266
219 220
219 266
219 267
220 221
220 266
220 267
220 268
221 222
221 267
221 268
221 269
222 223
222 268
222 269
223 224
223 269
224 270
225 226
226 227
226 273
227 228
227 273
227 274
228 229
228 273
228 274
228 275
229 230
229 274
229 275
229 276
230 231
230 275
230 276
230 277
231 232
231 276
231 277
231 278
232 233
232 277
232 278
232 279
233 234
233 278
233 279
233 280
234 235
234 279
234 280
234 281
235 236
235 280
235 281
235 282
236 237
236 281
236 282
236 283
237 238
237 282
237 283
237 284
238 283
238 284
238 285
239 287
239 288
239 289
240 241
240 289
240 290
240 291
241 242
241 290
241 291
241 292
242 243
242 291
242 292
242 293
243 292
243 293
244 245
244 294
244 295
245 246
245 294
245 295
245 296
246 247
246 295
246 296
246 297
247 248
247 296
247 297
247 298
248 249
248 297
248 298
248 299
249 250
249 298
249 299
249 300
250 251
250 299
250 300
250 301
251 300
251 301
252 253
252 302
252 303
253 254
253 302
253 303
253 304
254 303
254 304
254 305
255 256
255 305
255 306
255 307
256 257
256 306
256 307
256 308
257 258
257 307
257 308
257 309
258 308
258 309
258 310
259 260
259 310
259 311
259 312
260 261
260 311
260 312
261 262
261 312
261 313
262 263
262 313
262 314
263 264
263 313
263 314
263 315
264 314
264 315
264 316
265 316
265 317
265 318
266 267
266 318
266 319
267 268
267 319
267 320
268 269
268 319
268 320
268 321
269 320
269 321
269 322
270 271
270 323
270 324
270 325
271 272
271 324
271 325
271 326
272 325
272 326
272 327
273 274
273 329
273 330
274 275
274 330
274 331
275 276
275 330
275 331
275 332
276 277
276 331
276 332
276 333
277 278
277 332
277 333
277 334
278 279
278 333
278 334
278 335
279 280
279 334
279 335
280 281
280 335
280 336
281 282
281 336
281 337
282 283
282 336
282 337
283 284
283 337
283 338
284 285
284 338
285 286
285 338
285 339
286 287
286 339
287 288
287 339
288 289
288 340
289 290
289 340
290 291
290 340
290 341
291 292
291 341
291 342
292 293
292 341
292 342
293 342
293 343
294 295
294 343
294 344
294 345
295 296
295 344
295 345
295 346
296 297
296 345
296 346
296 347
297 298
297 346
297 347
297 348
298 299
298 347
298 348
299 300
299 348
299 349
300 301
300 349
300 350
301 349
301 350
302 303
302 351
302 352
303 304
303 351
303 352
303 353
304 305
304 352
304 353
304 354
305 306
305 353
305 354
305 355
306 307
306 354
306 355
307 308
307 355
307 356
308 309
308 356
308 357
309 310
309 356
309 357
309 358
310 311
310 357
310 358
310 359
311 312
311 358
311 359
311 360
312 359
312 360
312 361
313 314
313 361
313 362
314 315
314 362
314 363
315 316
315 363
315 364
316 317
316 363
316 364
316 365
317 318
317 364
317 365
317 366
318 365
318 366
318 367
319 320
319 367
319 368
319 369
320 321
320 368
320 369
320 370
321 322
321 369
321 370
321 371
322 323
322 370
322 371
322 372
323 324
323 371
323 372
323 373
324 325
324 372
324 373
324 374
325 326
325 373
325 374
325 375
326 327
326 374
326 375
326 376
327 328
327 375
327 376
327 377
328 329
328 376
328 377
328 378
329 377
329 378
329 379
330 331
330 379
330 380
331 332
331 380
331 381
332 333
332 381
332 382
333 334
333 381
333 382
333 383
334 335
334 382
334 383
334 384
335 383
335 384
336 337
336 385
336 386
337 385
337 386
337 387
338 387
338 388
338 389
339 389
339 390
339 391
340 392
341 342
341 393
342 393
342 394
343 344
343 394
343 395
344 345
344 395
344 396
345 346
345 396
346 347
346 396
347 348
347 397
348 397
348 398
349 350
349 398
349 399
349 400
350 399
350 400
351 352
351 401
351 402
352 353
352 401
352 402
352 403
353 354
353 402
353 403
353 404
354 355
354 403
354 404
355 404
355 405
356 357
356 405
356 406
356 407
357 358
357 406
357 407
358 359
358 407
358 408
359 360
359 408
359 409
360 361
360 408
360 409
360 410
361 362
361 409
361 410
361 411
362 410
362 411
362 412
363 364
363 412
363 413
363 414
364 365
364 413
364 414
364 415
365 366
365 414
365 415
365 416
366 367
366 415
366 416
366 417
367 368
367 416
367 417
367 418
368 369
368 417
368 418
368 419
369 370
369 418
369 419
369 420
370 371
370 419
370 420
370 421
371 372
371 420
371 421
372 373
372 421
372 422
373 374
373 422
373 423
374 375
374 422
374 423
375 376
375 423
375 424
376 377
376 424
376 425
377 378
377 424
377 425
377 426
378 379
378 425
378 426
379 380
379 426
379 427
380 427
380 428
381 382
381 428
381 429
381 430
382 383
382 429
382 430
382 431
383 384
383 430
383 431
383 432
384 431
384 432
384 433
385 386
385 433
385 434
385 435
386 387
386 434
386 435
386 436
387 388
387 435
387 436
387 437
388 389
388 436
388 437
388 438
389 390
389 437
389 438
389 439
390 391
390 438
390 439
390 440
391 392
391 439
391 440
391 441
392 440
392 441
392 442
393 394
393 444
393 445
393 446
394 395
394 445
394 446
394 447
395 446
395 447
395 448
396 448
396 449
397 398
397 450
397 451
397 452
398 399
398 451
398 452
398 453
399 400
399 452
399 453
399 454
400 453
400 454
401 402
401 455
401 456
402 403
402 455
402 456
403 404
403 456
403 457
404 457
404 458
405 406
405 458
405 459
405 460
406 407
406 459
406 460
406 461
407 460
407 461
407 462
408 409
408 462
408 463
409 410
409 463
410 411
410 463
410 464
411 412
411 464
411 465
412 413
412 464
412 465
412 466
413 414
413 465
413 466
413 467
414 415
414 466
414 467
415 416
415 467
415 468
416 417
416 468
417 418
417 468
417 469
418 419
418 469
419 420
419 469
419 470
420 421
420 470
420 471
421 470
421 471
421 472
422 423
422 472
422 473
422 474
423 473
423 474
423 475
424 425
424 475
424 476
425 426
425 476
425 477
426 477
426 478
427 428
427 478
427 479
427 480
428 429
428 479
428 480
428 481
429 430
429 480
429 481
429 482
430 431
430 481
430 482
430 483
431 432
431 482
431 483
431 484
432 433
432 483
432 484
432 485
433 434
433 484
433 485
433 486
434 435
434 485
434 486
434 487
435 436
435 486
435 487
435 488
436 437
436 487
436 488
436 489
437 438
437 488
437 489
437 490
438 439
438 489
438 490
438 491
439 440
439 490
439 491
439 492
440 441
440 491
440 492
440 493
441 442
441 492
441 493
441 494
442 443
442 493
442 494
442 495
443 444
443 494
443 495
443 496
444 445
444 495
444 496
445 446
445 496
445 497
446 447
446 497
447 448
447 497
447 498
448 498
448 499
449 450
449 499
449 500
450 451
450 500
451 452
452 453
452 501
453 454
453 501
453 502
454 501
454 502
455 456
455 503
456 503
456 504
457 458
457 504
458 459
459 460
459 505
460 461
460 505
460 506
461 462
461 505
461 506
462 506
462 507
463 507
463 508
463 509
464 465
464 509
464 510
464 511
465 466
465 510
465 511
465 512
466 467
466 511
466 512
466 513
467 512
467 513
467 514
468 514
468 515
468 516
469 516
469 517
470 471
470 517
470 518
471 472
471 518
471 519
472 473
472 518
472 519
473 474
473 519
473 520
474 475
474 520
474 521
475 476
475 520
475 521
475 522
476 521
476 522
477 478
477 523
477 524
478 479
478 523
478 524
478 525
479 480
479 524
479 525
479 526
480 481
480 525
480 526
480 527
481 482
481 526
481 527
481 528
482 483
482 527
482 528
482 529
483 484
483 528
483 529
483 530
484 485
484 529
484 530
484 531
485 486
485 530
485 531
485 532
486 487
486 531
486 532
487 488
487 532
487 533
488 489
488 533
488 534
489 490
489 533
489 534
489 535
490 491
490 534
490 535
490 536
491 492
491 535
491 536
491 537
492 493
492 536
492 537
492 538
493 494
493 537
493 538
493 539
494 495
494 538
494 539
494 540
495 496
495 539
495 540
495 541
496 540
496 541
496 542
497 542
497 543
498 499
498 543
498 544
498 545
499 500
499 544
499 545
499 546
500 545
500 546
500 547
501 502
501 549
501 550
501 551
502 550
502 551
503 504
503 552
504 552
504 553
505 506
505 555
505 556
505 557
506 556
506 557
506 558
507 508
507 558
507 559
507 560
508 509
508 559
508 560
508 561
509 510
509 560
509 561
509 562
510 511
510 561
510 562
510 563
511 512
511 562
511 563
511 564
512 513
512 563
512 564
512 565
513 514
513 564
513 565
514 515
514 565
514 566
515 516
515 566
515 567
516 566
516 567
516 568
517 568
517 569
518 519
518 569
518 570
519 570
519 571
520 521
520 571
520 572
521 522
521 572
521 573
522 572
522 573
522 574
523 524
523 574
523 575
523 576
524 525
524 575
524 576
524 577
525 526
525 576
525 577
525 578
526 527
526 577
526 578
526 579
527 528
527 578
527 579
527 580
528 529
528 579
528 580
528 581
529 530
529 580
529 581
529 582
530 531
530 581
530 582
530 583
531 532
531 582
531 583
531 584
532 583
532 584
532 585
533 534
533 585
533 586
534 535
534 586
534 587
535 536
535 586
535 587
535 588
536 537
536 587
536 588
536 589
537 538
537 588
537 589
537 590
538 539
538 589
538 590
538 591
539 540
539 590
539 591
540 541
540 591
540 592
541 542
541 592
541 593
542 592
542 593
542 594
543 544
543 594
543 595
543 596
544 545
544 595
544 596
544 597
545 546
545 596
545 597
545 598
546 547
546 597
546 598
546 599
547 548
547 598
547 599
547 600
548 549
548 599
548 600
548 601
549 550
549 600
549 601
549 602
550 551
550 601
550 602
551 602
552 553
552 603
552 604
552 605
553 554
553 604
553 605
553 606
554 555
554 605
554 606
554 607
555 556
555 606
555 607
555 608
556 557
556 607
556 608
556 609
557 558
557 608
557 609
557 610
558 559
558 609
558 610
558 611
559 560
559 610
559 611
560 561
560 611
561 562
561 612
562 563
562 612
562 613
563 564
563 612
563 613
563 614
564 565
564 613
564 614
564 615
565 614
565 615
565 616
566 567
566 616
566 617
566 618
567 568
567 617
567 618
567 619
568 618
568 619
568 620
569 570
569 620
569 621
569 622
570 621
570 622
570 623
571 623
571 624
571 625
572 573
572 625
572 626
572 627
573 574
573 626
573 627
573 628
574 575
574 627
574 628
574 629
575 576
575 628
575 629
575 630
576 577
576 629
576 630
576 631
577 578
577 630
577 631
577 632
578 579
578 631
578 632
579 580
579 632
579 633
580 581
580 633
580 634
581 582
581 633
581 634
582 583
582 634
582 635
583 584
583 635
583 636
584 585
584 635
584 636
584 637
585 636
585 637
585 638
586 587
586 638
586 639
586 640
587 588
587 639
587 640
587 641
588 589
588 640
588 641
588 642
589 590
589 641
589 642
589 643
590 591
590 642
590 643
591 643
592 593
592 644
592 645
593 594
593 644
593 645
593 646
594 595
594 645
594 646
594 647
595 596
595 646
595 647
595 648
596 597
596 647
596 648
596 649
597 598
597 648
597 649
598 599
598 649
598 650
599 600
599 650
599 651
600 601
600 650
600 651
600 652
601 602
601 651
601 652
601 653
602 652
602 653
602 654
603 604
603 655
603 656
604 605
604 655
604 656
604 657
605 606
605 656
605 657
605 658
606 607
606 657
606 658
606 659
607 608
607 658
607 659
607 660
608 609
608 659
608 660
608 661
609 610
609 660
609 661
610 611
610 661
610 662
611 662
611 663
612 613
612 664
612 665
612 666
613 614
613 665
613 666
613 667
614 615
614 666
614 667
614 668
615 616
615 667
615 668
615 669
616 617
616 668
616 669
616 670
617 618
617 669
617 670
617 671
618 619
618 670
618 671
619 620
619 671
619 672
620 621
620 672
620 673
621 622
621 672
621 673
621 674
622 623
622 673
622 674
623 624
623 674
623 675
624 625
624 675
624 676
625 626
625 675
625 676
625 677
626 627
626 676
626 677
627 628
627 677
627 678
628 629
628 678
628 679
629 630
629 678
629 679
629 680
630 631
630 679
630 680
631 632
631 680
631 681
632 681
632 682
633 634
633 682
633 683
633 684
634 683
634 684
635 636
635 685
635 686
636 637
636 685
636 686
636 687
637 638
637 686
637 687
637 688
638 639
638 687
638 688
638 689
639 640
639 688
639 689
639 690
640 641
640 689
640 690
640 691
641 642
641 690
641 691
642 643
642 691
642 692
643 692
643 693
644 645
644 694
644 695
645 646
645 695
645 696
646 647
646 695
646 696
646 697
647 648
647 696
647 697
647 698
648 649
648 697
648 698
648 699
649 698
649 699
649 700
650 651
650 700
650 701
650 702
651 652
651 701
651 702
651 703
652 653
652 702
652 703
652 704
653 654
653 703
653 704
653 705
654 704
654 705
655 656
655 706
655 707
655 708
656 657
656 707
656 708
656 709
657 658
657 708
657 709
658 659
658 709
658 710
659 660
659 710
659 711
660 661
660 710
660 711
661 711
661 712
662 663
662 712
662 713
662 714
663 664
663 713
663 714
663 715
664 665
664 714
664 715
664 716
665 666
665 715
665 716
665 717
666 667
666 716
666 717
666 718
667 668
667 717
667 718
667 719
668 669
668 718
668 719
668 720
669 670
669 719
669 720
669 721
670 671
670 720
670 721
670 722
671 721
671 722
671 723
672 673
672 723
672 724
672 725
673 674
673 724
673 725
673 726
674 725
674 726
674 727
675 676
675 727
675 728
675 729
676 677
676 728
676 729
676 730
677 729
677 730
678 679
678 731
679 680
679 731
680 732
681 682
681 732
681 733
682 683
682 733
683 684
683 733
683 734
684 734
684 735
685 686
685 735
685 736
686 687
686 736
686 737
687 688
687 737
687 738
688 689
688 737
688 738
689 690
689 738
689 739
690 691
690 739
690 740
691 739
691 740
691 741
692 693
692 741
692 742
693 694
693 742
693 743
694 742
694 743
694 744
695 696
695 744
695 745
695 746
696 697
696 745
696 746
696 747
697 698
697 746
697 747
698 699
698 747
698 748
699 700
699 748
699 749
700 701
700 748
700 749
700 750
701 702
701 749
701 750
701 751
702 703
702 750
702 751
702 752
703 704
703 751
703 752
703 753
704 705
704 752
704 753
705 753
706 707
706 754
706 755
707 708
707 754
707 755
707 756
708 709
708 755
708 756
708 757
709 756
709 757
709 758
710 711
710 758
710 759
711 759
711 760
712 713
712 760
712 761
712 762
713 714
713 761
713 762
713 763
714 715
714 762
714 763
714 764
715 716
715 763
715 764
715 765
716 717
716 764
716 765
717 718
717 765
717 766
718 719
718 766
719 720
719 766
719 767
720 721
720 767
721 722
721 767
722 723
722 768
723 724
723 768
723 769
724 725
724 768
724 769
724 770
725 726
725 769
725 770
725 771
726 727
726 770
726 771
726 772
727 728
727 771
727 772
727 773
728 729
728 772
728 773
728 774
729 730
729 773
729 774
730 774
730 775
731 775
731 776
732 777
732 778
732 779
733 779
733 780
734 735
734 781
735 736
735 781
736 782
737 738
737 782
737 783
737 784
738 783
738 784
738 785
739 740
739 785
739 786
739 787
740 741
740 786
740 787
740 788
741 787
741 788
741 789
742 743
742 789
742 790
743 744
743 790
743 791
744 745
744 791
744 792
745 746
745 791
745 792
745 793
746 747
746 792
746 793
746 794
747 793
747 794
747 795
748 749
748 795
748 796
749 750
749 796
749 797
750 751
750 797
750 798
751 752
751 797
751 798
752 753
752 798
752 799
753 799
753 800
754 755
754 801
754 802
755 756
755 801
755 802
755 803
756 757
756 802
756 803
756 804
757 758
757 803
757 804
757 805
758 804
758 805
758 806
759 760
759 806
759 807
760 761
760 807
760 808
761 762
761 807
761 808
761 809
762 763
762 808
762 809
763 764
763 809
763 810
764 765
764 810
764 811
765 810
765 811
766 812
766 813
767 813
767 814
768 769
768 815
768 816
769 770
769 816
769 817
770 771
770 817
770 818
771 772
771 817
771 818
771 819
772 773
772 818
772 819
772 820
773 774
773 819
773 820
773 821
774 820
774 821
774 822
775 822
775 823
775 824
776 777
776 824
776 825
776 826
777 778
777 825
777 826
777 827
778 779
778 826
778 827
778 828
779 780
779 827
779 828
780 828
780 829
781 829
781 830
781 831
782 783
782 832
783 784
783 833
784 785
784 833
784 834
785 786
785 833
785 834
785 835
786 787
786 834
786 835
787 788
787 835
787 836
788 789
788 836
789 790
789 836
789 837
790 837
790 838
791 792
791 838
791 839
791 840
792 793
792 839
792 840
792 841
793 794
793 840
793 841
793 842
794 795
794 841
794 842
795 796
795 842
796 843
797 798
797 843
797 844
798 844
799 800
801 802
801 845
801 846
802 803
802 845
802 846
802 847
803 804
803 846
803 847
803 848
804 805
804 847
804 848
804 849
805 806
805 848
805 849
805 850
806 849
806 850
806 851
807 808
807 851
807 852
808 809
808 852
809 852
809 853
810 811
810 853
810 854
811 854
811 855
812 813
812 855
812 856
813 814
813 856
814 857
815 816
815 857
815 858
815 859
816 858
816 859
816 860
817 818
817 860
817 861
817 862
818 819
818 861
818 862
818 863
819 820
819 862
819 863
819 864
820 821
820 863
820 864
821 822
821 864
821 865
822 823
822 865
822 866
823 824
823 865
823 866
823 867
824 825
824 866
824 867
824 868
825 826
825 867
825 868
825 869
826 827
826 868
826 869
827 828
827 869
827 870
828 870
828 871
829 830
829 871
829 872
829 873
830 831
830 872
830 873
830 874
831 832
831 873
831 874
831 875
832 874
832 875
833 834
833 876
834 835
834 876
834 877
835 876
835 877
835 878
836 878
836 879
836 880
837 838
837 880
837 881
838 839
838 881
838 882
839 840
839 882
840 841
840 882
840 883
841 842
841 883
842 883
842 884
843 885
843 886
844 886
844 887
844 888
845 846
845 890
846 847
846 890
846 891
847 848
847 890
847 891
848 849
848 891
848 892
849 850
849 892
849 893
850 851
850 892
850 893
850 894
851 893
851 894
852 895
853 896
853 897
854 855
854 897
854 898
855 856
855 898
855 899
856 898
856 899
856 900
857 858
857 901
857 902
857 903
858 859
858 902
858 903
858 904
859 860
859 903
859 904
860 861
860 904
860 905
861 862
861 905
861 906
862 863
862 905
862 906
862 907
863 864
863 906
863 907
863 908
864 907
864 908
865 866
865 909
866 867
866 909
866 910
867 868
867 909
867 910
868 869
868 910
868 911
869 911
870 871
870 912
871 872
871 912
871 913
872 873
872 912
872 913
872 914
873 874
873 913
873 914
873 915
874 875
874 914
874 915
874 916
875 915
875 916
875 917
876 877
876 919
876 920
876 921
877 878
877 920
877 921
877 922
878 879
878 921
878 922
878 923
879 880
879 922
879 923
879 924
880 881
880 923
880 924
880 925
881 924
881 925
881 926
882 926
882 927
882 928
883 928
883 929
883 930
884 930
884 931
884 932
885 886
885 932
885 933
885 934
886 887
886 933
886 934
886 935
887 888
887 934
887 935
887 936
888 935
888 936
888 937
889 937
889 938
890 891
890 939
890 940
890 941
891 940
891 941
892 893
892 942
893 894
893 942
893 943
894 943
894 944
895 944
895 945
896 897
896 946
896 947
897 946
897 947
897 948
898 899
898 948
898 949
899 900
899 949
900 901
900 950
901 902
901 950
901 951
902 903
902 950
902 951
902 952
903 904
903 951
903 952
903 953
904 952
904 953
904 954
905 906
905 954
905 955
906 907
906 955
906 956
907 908
907 955
907 956
907 957
908 956
908 957
909 910
909 958
909 959
909 960
910 959
910 960
910 961
911 961
911 962
911 963
912 913
912 964
912 965
912 966
913 914
913 965
913 966
913 967
914 915
914 966
914 967
915 916
915 967
915 968
916 917
916 968
916 969
917 918
917 968
917 969
917 970
918 919
918 969
918 970
918 971
919 920
919 970
919 971
919 972
920 921
920 971
920 972
920 973
921 922
921 972
921 973
921 974
922 923
922 973
922 974
922 975
923 924
923 974
923 975
924 925
924 975
924 976
925 926
925 976
926 927
926 976
926 977
927 928
927 977
928 929
928 977
928 978
929 930
929 978
929 979
930 931
930 978
930 979
930 980
931 932
931 979
931 980
931 981
932 933
932 980
932 981
933 934
933 981
933 982
934 935
934 982
934 983
935 936
935 982
935 983
935 984
936 937
936 983
936 984
937 938
937 984
939 940
939 985
939 986
940 941
940 985
940 986
940 987
941 986
941 987
941 988
942 988
942 989
942 990
943 944
943 990
943 991
943 992
944 945
944 991
944 992
945 992
945 993
946 947
946 993
946 994
946 995
947 948
947 994
947 995
947 996
948 949
948 995
948 996
948 997
949 996
949 997
949 998
950 951
950 999
950 1000
951 952
951 1000
951 1001
952 953
952 1001
952 1002
953 954
953 1001
953 1002
953 1003
954 1002
954 1003
954 1004
955 956
955 1004
955 1005
956 957
956 1005
956 1006
957 1005
957 1006
957 1007
958 959
958 1007
958 1008
958 1009
959 960
959 1008
959 1009
959 1010
960 961
960 1009
960 1010
960 1011
961 962
961 1010
961 1011
962 963
962 1011
962 1012
963 964
963 1012
964 965
964 1012
964 1013
965 966
965 1013
965 1014
966 967
966 1013
966 1014
967 1014
967 1015
968 969
968 1015
968 1016
968 1017
969 970
969 1016
969 1017
969 1018
970 971
970 1017
970 1018
971 972
971 1018
971 1019
972 973
972 1019
973 974
973 1019
973 1020
974 975
974 1020
974 1021
975 1020
975 1021
975 1022
976 1022
976 1023
976 1024
977 1024
977 1025
977 1026
978 979
978 1026
978 1027
979 980
979 1027
979 1028
980 981
980 1028
980 1029
981 1028
981 1029
981 1030
982 983
982 1030
982 1031
982 1032
983 984
983 1031
983 1032
983 1033
984 1032
984 1033
985 986
985 1035
986 987
986 1035
986 1036
987 988
987 1036
988 989
988 1036
988 1037
989 990
989 1037
990 991
990 1037
990 1038
991 992
991 1038
991 1039
992 1038
992 1039
993 994
993 1040
994 995
994 1040
994 1041
995 996
995 1040
995 1041
996 997
996 1041
996 1042
997 998
997 1042
997 1043
998 999
998 1042
998 1043
998 1044
999 1000
999 1043
999 1044
999 1045
1000 1044
1000 1045
1000 1046
1001 1002
1001 1046
1001 1047
1001 1048
1002 1003
1002 1047
1002 1048
1002 1049
1003 1004
1003 1048
1003 1049
1003 1050
1004 1049
1004 1050
1004 1051
1005 1006
1005 1051
1005 1052
1005 1053
1006 1007
1006 1052
1006 1053
1007 1008
1007 1053
1007 1054
1008 1009
1008 1054
1009 1010
1009 1054
1009 1055
1010 1011
1010 1055
1011 1055
1011 1056
1012 1056
1012 1057
1013 1014
1013 1057
1015 1016
1015 1058
1015 1059
1016 1017
1016 1058
1016 1059
1016 1060
1017 1018
1017 1059
1017 1060
1018 1060
1018 1061
1019 1061
1019 1062
1019 1063
1020 1021
1020 1063
1020 1064
1020 1065
1021 1022
1021 1064
1021 1065
1021 1066
1022 1023
1022 1065
1022 1066
1022 1067
1023 1024
1023 1066
1023 1067
1024 1025
1024 1067
1024 1068
1025 1026
1025 1068
1025 1069
1026 1027
1026 1068
1026 1069
1026 1070
1027 1069
1027 1070
1027 1071
1028 1029
1028 1071
1028 1072
1029 1030
1029 1072
1029 1073
1030 1031
1030 1072
1030 1073
1030 1074
1031 1032
1031 1073
1031 1074
1031 1075
1032 1033
1032 1074
1032 1075
1032 1076
1033 1075
1033 1076
1033 1077
1034 1077
1035 1078
1035 1079
1036 1079
1036 1080
1037 1081
1037 1082
1038 1039
1038 1082
1038 1083
1039 1083
1040 1041
1040 1084
1040 1085
1040 1086
1041 1085
1041 1086
1042 1043
1043 1044
1043 1087
1044 1045
1044 1087
1044 1088
1045 1046
1045 1087
1045 1088
1045 1089
1046 1047
1046 1088
1046 1089
1047 1048
1047 1089
1047 1090
1048 1049
1048 1090
1049 1050
1049 1090
1049 1091
1050 1051
1050 1091
1051 1052
1051 1091
1051 1092
1052 1053
1052 1092
1052 1093
1053 1092
1053 1093
1053 1094
1054 1094
1054 1095
1054 1096
1055 1096
1055 1097
1056 1098
1056 1099
1057 1099
1057 1100
1057 1101
1058 1059
1058 1103
1059 1060
1059 1103
1060 1104
1061 1062
1061 1104
1061 1105
1062 1063
1062 1105
1062 1106
1063 1064
1063 1106
1063 1107
1064 1065
1064 1106
1064 1107
1065 1066
1065 1107
1065 1108
1066 1067
1066 1108
1066 1109
1067 1108
1067 1109
1067 1110
1068 1069
1068 1110
1068 1111
1068 1112
1069 1070
1069 1111
1069 1112
1069 1113
1070 1071
1070 1112
1070 1113
1070 1114
1071 1113
1071 1114
1071 1115
1072 1073
1072 1115
1072 1116
1073 1074
1073 1116
1073 1117
1074 1075
1074 1117
1075 1076
1075 1117
1075 1118
1076 1077
1076 1118
1077 1118
1078 1079
1078 1119
1078 1120
1079 1080
1079 1119
1079 1120
1079 1121
1080 1120
1080 1121
1080 1122
1081 1082
1081 1122
1081 1123
1082 1083
1082 1123
1082 1124
1083 1124
1083 1125
1084 1085
1084 1126
1085 1086
1085 1127
1086 1127
1086 1128
1087 1088
1087 1130
1087 1131
1087 1132
1088 1089
1088 1131
1088 1132
1088 1133
1089 1132
1089 1133
1090 1134
1090 1135
1091 1135
1091 1136
1092 1093
1092 1137
1092 1138
1093 1094
1093 1137
1093 1138
1094 1095
1094 1138
1095 1096
1095 1139
1096 1097
1096 1139
1096 1140
1097 1139
1097 1140
1098 1099
1098 1141
1098 1142
1099 1100
1099 1141
1099 1142
1099 1143
1100 1101
1100 1142
1100 1143
1100 1144
1101 1102
1101 1143
1101 1144
1101 1145
1102 1144
1102 1145
1102 1146
1103 1146
1103 1147
1103 1148
1104 1105
1104 1149
1104 1150
1105 1150
1106 1107
1106 1151
1106 1152
1107 1151
1107 1152
1107 1153
1108 1109
1108 1153
1108 1154
1108 1155
1109 1110
1109 1154
1109 1155
1109 1156
1110 1111
1110 1155
1110 1156
1110 1157
1111 1112
1111 1156
1111 1157
1112 1113
1112 1157
1112 1158
1113 1114
1113 1158
1113 1159
1114 1115
1114 1158
1114 1159
1114 1160
1115 1116
1115 1159
1115 1160
1116 1160
1117 1161
1118 1162
1118 1163
1119 1120
1119 1165
1119 1166
1120 1121
1120 1165
1120 1166
1121 1122
1121 1166
1121 1167
1122 1123
1122 1167
1122 1168
1123 1167
1123 1168
1124 1125
1124 1169
1125 1126
1125 1169
1125 1170
1126 1170
1126 1171
1127 1128
1127 1172
1127 1173
1128 1129
1128 1173
1128 1174
1129 1130
1129 1173
1129 1174
1130 1131
1130 1174
1130 1175
1131 1132
1131 1175
1131 1176
1132 1133
1132 1175
1132 1176
1132 1177
1133 1176
1133 1177
1133 1178
1134 1135
1134 1178
1134 1179
1134 1180
1135 1136
1135 1179
1135 1180
1135 1181
1136 1180
1136 1181
1136 1182
1137 1138
1137 1182
1137 1183
1137 1184
1138 1183
1138 1184
1138 1185
1139 1140
1139 1186
1139 1187
1140 1187
1141 1142
1141 1188
1141 1189
1142 1143
1142 1188
1142 1189
1143 1144
1143 1189
1144 1145
1144 1190
1145 1146
1145 1190
1146 1147
1146 1190
1147 1148
1148 1149
1148 1191
1149 1191
1150 1192
1150 1193
1151 1152
1151 1193
1151 1194
1151 1195
1152 1153
1152 1194
1152 1195
1153 1154
1153 1195
1153 1196
1154 1155
1154 1196
1154 1197
1155 1156
1155 1196
1155 1197
1156 1157
1156 1197
1156 1198
1157 1198
1157 1199
1158 1159
1158 1199
1158 1200
1158 1201
1159 1160
1159 1200
1159 1201
1159 1202
1160 1201
1160 1202
1160 1203
1161 1204
1162 1163
1162 1205
1163 1164
1163 1205
1163 1206
1164 1205
1164 1206
1165 1166
1165 1207
1165 1208
1166 1207
1166 1208
1166 1209
1167 1168
1167 1209
1167 1210
1168 1210
1168 1211
1169 1211
1169 1212
1170 1171
1170 1213
1170 1214
1171 1172
1171 1213
1171 1214
1171 1215
1172 1214
1172 1215
1172 1216
1173 1174
1173 1216
1173 1217
1174 1217
1175 1176
1175 1218
1175 1219
1176 1177
1176 1218
1176 1219
1176 1220
1177 1178
1177 1219
1177 1220
1178 1179
1178 1220
1178 1221
1179 1180
1179 1221
1179 1222
1180 1181
1180 1221
1180 1222
1181 1182
1181 1222
1182 1183
1182 1223
1183 1184
1183 1223
1184 1185
1184 1223
1184 1224
1185 1186
1185 1224
1185 1225
1186 1224
1186 1225
1187 1226
1187 1227
1188 1189
1188 1227
1188 1228
1188 1229
1189 1228
1189 1229
1189 1230
1190 1231
1190 1232
1191 1234
1191 1235
1192 1193
1192 1236
1193 1194
1193 1236
1193 1237
1194 1195
1194 1237
1195 1237
1196 1197
1196 1238
1197 1238
1198 1199
1198 1239
1198 1240
1199 1200
1199 1239
1199 1240
1200 1201
1200 1240
1200 1241
1201 1202
1201 1241
1202 1203
1202 1241
1202 1242
1203 1242
1204 1243
1204 1244
1205 1206
1205 1245
1205 1246
1205 1247
1206 1246
1206 1247
1207 1208
1207 1248
1207 1249
1208 1209
1208 1248
1208 1249
1208 1250
1209 1249
1209 1250
1209 1251
1210 1211
1210 1251
1210 1252
1210 1253
1211 1212
1211 1252
1211 1253
1211 1254
1212 1253
1212 1254
1212 1255
1213 1214
1213 1255
1213 1256
1213 1257
1214 1215
1214 1256
1214 1257
1214 1258
1215 1216
1215 1257
1215 1258
1215 1259
1216 1217
1216 1258
1216 1259
1217 1259
1217 1260
1218 1219
1218 1261
1219 1220
1219 1261
1219 1262
1220 1261
1220 1262
1220 1263
1221 1222
1221 1263
1221 1264
1221 1265
1222 1264
1222 1265
1222 1266
1223 1267
1223 1268
1224 1225
1224 1268
1224 1269
1224 1270
1225 1269
1225 1270
1225 1271
1226 1227
1226 1271
1226 1272
1227 1228
1227 1272
1227 1273
1228 1229
1228 1273
1228 1274
1229 1230
1229 1273
1229 1274
1229 1275
1230 1231
1230 1274
1230 1275
1230 1276
1231 1232
1231 1275
1231 1276
1231 1277
1232 1276
1232 1277
1232 1278
1233 1234
1233 1278
1233 1279
1233 1280
1234 1235
1234 1279
1234 1280
1234 1281
1235 1280
1235 1281
1235 1282
1236 1282
1236 1283
1236 1284
1237 1284
1238 1285
1238 1286
1239 1240
1239 1287
1239 1288
1240 1288
1240 1289
1241 1289
1241 1290
1242 1290
1242 1291
1243 1244
1243 1291
1243 1292
1243 1293
1244 1245
1244 1292
1244 1293
1244 1294
1245 1246
1245 1293
1245 1294
1245 1295
1246 1247
1246 1294
1246 1295
1246 1296
1247 1295
1247 1296
1248 1249
1248 1297
1249 1250
1249 1297
1249 1298
1250 1251
1250 1297
1250 1298
1250 1299
1251 1252
1251 1298
1251 1299
1251 1300
1252 1253
1252 1299
1252 1300
1252 1301
1253 1254
1253 1300
1253 1301
1254 1255
1254 1301
1254 1302
1255 1256
1255 1302
1255 1303
1256 1257
1256 1302
1256 1303
1256 1304
1257 1258
1257 1303
1257 1304
1257 1305
1258 1259
1258 1304
1258 1305
1259 1305
1259 1306
1260 1306
1260 1307
1261 1262
1261 1308
1261 1309
1262 1263
1262 1308
1262 1309
1262 1310
1263 1264
1263 1309
1263 1310
1263 1311
1264 1265
1264 1310
1264 1311
1264 1312
1265 1266
1265 1311
1265 1312
1266 1267
1266 1312
1266 1313
1267 1313
1268 1269
1268 1314
1269 1270
1269 1314
1269 1315
1270 1271
1270 1314
1270 1315
1271 1272
1271 1315
1273 1274
1273 1316
1273 1317
1274 1275
1274 1316
1274 1317
1274 1318
1275 1276
1275 1317
1275 1318
1275 1319
1276 1277
1276 1318
1276 1319
1277 1278
1277 1319
1277 1320
1278 1279
1278 1320
1278 1321
1279 1280
1279 1320
1279 1321
1279 1322
1280 1281
1280 1321
1280 1322
1280 1323
1281 1282
1281 1322
1281 1323
1281 1324
1282 1283
1282 1323
1282 1324
1282 1325
1283 1284
1283 1324
1283 1325
1283 1326
1284 1325
1284 1326
1285 1286
1285 1327
1285 1328
1286 1287
1286 1327
1286 1328
1286 1329
1287 1288
1287 1328
1287 1329
1287 1330
1288 1329
1288 1330
1289 1331
1290 1331
1290 1332
1291 1292
1291 1333
1291 1334
1292 1293
1292 1333
1292 1334
1292 1335
1293 1294
1293 1334
1293 1335
1293 1336
1294 1295
1294 1335
1294 1336
1294 1337
1295 1296
1295 1336
1295 1337
1295 1338
1296 1337
1296 1338
1297 1298
1297 1339
1297 1340
1297 1341
1298 1299
1298 1340
1298 1341
1298 1342
1299 1300
1299 1341
1299 1342
1299 1343
1300 1301
1300 1342
1300 1343
1300 1344
1301 1343
1301 1344
1301 1345
1302 1303
1302 1345
1302 1346
1303 1304
1303 1346
1303 1347
1304 1305
1304 1346
1304 1347
1304 1348
1305 1347
1305 1348
1306 1307
1307 1349
1308 1309
1308 1350
1308 1351
1309 1310
1309 1351
1309 1352
1310 1311
1310 1351
1310 1352
1310 1353
1311 1312
1311 1352
1311 1353
1311 1354
1312 1353
1312 1354
1312 1355
1313 1355
1313 1356
1313 1357
1314 1315
1314 1358
1314 1359
1314 1360
1315 1359
1315 1360
1315 1361
1316 1317
1316 1363
1316 1364
1316 1365
1317 1318
1317 1364
1317 1365
1317 1366
1318 1319
1318 1365
1318 1366
1319 1366
1319 1367
1320 1321
1320 1367
1320 1368
1320 1369
1321 1322
1321 1368
1321 1369
1322 1323
1322 1369
1323 1324
1323 1370
1324 1325
1324 1370
1324 1371
1325 1326
1325 1370
1325 1371
1325 1372
1326 1371
1326 1372
1326 1373
1327 1328
1327 1375
1327 1376
1328 1329
1328 1375
1328 1376
1328 1377
1329 1330
1329 1376
1329 1377
1329 1378
1330 1377
1330 1378
1331 1332
1331 1379
1332 1379
1333 1334
1333 1380
1333 1381
1334 1335
1334 1380
1334 1381
1334 1382
1335 1336
1335 1381
1335 1382
1335 1383
1336 1337
1336 1382
1336 1383
1336 1384
1337 1338
1337 1383
1337 1384
1337 1385
1338 1384
1338 1385
1339 1340
1339 1386
1340 1341
1340 1386
1340 1387
1341 1342
1341 1386
1341 1387
1341 1388
1342 1343
1342 1387
1342 1388
1343 1344
1343 1388
1343 1389
1344 1345
1344 1389
1345 1389
1345 1390
1346 1347
1346 1390
1346 1391
1346 1392
1347 1348
1347 1391
1347 1392
1347 1393
1348 1392
1348 1393
1348 1394
1349 1350
1349 1396
1349 1397
1350 1397
1350 1398
1351 1352
1351 1398
1351 1399
1352 1353
1352 1399
1352 1400
1353 1354
1353 1399
1353 1400
1354 1355
1354 1400
1354 1401
1355 1356
1355 1401
1355 1402
1356 1357
1356 1401
1356 1402
1356 1403
1357 1358
1357 1402
1357 1403
1357 1404
1358 1359
1358 1403
1358 1404
1358 1405
1359 1360
1359 1404
1359 1405
1359 1406
1360 1361
1360 1405
1360 1406
1360 1407
1361 1362
1361 1406
1361 1407
1361 1408
1362 1363
1362 1407
1362 1408
1362 1409
1363 1364
1363 1408
1363 1409
1363 1410
1364 1365
1364 1409
1364 1410
1364 1411
1365 1366
1365 1410
1365 1411
1365 1412
1366 1411
1366 1412
1366 1413
1367 1368
1367 1413
1367 1414
1367 1415
1368 1369
1368 1414
1368 1415
1368 1416
1369 1415
1369 1416
1369 1417
1370 1371
1370 1418
1370 1419
1371 1372
1371 1419
1371 1420
1372 1373
1372 1420
1372 1421
1373 1374
1373 1420
1373 1421
1374 1421
1375 1376
1375 1422
1376 1377
1376 1422
1376 1423
1377 1378
1377 1422
1377 1423
1377 1424
1378 1423
1378 1424
1379 1425
1379 1426
1380 1381
1380 1427
1380 1428
1380 1429
1381 1382
1381 1428
1381 1429
1382 1383
1382 1429
1382 1430
1383 1384
1383 1430
1384 1385
1384 1430
1384 1431
1385 1431
1386 1387
1386 1432
1386 1433
1386 1434
1387 1388
1387 1433
1387 1434
1387 1435
1388 1434
1388 1435
1388 1436
1389 1436
1389 1437
1389 1438
1390 1391
1390 1438
1390 1439
1391 1392
1391 1439
1391 1440
1392 1393
1392 1439
1392 1440
1392 1441
1393 1394
1393 1440
1393 1441
1393 1442
1394 1395
1394 1441
1394 1442
1394 1443
1395 1396
1395 1442
1395 1443
1395 1444
1396 1443
1396 1444
1396 1445
1397 1398
1397 1445
1399 1400
1399 1446
1399 1447
1400 1446
1400 1447
1400 1448
1401 1402
1401 1448
1401 1449
1401 1450
1402 1403
1402 1449
1402 1450
1402 1451
1403 1404
1403 1450
1403 1451
1404 1405
1404 1451
1404 1452
1405 1406
1405 1452
1405 1453
1406 1407
1406 1452
1406 1453
1407 1408
1407 1453
1407 1454
1408 1409
1408 1454
1408 1455
1409 1410
1409 1454
1409 1455
1409 1456
1410 1411
1410 1455
1410 1456
1410 1457
1411 1412
1411 1456
1411 1457
1411 1458
1412 1413
1412 1457
1412 1458
1412 1459
1413 1414
1413 1458
1413 1459
1413 1460
1414 1415
1414 1459
1414 1460
1414 1461
1415 1416
1415 1460
1415 1461
1415 1462
1416 1417
1416 1461
1416 1462
1416 1463
1417 1418
1417 1462
1417 1463
1417 1464
1418 1419
1418 1463
1418 1464
1419 1464
1419 1465
1420 1421
1420 1465
1420 1466
1421 1466
1421 1467
1422 1423
1422 1469
1422 1470
1422 1471
1423 1424
1423 1470
1423 1471
1423 1472
1424 1471
1424 1472
1424 1473
1425 1473
1425 1474
1426 1427
1426 1474
1426 1475
1426 1476
1427 1428
1427 1475
1427 1476
1428 1429
1428 1476
1428 1477
1429 1477
1429 1478
1430 1478
1430 1479
1431 1479
1431 1480
1432 1433
1433 1434
1434 1435
1434 1481
1435 1436
1435 1481
1435 1482
1436 1437
1436 1481
1436 1482
1437 1438
1437 1482
1437 1483
1438 1483
1438 1484
1439 1440
1439 1484
1439 1485
1439 1486
1440 1441
1440 1485
1440 1486
1440 1487
1441 1442
1441 1486
1441 1487
1441 1488
1442 1443
1442 1487
1442 1488
1442 1489
1443 1444
1443 1488
1443 1489
1443 1490
1444 1445
1444 1489
1444 1490
1445 1490
1445 1491
1446 1447
1446 1493
1446 1494
1447 1448
1447 1493
1447 1494
1448 1449
1448 1494
1448 1495
1449 1450
1449 1495
1449 1496
1450 1451
1450 1495
1450 1496
1450 1497
1451 1496
1451 1497
1451 1498
1452 1453
1452 1498
1452 1499
1452 1500
1453 1499
1453 1500
1453 1501
1454 1455
1454 1501
1454 1502
1455 1456
1455 1502
1455 1503
1456 1457
1456 1502
1456 1503
1457 1458
1457 1503
1457 1504
1458 1459
1458 1504
1458 1505
1459 1460
1459 1504
1459 1505
1459 1506
1460 1461
1460 1505
1460 1506
1460 1507
1461 1462
1461 1506
1461 1507
1461 1508
1462 1463
1462 1507
1462 1508
1462 1509
1463 1464
1463 1508
1463 1509
1463 1510
1464 1509
1464 1510
1464 1511
1465 1511
1465 1512
1465 1513
1466 1467
1466 1513
1466 1514
1466 1515
1467 1468
1467 1514
1467 1515
1467 1516
1468 1469
1468 1515
1468 1516
1468 1517
1469 1470
1469 1516
1469 1517
1469 1518
1470 1471
1470 1517
1470 1518
1470 1519
1471 1472
1471 1518
1471 1519
1472 1473
1472 1519
1472 1520
1473 1520
1474 1475
1474 1521
1474 1522
1475 1476
1475 1521
1475 1522
1475 1523
1476 1522
1476 1523
1476 1524
1477 1478
1477 1524
1477 1525
1477 1526
1478 1525
1478 1526
1478 1527
1479 1480
1479 1527
1479 1528
1479 1529
1480 1528
1480 1529
1481 1482
1481 1532
1481 1533
1481 1534
1482 1533
1482 1534
1482 1535
1483 1484
1483 1535
1483 1536
1484 1485
1484 1536
1485 1486
1485 1536
1485 1537
1486 1487
1486 1537
1487 1488
1487 1537
1488 1489
1488 1538
1489 1490
1489 1538
1490 1538
1491 1492
1491 1539
1491 1540
1492 1539
1492 1540
1492 1541
1493 1494
1493 1541
1493 1542
1493 1543
1494 1542
1494 1543
1494 1544
1495 1496
1495 1544
1495 1545
1495 1546
1496 1497
1496 1545
1496 1546
1496 1547
1497 1498
1497 1546
1497 1547
1497 1548
1498 1499
1498 1547
1498 1548
1498 1549
1499 1500
1499 1548
1499 1549
1499 1550
1500 1501
1500 1549
1500 1550
1500 1551
1501 1550
1501 1551
1502 1503
1502 1552
1503 1552
1503 1553
1504 1505
1504 1553
1504 1554
1505 1506
1505 1554
1505 1555
1506 1507
1506 1554
1506 1555
1506 1556
1507 1508
1507 1555
1507 1556
1507 1557
1508 1509
1508 1556
1508 1557
1509 1510
1509 1557
1509 1558
1510 1511
1510 1558
1510 1559
1511 1512
1511 1558
1511 1559
1511 1560
1512 1513
1512 1559
1512 1560
1513 1514
1513 1560
1513 1561
1514 1515
1514 1561
1514 1562
1515 1516
1515 1561
1515 1562
1515 1563
1516 1517
1516 1562
1516 1563
1517 1518
1517 1563
1517 1564
1518 1519
1518 1564
1518 1565
1519 1564
1519 1565
1519 1566
1520 1566
1520 1567
1520 1568
1521 1522
1521 1568
1521 1569
1522 1523
1522 1569
1522 1570
1523 1524
1523 1570
1523 1571
1524 1525
1524 1570
1524 1571
1525 1526
1525 1571
1526 1527
1527 1528
1528 1529
1528 1572
1529 1572
1530 1531
1530 1573
1530 1574
1531 1532
1531 1573
1531 1574
1531 1575
1532 1533
1532 1574
1532 1575
1532 1576
1533 1534
1533 1575
1533 1576
1533 1577
1534 1535
1534 1576
1534 1577
1535 1577
1536 1578
1537 1579
1538 1580
1539 1540
1539 1581
1539 1582
1539 1583
1540 1541
1540 1582
1540 1583
1540 1584
1541 1542
1541 1583
1541 1584
1541 1585
1542 1543
1542 1584
1542 1585
1542 1586
1543 1544
1543 1585
1543 1586
1543 1587
1544 1545
1544 1586
1544 1587
1544 1588
1545 1546
1545 1587
1545 1588
1546 1547
1546 1588
1546 1589
1547 1548
1547 1589
1547 1590
1548 1549
1548 1589
1548 1590
1548 1591
1549 1550
1549 1590
1549 1591
1549 1592
1550 1551
1550 1591
1550 1592
1550 1593
1551 1592
1551 1593
1551 1594
1552 1594
1552 1595
1553 1596
1554 1555
1554 1597
1554 1598
1555 1556
1555 1597
1555 1598
1555 1599
1556 1557
1556 1598
1556 1599
1556 1600
1557 1599
1557 1600
1557 1601
1558 1559
1558 1601
1558 1602
1558 1603
1559 1560
1559 1602
1559 1603
1560 1603
1561 1562
1561 1604
1561 1605
1562 1563
1562 1604
1562 1605
1563 1605
1563 1606
1564 1565
1564 1606
1564 1607
1564 1608
1565 1566
1565 1607
1565 1608
1566 1567
1566 1608
1566 1609
1567 1568
1567 1609
1567 1610
1568 1569
1568 1609
1568 1610
1569 1610
1570 1571
1570 1611
1570 1612
1571 1611
1571 1612
1571 1613
1572 1616
1572 1617
1573 1574
1573 1618
1574 1575
1574 1618
1574 1619
1575 1576
1575 1619
1576 1577
1576 1619
1576 1620
1577 1620
1577 1621
1578 1622
1578 1623
1579 1624
1579 1625
1579 1626
1580 1626
1580 1627
1580 1628
1581 1582
1581 1628
1581 1629
1581 1630
1582 1583
1582 1629
1582 1630
1582 1631
1583 1584
1583 1630
1583 1631
1583 1632
1584 1585
1584 1631
1584 1632
1585 1586
1585 1632
1586 1587
1587 1588
1587 1633
1588 1633
1588 1634
1589 1590
1589 1634
1589 1635
1590 1591
1590 1635
1590 1636
1591 1592
1591 1635
1591 1636
1591 1637
1592 1593
1592 1636
1592 1637
1592 1638
1593 1594
1593 1637
1593 1638
1593 1639
1594 1595
1594 1638
1594 1639
1594 1640
1595 1639
1595 1640
1595 1641
1596 1641
1596 1642
1596 1643
1597 1598
1597 1643
1597 1644
1598 1599
1598 1644
1598 1645
1599 1600
1599 1645
1599 1646
1600 1601
1600 1645
1600 1646
1601 1602
1601 1646
1601 1647
1602 1603
1602 1647
1602 1648
1603 1647
1603 1648
1603 1649
1604 1605
1604 1650
1604 1651
1604 1652
1605 1651
1605 1652
1605 1653
1606 1607
1606 1653
1606 1654
1606 1655
1607 1608
1607 1654
1607 1655
1607 1656
1608 1655
1608 1656
1609 1610
1609 1657
1609 1658
1610 1657
1610 1658
1611 1612
1611 1659
1611 1660
1611 1661
1612 1613
1612 1660
1612 1661
1612 1662
1613 1614
1613 1661
1613 1662
1614 1615
1614 1662
1614 1663
1615 1616
1615 1663
1616 1617
1616 1663
1618 1664
1618 1665
1619 1665
1619 1666
1620 1621
1620 1666
1620 1667
1621 1622
1621 1667
1621 1668
1622 1667
1622 1668
1622 1669
1623 1624
1623 1669
1623 1670
1624 1625
1624 1670
1624 1671
1625 1626
1625 1671
1625 1672
1626 1627
1626 1671
1626 1672
1626 1673
1627 1628
1627 1672
1627 1673
1627 1674
1628 1629
1628 1673
1628 1674
1628 1675
1629 1630
1629 1674
1629 1675
1630 1631
1630 1675
1631 1632
1631 1676
1632 1676
1632 1677
1633 1634
1633 1679
1633 1680
1633 1681
1634 1680
1634 1681
1634 1682
1635 1636
1635 1682
1635 1683
1635 1684
1636 1637
1636 1683
1636 1684
1637 1638
1637 1684
1637 1685
1638 1639
1638 1685
1638 1686
1639 1640
1639 1685
1639 1686
1639 1687
1640 1641
1640 1686
1640 1687
1641 1642
1641 1687
1641 1688
1642 1643
1642 1688
1642 1689
1643 1644
1643 1688
1643 1689
1644 1689
1644 1690
1645 1646
1645 1690
1645 1691
1646 1691
1646 1692
1647 1648
1647 1692
1647 1693
1648 1649
1648 1693
1648 1694
1649 1650
1649 1694
1650 1651
1650 1694
1650 1695
1651 1652
1651 1695
1652 1653
1652 1695
1652 1696
1653 1654
1653 1696
1653 1697
1654 1655
1654 1696
1654 1697
1654 1698
1655 1656
1655 1697
1655 1698
1656 1698
1656 1699
1657 1658
1657 1699
1657 1700
1658 1700
1658 1701
1659 1660
1659 1701
1659 1702
1659 1703
1660 1661
1660 1702
1660 1703
1660 1704
1661 1662
1661 1703
1661 1704
1662 1704
1662 1705
1663 1705
1663 1706
1663 1707
1664 1665
1665 1709
1666 1709
1666 1710
1666 1711
1667 1668
1667 1711
1667 1712
1667 1713
1668 1669
1668 1712
1668 1713
1668 1714
1669 1670
1669 1713
1669 1714
1669 1715
1670 1714
1670 1715
1670 1716
1671 1672
1671 1716
1671 1717
1672 1673
1672 1717
1672 1718
1673 1674
1673 1717
1673 1718
1673 1719
1674 1675
1674 1718
1674 1719
1674 1720
1675 1719
1675 1720
1675 1721
1676 1677
1676 1722
1676 1723
1677 1678
1677 1723
1677 1724
1678 1679
1678 1724
1678 1725
1679 1680
1679 1724
1679 1725
1679 1726
1680 1681
1680 1725
1680 1726
1680 1727
1681 1682
1681 1726
1681 1727
1681 1728
1682 1683
1682 1727
1682 1728
1682 1729
1683 1684
1683 1728
1683 1729
1683 1730
1684 1729
1684 1730
1685 1686
1685 1731
1685 1732
1686 1687
1686 1731
1686 1732
1687 1732
1688 1689
1689 1733
1690 1733
1690 1734
1690 1735
1691 1692
1691 1735
1691 1736
1691 1737
1692 1693
1692 1736
1692 1737
1692 1738
1693 1737
1693 1738
1693 1739
1694 1739
1694 1740
1694 1741
1695 1741
1696 1697
1696 1742
1697 1698
1697 1742
1697 1743
1698 1743
1699 1744
1700 1701
1700 1744
1700 1745
1700 1746
1701 1702
1701 1745
1701 1746
1701 1747
1702 1703
1702 1746
1702 1747
1702 1748
1703 1704
1703 1747
1703 1748
1703 1749
1704 1748
1704 1749
1704 1750
1705 1706
1705 1750
1705 1751
1705 1752
1706 1707
1706 1751
1706 1752
1706 1753
1707 1708
1707 1752
1707 1753
1707 1754
1708 1753
1708 1754
1709 1710
1709 1756
1709 1757
1710 1711
1710 1756
1710 1757
1711 1712
1711 1757
1712 1713
1712 1758
1713 1714
1713 1758
1713 1759
1714 1715
1714 1758
1714 1759
1714 1760
1715 1716
1715 1759
1715 1760
1715 1761
1716 1760
1716 1761
1717 1718
1717 1762
1717 1763
1718 1719
1718 1762
1718 1763
1718 1764
1719 1720
1719 1763
1719 1764
1719 1765
1720 1721
1720 1764
1720 1765
1721 1722
1721 1765
1721 1766
1722 1723
1722 1766
1722 1767
1723 1766
1723 1767
1723 1768
1724 1725
1724 1768
1724 1769
1725 1726
1725 1769
1725 1770
1726 1727
1726 1770
1726 1771
1727 1728
1727 1770
1727 1771
1727 1772
1728 1729
1728 1771
1728 1772
1728 1773
1729 1730
1729 1772
1729 1773
1729 1774
1730 1773
1730 1774
1730 1775
1731 1732
1731 1775
1731 1776
1731 1777
1732 1776
1732 1777
1732 1778
1733 1734
1733 1780
1733 1781
1733 1782
1734 1735
1734 1781
1734 1782
1734 1783
1735 1736
1735 1782
1735 1783
1736 1737
1736 1783
1736 1784
1737 1738
1737 1784
1737 1785
1738 1739
1738 1784
1738 1785
1738 1786
1739 1740
1739 1785
1739 1786
1739 1787
1740 1741
1740 1786
1740 1787
1740 1788
1741 1787
1741 1788
1741 1789
1742 1790
1742 1791
1742 1792
1743 1792
1743 1793
1743 1794
1744 1745
1744 1795
1744 1796
1745 1746
1745 1796
1745 1797
1746 1747
1746 1797
1746 1798
1747 1748
1747 1797
1747 1798
1747 1799
1748 1749
1748 1798
1748 1799
1749 1750
1749 1799
1749 1800
1750 1751
1750 1800
1750 1801
1751 1752
1751 1800
1751 1801
1752 1753
1752 1801
1752 1802
1753 1754
1753 1802
1753 1803
1754 1802
1754 1803
1755 1804
1756 1757
1756 1805
1756 1806
1757 1805
1757 1806
1758 1759
1758 1807
1758 1808
1759 1760
1759 1807
1759 1808
1760 1761
1760 1808
1761 1809
1762 1763
1762 1809
1762 1810
1762 1811
1763 1764
1763 1810
1763 1811
1763 1812
1764 1765
1764 1811
1764 1812
1764 1813
1765 1812
1765 1813
1765 1814
1766 1767
1766 1814
1766 1815
1766 1816
1767 1768
1767 1815
1767 1816
1767 1817
1768 1769
1768 1816
1768 1817
1768 1818
1769 1817
1769 1818
1769 1819
1770 1771
1770 1819
1770 1820
1771 1772
1771 1820
1772 1773
1772 1821
1773 1774
1773 1821
1774 1775
1774 1821
1774 1822
1775 1776
1775 1822
1775 1823
1776 1777
1776 1822
1776 1823
1776 1824
1777 1778
1777 1823
1777 1824
1778 1824
1778 1825
1779 1780
1779 1825
1779 1826
1779 1827
1780 1781
1780 1826
1780 1827
1780 1828
1781 1782
1781 1827
1781 1828
1781 1829
1782 1783
1782 1828
1782 1829
1782 1830
1783 1829
1783 1830
1783 1831
1784 1785
1784 1831
1784 1832
1784 1833
1785 1786
1785 1832
1785 1833
1785 1834
1786 1787
1786 1833
1786 1834
1786 1835
1787 1788
1787 1834
1787 1835
1788 1789
1788 1835
1788 1836
1789 1790
1789 1836
1789 1837
1790 1791
1790 1836
1790 1837
1790 1838
1791 1792
1791 1837
1791 1838
1791 1839
1792 1793
1792 1838
1792 1839
1793 1794
1793 1839
1793 1840
1794 1795
1794 1840
1794 1841
1795 1796
1795 1840
1795 1841
1795 1842
1796 1841
1796 1842
1796 1843
1797 1798
1797 1843
1797 1844
1797 1845
1798 1799
1798 1844
1798 1845
1798 1846
1799 1845
1799 1846
1800 1801
1800 1847
1801 1847
1801 1848
1802 1803
1802 1848
1802 1849
1803 1849
1804 1850
1805 1806
1805 1851
1805 1852
1806 1851
1806 1852
1806 1853
1807 1808
1807 1854
1807 1855
1808 1855
1808 1856
1809 1810
1809 1857
1810 1811
1810 1858
1811 1812
1811 1858
1811 1859
1812 1813
1812 1858
1812 1859
1813 1814
1813 1859
1813 1860
1814 1815
1814 1860
1814 1861
1815 1816
1815 1860
1815 1861
1815 1862
1816 1817
1816 1861
1816 1862
1817 1818
1817 1862
1817 1863
1818 1819
1818 1863
1818 1864
1819 1820
1819 1863
1819 1864
1819 1865
1820 1864
1820 1865
1820 1866
1821 1867
1821 1868
1822 1823
1822 1869
1823 1824
1823 1869
1823 1870
1824 1870
1824 1871
1825 1826
1825 1871
1825 1872
1825 1873
1826 1827
1826 1872
1826 1873
1826 1874
1827 1828
1827 1873
1827 1874
1827 1875
1828 1829
1828 1874
1828 1875
1828 1876
1829 1830
1829 1875
1829 1876
1829 1877
1830 1831
1830 1876
1830 1877
1830 1878
1831 1832
1831 1877
1831 1878
1832 1833
1832 1878
1833 1834
1833 1879
1834 1835
1834 1879
1835 1879
1835 1880
1836 1837
1836 1880
1836 1881
1836 1882
1837 1838
1837 1881
1837 1882
1837 1883
1838 1839
1838 1882
1838 1883
1839 1883
1839 1884
1840 1841
1840 1884
1840 1885
1840 1886
1841 1842
1841 1885
1841 1886
1841 1887
1842 1843
1842 1886
1842 1887
1842 1888
1843 1844
1843 1887
1843 1888
1843 1889
1844 1845
1844 1888
1844 1889
1844 1890
1845 1846
1845 1889
1845 1890
1845 1891
1846 1890
1846 1891
1846 1892
1847 1892
1847 1893
1848 1894
1848 1895
1849 1895
1850 1896
1850 1897
1851 1852
1851 1897
1851 1898
1851 1899
1852 1853
1852 1898
1852 1899
1852 1900
1853 1854
1853 1899
1853 1900
1853 1901
1854 1855
1854 1900
1854 1901
1854 1902
1855 1901
1855 1902
1855 1903
1856 1857
1856 1903
1856 1904
1857 1904
1857 1905
1858 1859
1858 1906
1858 1907
1858 1908
1859 1907
1859 1908
1859 1909
1860 1861
1860 1909
1860 1910
1861 1862
1861 1910
1861 1911
1862 1910
1862 1911
1862 1912
1863 1864
1863 1912
1863 1913
1863 1914
1864 1865
1864 1913
1864 1914
1864 1915
1865 1866
1865 1914
1865 1915
1865 1916
1866 1867
1866 1915
1866 1916
1867 1868
1867 1916
1867 1917
1868 1917
1868 1918
1869 1918
1869 1919
1869 1920
1870 1871
1870 1920
1870 1921
1870 1922
1871 1872
1871 1921
1871 1922
1871 1923
1872 1873
1872 1922
1872 1923
1872 1924
1873 1874
1873 1923
1873 1924
1873 1925
1874 1875
1874 1924
1874 1925
1874 1926
1875 1876
1875 1925
1875 1926
1876 1877
1876 1926
1876 1927
1877 1878
1877 1927
1877 1928
1878 1927
1878 1928
1879 1929
1879 1930
1880 1881
1880 1931
1881 1882
1881 1931
1881 1932
1882 1883
1882 1931
1882 1932
1882 1933
1883 1932
1883 1933
1884 1885
1884 1934
1884 1935
1885 1886
1885 1934
1885 1935
1886 1887
1886 1935
1886 1936
1887 1888
1887 1936
1887 1937
1888 1889
1888 1936
1888 1937
1888 1938
1889 1890
1889 1937
1889 1938
1889 1939
1890 1891
1890 1938
1890 1939
1891 1892
1891 1939
1891 1940
1892 1893
1892 1940
1892 1941
1893 1940
1893 1941
1893 1942
1894 1895
1894 1942
1894 1943
1894 1944
1895 1943
1895 1944
1895 1945
1896 1897
1896 1946
1896 1947
1897 1898
1897 1946
1897 1947
1897 1948
1898 1899
1898 1947
1898 1948
1899 1900
1899 1948
1899 1949
1900 1901
1900 1949
1901 1902
1901 1949
1902 1903
1903 1904
1903 1950
1904 1950
1904 1951
1905 1906
1905 1951
1905 1952
1905 1953
1906 1907
1906 1952
1906 1953
1907 1908
1907 1953
1907 1954
1908 1909
1908 1954
1909 1954
1909 1955
1910 1911
1910 1955
1911 1912
1911 1956
1912 1913
1912 1956
1912 1957
1913 1914
1913 1956
1913 1957
1913 1958
1914 1915
1914 1957
1914 1958
1914 1959
1915 1916
1915 1958
1915 1959
1916 1959
1916 1960
1917 1918
1917 1960
1917 1961
1917 1962
1918 1919
1918 1961
1918 1962
1918 1963
1919 1920
1919 1962
1919 1963
1919 1964
1920 1921
1920 1963
1920 1964
1920 1965
1921 1922
1921 1964
1921 1965
1922 1923
1922 1965
1922 1966
1923 1924
1923 1966
1923 1967
1924 1925
1924 1966
1924 1967
1924 1968
1925 1926
1925 1967
1925 1968
1925 1969
1926 1968
1926 1969
1926 1970
1927 1928
1927 1970
1927 1971
1927 1972
1928 1971
1928 1972
1928 1973
1929 1930
1929 1973
1929 1974
1930 1974
1930 1975
1931 1932
1931 1976
1931 1977
1932 1933
1932 1976
1932 1977
1932 1978
1933 1977
1933 1978
1933 1979
1934 1935
1934 1979
1934 1980
1935 1980
1936 1937
1936 1981
1936 1982
1937 1938
1937 1981
1937 1982
1938 1939
1938 1982
1939 1983
1940 1941
1940 1983
1940 1984
1940 1985
1941 1942
1941 1984
1941 1985
1941 1986
1942 1943
1942 1985
1942 1986
1942 1987
1943 1944
1943 1986
1943 1987
1943 1988
1944 1945
1944 1987
1944 1988
1944 1989
1945 1988
1945 1989
1946 1947
1946 1990
1946 1991
1947 1948
1947 1990
1947 1991
1947 1992
1948 1991
1948 1992
1948 1993
1949 1993
1949 1994
1949 1995
1950 1951
1950 1997
1951 1952
1951 1997
1951 1998
1952 1953
1952 1998
1952 1999
1953 1998
1953 1999
1953 2000
1954 2000
1954 2001
1954 2002
1955 2002
1955 2003
1956 1957
1956 2004
1956 2005
1956 2006
1957 1958
1957 2005
1957 2006
1957 2007
1958 1959
1958 2006
1958 2007
1958 2008
1959 2007
1959 2008
1959 2009
1960 1961
1960 2009
1960 2010
1960 2011
1961 1962
1961 2010
1961 2011
1961 2012
1962 1963
1962 2011
1962 2012
1962 2013
1963 1964
1963 2012
1963 2013
1963 2014
1964 1965
1964 2013
1964 2014
1964 2015
1965 2014
1965 2015
1965 2016
1966 1967
1966 2016
1966 2017
1966 2018
1967 1968
1967 2017
1967 2018
1967 2019
1968 1969
1968 2018
1968 2019
1968 2020
1969 1970
1969 2019
1969 2020
1969 2021
1970 1971
1970 2020
1970 2021
1970 2022
1971 1972
1971 2021
1971 2022
1971 2023
1972 1973
1972 2022
1972 2023
1972 2024
1973 1974
1973 2023
1973 2024
1973 2025
1974 2024
1974 2025
1975 2026
1976 1977
1976 2027
1976 2028
1977 1978
1977 2027
1977 2028
1977 2029
1978 1979
1978 2028
1978 2029
1978 2030
1979 1980
1979 2029
1979 2030
1980 2030
1980 2031
1981 1982
1981 2032
1981 2033
1981 2034
1982 2033
1982 2034
1982 2035
1983 1984
1983 2036
1983 2037
1983 2038
1984 1985
1984 2037
1984 2038
1984 2039
1985 1986
1985 2038
1985 2039
1986 1987
1986 2039
1986 2040
1987 1988
1987 2040
1987 2041
1988 1989
1988 2040
1988 2041
1988 2042
1989 2041
1989 2042
1990 1991
1990 2043
1990 2044
1991 1992
1991 2043
1991 2044
1991 2045
1992 1993
1992 2044
1992 2045
1992 2046
1993 1994
1993 2045
1993 2046
1993 2047
1994 1995
1994 2046
1994 2047
1994 2048
1995 1996
1995 2047
1995 2048
1995 2049
1996 2048
1996 2049
1996 2050
1997 2050
1997 2051
1997 2052
1998 1999
1998 2052
1998 2053
1998 2054
1999 2000
1999 2053
1999 2054
1999 2055
2000 2001
2000 2054
2000 2055
2001 2002
2001 2055
2002 2003
2002 2056
2003 2056
2003 2057
2004 2005
2004 2057
2004 2058
2004 2059
2005 2006
2005 2058
2005 2059
2005 2060
2006 2007
2006 2059
2006 2060
2006 2061
2007 2008
2007 2060
2007 2061
2007 2062
2008 2009
2008 2061
2008 2062
2008 2063
2009 2010
2009 2062
2009 2063
2010 2011
2010 2063
2010 2064
2011 2012
2011 2064
2011 2065
2012 2013
2012 2064
2012 2065
2012 2066
2013 2014
2013 2065
2013 2066
2013 2067
2014 2015
2014 2066
2014 2067
2014 2068
2015 2016
2015 2067
2015 2068
2015 2069
2016 2017
2016 2068
2016 2069
2016 2070
2017 2018
2017 2069
2017 2070
2017 2071
2018 2019
2018 2070
2018 2071
2018 2072
2019 2020
2019 2071
2019 2072
2020 2021
2020 2072
2020 2073
2021 2022
2021 2073
2022 2023
2022 2073
2022 2074
2023 2024
2023 2074
2023 2075
2024 2025
2024 2074
2024 2075
2024 2076
2025 2075
2025 2076
2025 2077
2026 2077
2027 2028
2027 2078
2027 2079
2028 2029
2028 2078
2028 2079
2028 2080
2029 2030
2029 2079
2029 2080
2029 2081
2030 2080
2030 2081
2030 2082
2031 2032
2031 2082
2031 2083
2031 2084
2032 2033
2032 2083
2032 2084
2032 2085
2033 2034
2033 2084
2033 2085
2033 2086
2034 2035
2034 2085
2034 2086
2034 2087
2035 2036
2035 2086
2035 2087
2036 2037
2036 2087
2036 2088
2037 2038
2037 2088
2037 2089
2038 2039
2038 2088
2038 2089
2038 2090
2039 2089
2039 2090
2039 2091
2040 2041
2040 2091
2040 2092
2040 2093
2041 2042
2041 2092
2041 2093
2041 2094
2042 2093
2042 2094
2043 2044
2043 2095
2043 2096
2044 2045
2044 2095
2044 2096
2045 2046
2045 2096
2045 2097
2046 2047
2046 2097
2046 2098
2047 2048
2047 2097
2047 2098
2047 2099
2048 2049
2048 2098
2048 2099
2048 2100
2049 2050
2049 2099
2049 2100
2050 2051
2050 2100
2051 2052
2051 2101
2052 2053
2052 2101
2052 2102
2053 2054
2053 2101
2053 2102
2053 2103
2054 2055
2054 2102
2054 2103
2054 2104
2055 2103
2055 2104
2055 2105
2056 2057
2056 2106
2056 2107
2057 2058
2057 2106
2057 2107
2057 2108
2058 2059
2058 2107
2058 2108
2058 2109
2059 2060
2059 2108
2059 2109
2059 2110
2060 2061
2060 2109
2060 2110
2060 2111
2061 2062
2061 2110
2061 2111
2061 2112
2062 2063
2062 2111
2062 2112
2062 2113
2063 2112
2063 2113
2063 2114
2064 2065
2064 2114
2064 2115
2064 2116
2065 2066
2065 2115
2065 2116
2065 2117
2066 2067
2066 2116
2066 2117
2066 2118
2067 2068
2067 2117
2067 2118
2067 2119
2068 2069
2068 2118
2068 2119
2069 2070
2069 2119
2069 2120
2070 2071
2070 2120
2070 2121
2071 2072
2071 2120
2071 2121
2072 2121
2073 2122
2073 2123
2074 2075
2074 2123
2074 2124
2074 2125
2075 2076
2075 2124
2075 2125
2076 2077
2076 2125
2076 2126
2077 2126
2077 2127
2078 2079
2078 2128
2078 2129
2079 2080
2079 2129
2079 2130
2080 2081
2080 2129
2080 2130
2080 2131
2081 2082
2081 2130
2081 2131
2081 2132
2082 2083
2082 2131
2082 2132
2082 2133
2083 2084
2083 2132
2083 2133
2083 2134
2084 2085
2084 2133
2084 2134
2085 2086
2085 2134
2085 2135
2086 2087
2086 2135
2086 2136
2087 2135
2087 2136
2088 2089
2088 2137
2088 2138
2089 2090
2089 2137
2089 2138
2090 2091
2090 2138
2091 2092
2091 2139
2092 2093
2092 2139
2092 2140
2093 2094
2093 2139
2093 2140
2093 2141
2094 2140
2094 2141
2095 2096
2095 2142
2096 2142
2097 2098
2097 2143
2098 2099
2098 2143
2098 2144
2099 2100
2099 2143
2099 2144
2099 2145
2100 2144
2100 2145
2100 2146
2101 2102
2101 2147
2101 2148
2101 2149
2102 2103
2102 2148
2102 2149
2102 2150
2103 2104
2103 2149
2103 2150
2103 2151
2104 2105
2104 2150
2104 2151
2104 2152
2105 2151
2105 2152
2106 2107
2106 2153
2107 2108
2107 2153
2107 2154
2108 2109
2108 2154
2108 2155
2109 2110
2109 2154
2109 2155
2110 2111
2110 2155
2110 2156
2111 2112
2111 2156
2111 2157
2112 2113
2112 2156
2112 2157
2112 2158
2113 2114
2113 2157
2113 2158
2114 2115
2114 2158
2115 2116
2115 2159
2116 2117
2116 2159
2116 2160
2117 2118
2117 2159
2117 2160
2117 2161
2118 2119
2118 2160
2118 2161
2118 2162
2119 2161
2119 2162
2120 2121
2120 2163
2120 2164
2121 2163
2121 2164
2122 2123
2122 2165
2122 2166
2122 2167
2123 2124
2123 2166
2123 2167
2123 2168
2124 2125
2124 2167
2124 2168
2124 2169
2125 2168
2125 2169
2125 2170
2126 2127
2126 2170
2126 2171
2126 2172
2127 2128
2127 2171
2127 2172
2127 2173
2128 2172
2128 2173
2128 2174
2129 2130
2129 2174
2129 2175
2129 2176
2130 2131
2130 2175
2130 2176
2130 2177
2131 2132
2131 2176
2131 2177
2131 2178
2132 2133
2132 2177
2132 2178
2132 2179
2133 2134
2133 2178
2133 2179
2133 2180
2134 2179
2134 2180
2134 2181
2135 2136
2135 2181
2135 2182
2135 2183
2136 2182
2136 2183
2137 2138
2137 2184
2137 2185
2138 2184
2138 2185
2139 2140
2139 2186
2139 2187
2140 2141
2140 2187
2140 2188
2141 2187
2141 2188
2142 2189
2142 2190
2142 2191
2143 2144
2143 2192
2143 2193
2144 2145
2144 2193
2144 2194
2145 2146
2145 2194
2145 2195
2146 2147
2146 2194
2146 2195
2146 2196
2147 2148
2147 2195
2147 2196
2147 2197
2148 2149
2148 2196
2148 2197
2148 2198
2149 2150
2149 2197
2149 2198
2149 2199
2150 2151
2150 2198
2150 2199
2151 2152
2151 2199
2151 2200
2152 2200
2152 2201
2153 2201
2153 2202
2153 2203
2154 2155
2154 2203
2154 2204
2155 2204
2156 2157
2156 2205
2156 2206
2157 2158
2157 2205
2157 2206
2157 2207
2158 2206
2158 2207
2158 2208
2159 2160
2159 2209
2159 2210
2159 2211
2160 2161
2160 2210
2160 2211
2161 2162
2161 2211
2162 2212
2163 2164
2163 2212
2163 2213
2163 2214
2164 2213
2164 2214
2164 2215
2165 2166
2165 2215
2165 2216
2166 2167
2166 2216
2166 2217
2167 2168
2167 2216
2167 2217
2167 2218
2168 2169
2168 2217
2168 2218
2168 2219
2169 2170
2169 2218
2169 2219
2169 2220
2170 2171
2170 2219
2170 2220
2170 2221
2171 2172
2171 2220
2171 2221
2171 2222
2172 2173
2172 2221
2172 2222
2172 2223
2173 2174
2173 2222
2173 2223
2173 2224
2174 2175
2174 2223
2174 2224
2174 2225
2175 2176
2175 2224
2175 2225
2175 2226
2176 2177
2176 2225
2176 2226
2176 2227
2177 2178
2177 2226
2177 2227
2178 2179
2178 2227
2179 2180
2179 2228
2180 2181
2180 2228
2180 2229
2181 2182
2181 2228
2181 2229
2181 2230
2182 2183
2182 2229
2182 2230
2183 2230
2183 2231
2184 2185
2184 2231
2184 2232
2184 2233
2185 2232
2185 2233
2185 2234
2186 2234
2186 2235
2187 2188
2187 2236
2187 2237
2188 2236
2188 2237
2189 2190
2189 2238
2189 2239
2190 2191
2190 2238
2190 2239
2190 2240
2191 2192
2191 2239
2191 2240
2191 2241
2192 2193
2192 2240
2192 2241
2192 2242
2193 2241
2193 2242
2193 2243
2194 2195
2194 2243
2194 2244
2194 2245
2195 2196
2195 2244
2195 2245
2195 2246
2196 2197
2196 2245
2196 2246
2196 2247
2197 2198
2197 2246
2197 2247
2198 2199
2198 2247
2199 2248
2200 2201
2200 2248
2200 2249
2200 2250
2201 2202
2201 2249
2201 2250
2201 2251
2202 2203
2202 2250
2202 2251
2202 2252
2203 2251
2203 2252
2204 2253
2205 2206
2205 2253
2205 2254
2205 2255
2206 2207
2206 2254
2206 2255
2206 2256
2207 2208
2207 2255
2207 2256
2207 2257
2208 2209
2208 2256
2208 2257
2208 2258
2209 2210
2209 2257
2209 2258
2209 2259
2210 2211
2210 2258
2210 2259
2210 2260
2211 2259
2211 2260
2211 2261
2212 2213
2212 2262
2212 2263
2213 2214
2213 2262
2213 2263
2213 2264
2214 2215
2214 2263
2214 2264
2214 2265
2215 2264
2215 2265
2216 2217
2216 2266
2217 2218
2217 2266
2217 2267
2218 2219
2218 2266
2218 2267
2218 2268
2219 2220
2219 2267
2219 2268
2219 2269
2220 2221
2220 2268
2220 2269
2221 2222
2221 2269
2221 2270
2222 2223
2222 2270
2222 2271
2223 2224
2223 2270
2223 2271
2223 2272
2224 2225
2224 2271
2224 2272
2224 2273
2225 2226
2225 2272
2225 2273
2225 2274
2226 2227
2226 2273
2226 2274
2226 2275
2227 2274
2227 2275
2228 2229
2228 2276
2228 2277
2228 2278
2229 2230
2229 2277
2229 2278
2229 2279
2230 2278
2230 2279
2230 2280
2231 2232
2231 2280
2231 2281
2232 2233
2232 2281
2232 2282
2233 2234
2233 2281
2233 2282
2233 2283
2234 2235
2234 2282
2234 2283
2234 2284
2235 2283
2235 2284
2235 2285
2236 2237
2236 2285
2236 2286
2237 2286
2238 2239
2238 2287
2238 2288
2239 2240
2239 2287
2239 2288
2239 2289
2240 2241
2240 2288
2240 2289
2240 2290
2241 2242
2241 2289
2241 2290
2242 2243
2242 2290
2242 2291
2243 2244
2243 2291
2243 2292
2244 2245
2244 2291
2244 2292
2244 2293
2245 2246
2245 2292
2245 2293
2245 2294
2246 2247
2246 2293
2246 2294
2246 2295
2247 2294
2247 2295
2248 2249
2248 2296
2248 2297
2249 2250
2249 2297
2249 2298
2250 2251
2250 2297
2250 2298
2251 2252
2251 2298
2251 2299
2252 2299
2252 2300
2253 2254
2253 2301
2253 2302
2253 2303
2254 2255
2254 2302
2254 2303
2254 2304
2255 2256
2255 2303
2255 2304
2255 2305
2256 2257
2256 2304
2256 2305
2256 2306
2257 2258
2257 2305
2257 2306
2257 2307
2258 2259
2258 2306
2258 2307
2258 2308
2259 2260
2259 2307
2259 2308
2259 2309
2260 2261
2260 2308
2260 2309
2260 2310
2261 2309
2261 2310
2261 2311
2262 2263
2262 2311
2262 2312
2263 2264
2263 2312
2263 2313
2264 2265
2264 2312
2264 2313
2264 2314
2265 2313
2265 2314
2265 2315
2266 2267
2266 2316
2266 2317
2267 2268
2267 2317
2268 2269
2268 2317
2269 2318
2270 2271
2270 2318
2270 2319
2270 2320
2271 2272
2271 2319
2271 2320
2271 2321
2272 2273
2272 2320
2272 2321
2273 2274
2273 2321
2273 2322
2274 2275
2274 2322
2274 2323
2275 2322
2275 2323
2275 2324
2276 2277
2276 2324
2276 2325
2276 2326
2277 2278
2277 2325
2277 2326
2277 2327
2278 2279
2278 2326
2278 2327
2279 2280
2279 2327
2279 2328
2280 2328
2281 2282
2281 2329
2282 2283
2282 2329
2282 2330
2283 2284
2283 2330
2283 2331
2284 2285
2284 2330
2284 2331
2284 2332
2285 2286
2285 2331
2285 2332
2286 2332
2287 2288
2287 2333
2287 2334
2288 2289
2288 2333
2288 2334
2288 2335
2289 2290
2289 2334
2289 2335
2289 2336
2290 2335
2290 2336
2290 2337
2291 2292
2291 2337
2291 2338
2291 2339
2292 2293
2292 2338
2292 2339
2292 2340
2293 2294
2293 2339
2293 2340
2293 2341
2294 2295
2294 2340
2294 2341
2294 2342
2295 2341
2295 2342
2296 2343
2296 2344
2297 2298
2297 2344
2298 2345
2299 2300
2299 2345
2299 2346
2300 2301
2300 2346
2300 2347
2301 2302
2301 2346
2301 2347
2301 2348
2302 2303
2302 2347
2302 2348
2303 2304
2303 2348
2303 2349
2304 2305
2304 2349
2305 2306
2305 2349
2305 2350
2306 2307
2306 2350
2307 2308
2307 2350
2307 2351
2308 2309
2308 2351
2308 2352
2309 2310
2309 2351
2309 2352
2309 2353
2310 2311
2310 2352
2310 2353
2311 2353
2311 2354
2312 2313
2312 2354
2312 2355
2312 2356
2313 2314
2313 2355
2313 2356
2313 2357
2314 2315
2314 2356
2314 2357
2315 2316
2315 2357
2315 2358
2316 2358
2316 2359
2317 2359
2317 2360
2317 2361
2318 2319
2318 2362
2318 2363
2319 2320
2319 2362
2319 2363
2319 2364
2320 2321
2320 2363
2320 2364
2320 2365
2321 2364
2321 2365
2322 2323
2322 2366
2323 2324
2323 2366
2323 2367
2324 2325
2324 2366
2324 2367
2324 2368
2325 2326
2325 2367
2325 2368
2325 2369
2326 2327
2326 2368
2326 2369
2326 2370
2327 2369
2327 2370
2327 2371
2328 2371
2328 2372
2328 2373
2329 2373
2329 2374
2329 2375
2330 2331
2330 2375
2330 2376
2330 2377
2331 2332
2331 2376
2331 2377
2331 2378
2332 2377
2332 2378
2332 2379
2333 2334
2333 2381
2334 2335
2334 2381
2335 2336
2335 2381
2335 2382
2336 2337
2336 2382
2336 2383
2337 2338
2337 2382
2337 2383
2337 2384
2338 2339
2338 2383
2338 2384
2338 2385
2339 2340
2339 2384
2339 2385
2339 2386
2340 2341
2340 2385
2340 2386
2340 2387
2341 2342
2341 2386
2341 2387
2341 2388
2342 2387
2342 2388
2342 2389
2343 2344
2343 2389
2343 2390
2344 2390
2344 2391
2345 2392
2345 2393
2346 2347
2346 2393
2346 2394
2346 2395
2347 2348
2347 2394
2347 2395
2347 2396
2348 2395
2348 2396
2348 2397
2349 2397
2349 2398
2350 2399
2350 2400
2351 2352
2351 2400
2351 2401
2351 2402
2352 2353
2352 2401
2352 2402
2352 2403
2353 2402
2353 2403
2353 2404
2354 2355
2354 2404
2354 2405
2354 2406
2355 2356
2355 2405
2355 2406
2356 2357
2356 2406
2357 2407
2358 2359
2358 2407
2358 2408
2358 2409
2359 2360
2359 2408
2359 2409
2359 2410
2360 2361
2360 2409
2360 2410
2361 2410
2362 2363
2362 2411
2362 2412
2363 2364
2363 2411
2363 2412
2363 2413
2364 2365
2364 2412
2364 2413
2364 2414
2365 2413
2365 2414
2365 2415
2366 2367
2366 2416
2366 2417
2366 2418
2367 2368
2367 2417
2367 2418
2367 2419
2368 2369
2368 2418
2368 2419
2368 2420
2369 2370
2369 2419
2369 2420
2369 2421
2370 2371
2370 2420
2370 2421
2370 2422
2371 2372
2371 2421
2371 2422
2371 2423
2372 2373
2372 2422
2372 2423
2373 2374
2373 2423
2374 2375
2375 2376
2375 2424
2376 2377
2376 2424
2376 2425
2377 2378
2377 2424
2377 2425
2377 2426
2378 2379
2378 2425
2378 2426
2378 2427
2379 2380
2379 2426
2379 2427
2379 2428
2380 2427
2380 2428
2381 2429
2381 2430
2381 2431
2382 2383
2382 2431
2382 2432
2383 2384
2383 2432
2383 2433
2384 2385
2384 2433
2385 2386
2385 2433
2385 2434
2386 2387
2386 2434
2386 2435
2387 2388
2387 2434
2387 2435
2387 2436
2388 2389
2388 2435
2388 2436
2388 2437
2389 2436
2389 2437
2389 2438
2390 2391
2390 2438
2390 2439
2391 2439
2391 2440
2392 2393
2392 2440
2392 2441
2392 2442
2393 2394
2393 2441
2393 2442
2394 2395
2394 2442
2394 2443
2395 2396
2395 2443
2395 2444
2396 2397
2396 2443
2396 2444
2396 2445
2397 2398
2397 2444
2397 2445
2397 2446
2398 2445
2398 2446
2398 2447
2399 2400
2399 2447
2399 2448
2399 2449
2400 2401
2400 2448
2400 2449
2400 2450
2401 2402
2401 2449
2401 2450
2401 2451
2402 2403
2402 2450
2402 2451
2402 2452
2403 2404
2403 2451
2403 2452
2403 2453
2404 2405
2404 2452
2404 2453
2404 2454
2405 2406
2405 2453
2405 2454
2406 2454
2406 2455
2407 2408
2407 2456
2407 2457
2407 2458
2408 2409
2408 2457
2408 2458
2408 2459
2409 2410
2409 2458
2409 2459
2409 2460
2410 2459
2410 2460
2411 2412
2411 2461
2412 2413
2412 2461
2412 2462
2413 2414
2413 2462
2413 2463
2414 2415
2414 2462
2414 2463
2414 2464
2415 2416
2415 2463
2415 2464
2416 2417
2416 2464
2416 2465
2417 2418
2417 2465
2417 2466
2418 2419
2418 2465
2418 2466
2418 2467
2419 2420
2419 2466
2419 2467
2419 2468
2420 2421
2420 2467
2420 2468
2420 2469
2421 2422
2421 2468
2421 2469
2422 2423
2422 2469
2422 2470
2423 2470
2423 2471
2424 2425
2424 2473
2424 2474
2425 2426
2425 2474
2425 2475
2426 2427
2426 2475
2426 2476
2427 2428
2427 2475
2427 2476
2427 2477
2428 2476
2428 2477
2429 2430
2429 2478
2430 2431
2430 2478
2430 2479
2431 2432
2431 2478
2431 2479
2431 2480
2432 2479
2432 2480
2432 2481
2433 2481
2433 2482
2433 2483
2434 2435
2434 2483
2434 2484
2434 2485
2435 2436
2435 2484
2435 2485
2435 2486
2436 2437
2436 2485
2436 2486
2436 2487
2437 2438
2437 2486
2437 2487
2437 2488
2438 2487
2438 2488
2439 2440
2440 2441
2440 2489
2441 2442
2441 2489
2441 2490
2442 2489
2442 2490
2442 2491
2443 2444
2443 2491
2443 2492
2443 2493
2444 2445
2444 2492
2444 2493
2445 2446
2445 2493
2445 2494
2446 2447
2446 2494
2446 2495
2447 2448
2447 2494
2447 2495
2447 2496
2448 2449
2448 2495
2448 2496
2448 2497
2449 2450
2449 2496
2449 2497
2449 2498
2450 2451
2450 2497
2450 2498
2450 2499
2451 2452
2451 2498
2451 2499
2451 2500
2452 2453
2452 2499
2452 2500
2452 2501
2453 2454
2453 2500
2453 2501
2453 2502
2454 2501
2454 2502
2454 2503
2455 2456
2455 2503
2455 2504
2455 2505
2456 2457
2456 2504
2456 2505
2457 2458
2457 2505
2457 2506
2458 2459
2458 2506
2458 2507
2459 2460
2459 2506
2459 2507
2459 2508
2460 2507
2460 2508
2460 2509
2461 2510
2461 2511
2461 2512
2462 2463
2462 2512
2462 2513
2463 2464
2463 2513
2463 2514
2464 2513
2464 2514
2464 2515
2465 2466
2465 2515
2465 2516
2466 2467
2466 2516
2467 2468
2467 2516
2467 2517
2468 2469
2468 2517
2468 2518
2469 2517
2469 2518
2469 2519
2470 2471
2470 2519
2470 2520
2470 2521
2471 2472
2471 2520
2471 2521
2472 2473
2472 2521
2472 2522
2473 2474
2473 2522
2473 2523
2474 2522
2474 2523
2474 2524
2475 2476
2475 2524
2475 2525
2475 2526
2476 2477
2476 2525
2476 2526
2477 2526
2478 2479
2478 2527
2478 2528
2479 2480
2479 2527
2479 2528
2479 2529
2480 2481
2480 2528
2480 2529
2480 2530
2481 2482
2481 2529
2481 2530
2482 2483
2482 2530
2482 2531
2483 2484
2483 2531
2483 2532
2484 2485
2484 2531
2484 2532
2484 2533
2485 2486
2485 2532
2485 2533
2485 2534
2486 2487
2486 2533
2486 2534
2486 2535
2487 2488
2487 2534
2487 2535
2488 2535
2488 2536
2489 2490
2489 2538
2489 2539
2489 2540
2490 2491
2490 2539
2490 2540
2491 2492
2491 2540
2491 2541
2492 2493
2492 2541
2493 2541
2493 2542
2494 2495
2494 2542
2494 2543
2495 2496
2495 2543
2495 2544
2496 2497
2496 2544
2496 2545
2497 2498
2497 2544
2497 2545
2498 2499
2498 2545
2498 2546
2499 2500
2499 2546
2499 2547
2500 2501
2500 2546
2500 2547
2500 2548
2501 2502
2501 2547
2501 2548
2501 2549
2502 2503
2502 2548
2502 2549
2502 2550
2503 2504
2503 2549
2503 2550
2503 2551
2504 2505
2504 2550
2504 2551
2504 2552
2505 2551
2505 2552
2505 2553
2506 2507
2506 2553
2506 2554
2506 2555
2507 2508
2507 2554
2507 2555
2507 2556
2508 2509
2508 2555
2508 2556
2508 2557
2509 2510
2509 2556
2509 2557
2509 2558
2510 2511
2510 2557
2510 2558
2510 2559
2511 2512
2511 2558
2511 2559
2511 2560
2512 2559
2512 2560
2512 2561
2513 2514
2513 2561
2513 2562
2514 2515
2514 2562
2515 2563
2516 2563
2516 2564
2516 2565
2517 2518
2517 2565
2517 2566
2517 2567
2518 2519
2518 2566
2518 2567
2518 2568
2519 2520
2519 2567
2519 2568
2519 2569
2520 2521
2520 2568
2520 2569
2520 2570
2521 2569
2521 2570
2521 2571
2522 2523
2522 2571
2522 2572
2522 2573
2523 2524
2523 2572
2523 2573
2523 2574
2524 2525
2524 2573
2524 2574
2524 2575
2525 2526
2525 2574
2525 2575
2525 2576
2526 2575
2526 2576
2526 2577
2527 2528
2527 2578
2527 2579
2528 2529
2528 2579
2528 2580
2529 2530
2529 2580
2529 2581
2530 2580
2530 2581
2530 2582
2531 2532
2531 2582
2531 2583
2531 2584
2532 2533
2532 2583
2532 2584
2532 2585
2533 2534
2533 2584
2533 2585
2534 2535
2534 2585
2534 2586
2535 2586
2535 2587
2536 2537
2536 2587
2536 2588
2537 2538
2537 2588
2538 2539
2538 2589
2539 2540
2539 2589
2539 2590
2540 2589
2540 2590
2540 2591
2541 2591
2541 2592
2541 2593
2542 2543
2542 2593
2542 2594
2543 2594
2543 2595
2544 2545
2544 2595
2544 2596
2544 2597
2545 2596
2545 2597
2545 2598
2546 2547
2546 2598
2546 2599
2546 2600
2547 2548
2547 2599
2547 2600
2548 2549
2548 2600
2548 2601
2549 2550
2549 2601
2549 2602
2550 2551
2550 2601
2550 2602
2550 2603
2551 2552
2551 2602
2551 2603
2551 2604
2552 2553
2552 2603
2552 2604
2553 2554
2553 2604
2553 2605
2554 2555
2554 2605
2554 2606
2555 2556
2555 2605
2555 2606
2556 2557
2556 2606
2556 2607
2557 2558
2557 2607
2558 2559
2558 2607
2558 2608
2559 2560
2559 2608
2559 2609
2560 2561
2560 2608
2560 2609
2560 2610
2561 2562
2561 2609
2561 2610
2562 2610
2562 2611
2563 2564
2563 2612
2563 2613
2564 2565
2564 2613
2564 2614
2565 2566
2565 2614
2565 2615
2566 2567
2566 2614
2566 2615
2566 2616
2567 2568
2567 2615
2567 2616
2567 2617
2568 2569
2568 2616
2568 2617
2568 2618
2569 2570
2569 2617
2569 2618
2570 2571
2570 2618
2570 2619
2571 2572
2571 2619
2571 2620
2572 2573
2572 2619
2572 2620
2572 2621
2573 2574
2573 2620
2573 2621
2573 2622
2574 2575
2574 2621
2574 2622
2574 2623
2575 2576
2575 2622
2575 2623
2575 2624
2576 2577
2576 2623
2576 2624
2576 2625
2577 2624
2577 2625
2578 2579
2578 2626
2578 2627
2579 2626
2579 2627
2579 2628
2580 2581
2580 2628
2580 2629
2580 2630
2581 2582
2581 2629
2581 2630
2581 2631
2582 2583
2582 2630
2582 2631
2582 2632
2583 2584
2583 2631
2583 2632
2583 2633
2584 2585
2584 2632
2584 2633
2584 2634
2585 2633
2585 2634
2586 2587
2586 2635
2586 2636
2587 2588
2587 2635
2587 2636
2587 2637
2588 2636
2588 2637
2588 2638
2589 2590
2589 2639
2589 2640
2590 2591
2590 2640
2590 2641
2591 2592
2591 2640
2591 2641
2591 2642
2592 2593
2592 2641
2592 2642
2592 2643
2593 2642
2593 2643
2593 2644
2594 2595
2594 2644
2594 2645
2594 2646
2595 2596
2595 2645
2595 2646
2595 2647
2596 2597
2596 2646
2596 2647
2596 2648
2597 2598
2597 2647
2597 2648
2597 2649
2598 2599
2598 2648
2598 2649
2599 2600
2599 2649
2599 2650
2600 2650
2600 2651
2601 2602
2601 2651
2601 2652
2601 2653
2602 2603
2602 2652
2602 2653
2602 2654
2603 2604
2603 2653
2603 2654
2603 2655
2604 2654
2604 2655
2604 2656
2605 2606
2605 2656
2605 2657
2606 2657
2606 2658
2607 2658
2607 2659
2607 2660
2608 2609
2608 2660
2608 2661
2608 2662
2609 2610
2609 2661
2609 2662
2609 2663
2610 2662
2610 2663
2610 2664
2611 2612
2611 2664
2611 2665
2612 2613
2612 2665
2612 2666
2613 2665
2613 2666
2613 2667
2614 2615
2614 2667
2614 2668
2614 2669
2615 2616
2615 2668
2615 2669
2615 2670
2616 2617
2616 2669
2616 2670
2616 2671
2617 2618
2617 2670
2617 2671
2617 2672
2618 2671
2618 2672
2619 2620
2619 2673
2619 2674
2620 2621
2620 2673
2620 2674
2621 2622
2621 2674
2621 2675
2622 2623
2622 2675
2622 2676
2623 2624
2623 2675
2623 2676
2623 2677
2624 2625
2624 2676
2624 2677
2624 2678
2625 2677
2625 2678
2626 2627
2626 2679
2626 2680
2627 2628
2627 2679
2627 2680
2627 2681
2628 2629
2628 2680
2628 2681
2628 2682
2629 2630
2629 2681
2629 2682
2629 2683
2630 2631
2630 2682
2630 2683
2630 2684
2631 2632
2631 2683
2631 2684
2631 2685
2632 2633
2632 2684
2632 2685
2633 2634
2633 2685
2633 2686
2634 2686
2634 2687
2635 2636
2635 2687
2635 2688
2635 2689
2636 2637
2636 2688
2636 2689
2636 2690
2637 2638
2637 2689
2637 2690
2637 2691
2638 2639
2638 2690
2638 2691
2638 2692
2639 2691
2639 2692
2639 2693
2640 2641
2640 2693
2640 2694
2640 2695
2641 2642
2641 2694
2641 2695
2641 2696
2642 2643
2642 2695
2642 2696
2642 2697
2643 2644
2643 2696
2643 2697
2643 2698
2644 2645
2644 2697
2644 2698
2644 2699
2645 2646
2645 2698
2645 2699
2645 2700
2646 2647
2646 2699
2646 2700
2646 2701
2647 2648
2647 2700
2647 2701
2648 2649
2648 2701
2648 2702
2649 2702
2649 2703
2650 2651
2650 2703
2650 2704
2650 2705
2651 2652
2651 2704
2651 2705
2651 2706
2652 2653
2652 2705
2652 2706
2652 2707
2653 2654
2653 2706
2653 2707
2653 2708
2654 2655
2654 2707
2654 2708
2654 2709
2655 2656
2655 2708
2655 2709
2655 2710
2656 2657
2656 2709
2656 2710
2656 2711
2657 2710
2657 2711
2657 2712
2658 2659
2658 2712
2658 2713
2658 2714
2659 2660
2659 2713
2659 2714
2660 2661
2660 2714
2660 2715
2661 2662
2661 2715
2661 2716
2662 2663
2662 2715
2662 2716
2662 2717
2663 2664
2663 2716
2663 2717
2663 2718
2664 2717
2664 2718
2664 2719
2665 2666
2665 2719
2665 2720
2666 2667
2666 2720
2666 2721
2667 2668
2667 2720
2667 2721
2667 2722
2668 2669
2668 2721
2668 2722
2668 2723
2669 2670
2669 2722
2669 2723
2669 2724
2670 2671
2670 2723
2670 2724
2670 2725
2671 2672
2671 2724
2671 2725
2671 2726
2672 2725
2672 2726
2672 2727
2673 2674
2673 2727
2673 2728
2673 2729
2674 2728
2674 2729
2674 2730
2675 2676
2675 2730
2675 2731
2676 2677
2676 2731
2676 2732
2677 2678
2677 2732
2677 2733
2678 2732
2678 2733
2679 2680
2679 2734
2679 2735
2680 2681
2680 2734
2680 2735
2680 2736
2681 2682
2681 2735
2681 2736
2681 2737
2682 2683
2682 2736
2682 2737
2682 2738
2683 2684
2683 2737
2683 2738
2683 2739
2684 2685
2684 2738
2684 2739
2684 2740
2685 2739
2685 2740
2685 2741
2686 2687
2686 2741
2686 2742
2686 2743
2687 2688
2687 2742
2687 2743
2687 2744
2688 2689
2688 2743
2688 2744
2688 2745
2689 2690
2689 2744
2689 2745
2689 2746
2690 2691
2690 2745
2690 2746
2690 2747
2691 2692
2691 2746
2691 2747
2691 2748
2692 2693
2692 2747
2692 2748
2692 2749
2693 2694
2693 2748
2693 2749
2693 2750
2694 2695
2694 2749
2694 2750
2694 2751
2695 2696
2695 2750
2695 2751
2695 2752
2696 2697
2696 2751
2696 2752
2697 2698
2697 2752
2698 2699
2699 2700
2699 2753
2700 2701
2700 2753
2700 2754
2701 2753
2701 2754
2702 2703
2702 2755
2702 2756
2703 2704
2703 2755
2703 2756
2703 2757
2704 2705
2704 2756
2704 2757
2704 2758
2705 2706
2705 2757
2705 2758
2706 2707
2706 2758
2706 2759
2707 2708
2707 2759
2708 2709
2708 2759
2708 2760
2709 2710
2709 2760
2710 2711
2710 2760
2710 2761
2711 2712
2711 2761
2711 2762
2712 2713
2712 2761
2712 2762
2712 2763
2713 2714
2713 2762
2713 2763
2713 2764
2714 2763
2714 2764
2715 2716
2715 2765
2715 2766
2716 2717
2716 2765
2716 2766
2716 2767
2717 2718
2717 2766
2717 2767
2718 2719
2718 2767
2718 2768
2719 2768
2720 2721
2720 2769
2721 2722
2721 2769
2721 2770
2722 2723
2722 2770
2722 2771
2723 2724
2723 2770
2723 2771
2723 2772
2724 2725
2724 2771
2724 2772
2724 2773
2725 2726
2725 2772
2725 2773
2725 2774
2726 2727
2726 2773
2726 2774
2726 2775
2727 2728
2727 2774
2727 2775
2727 2776
2728 2729
2728 2775
2728 2776
2728 2777
2729 2730
2729 2776
2729 2777
2729 2778
2730 2731
2730 2777
2730 2778
2730 2779
2731 2778
2731 2779
2731 2780
2732 2733
2732 2780
2732 2781
2732 2782
2733 2781
2733 2782
2734 2735
2734 2783
2734 2784
2735 2736
2735 2783
2735 2784
2736 2737
2736 2784
2736 2785
2737 2738
2737 2785
2737 2786
2738 2739
2738 2785
2738 2786
2739 2740
2739 2786
2739 2787
2740 2741
2740 2787
2740 2788
2741 2742
2741 2787
2741 2788
2741 2789
2742 2743
2742 2788
2742 2789
2742 2790
2743 2744
2743 2789
2743 2790
2743 2791
2744 2745
2744 2790
2744 2791
2745 2746
2745 2791
2746 2747
2746 2792
2747 2748
2747 2792
2747 2793
2748 2749
2748 2792
2748 2793
2748 2794
2749 2750
2749 2793
2749 2794
2749 2795
2750 2751
2750 2794
2750 2795
2750 2796
2751 2752
2751 2795
2751 2796
2751 2797
2752 2796
2752 2797
2753 2754
2753 2799
2753 2800
2754 2800
2754 2801
2755 2756
2755 2801
2755 2802
2756 2757
2756 2802
2756 2803
2757 2758
2757 2802
2757 2803
2757 2804
2758 2803
2758 2804
2758 2805
2759 2805
2759 2806
2759 2807
2760 2807
2760 2808
2761 2762
2761 2808
2761 2809
2761 2810
2762 2763
2762 2809
2762 2810
2762 2811
2763 2764
2763 2810
2763 2811
2763 2812
2764 2811
2764 2812
2764 2813
2765 2766
2765 2813
2765 2814
2766 2767
2766 2814
2767 2814
2767 2815
2768 2815
2768 2816
2769 2817
2769 2818
2770 2771
2770 2818
2770 2819
2770 2820
2771 2772
2771 2819
2771 2820
2771 2821
2772 2773
2772 2820
2772 2821
2772 2822
2773 2774
2773 2821
2773 2822
2774 2775
2774 2822
2774 2823
2775 2776
2775 2823
2775 2824
2776 2777
2776 2823
2776 2824
2776 2825
2777 2778
2777 2824
2777 2825
2777 2826
2778 2779
2778 2825
2778 2826
2779 2780
2779 2826
2779 2827
2780 2781
2780 2827
2780 2828
2781 2782
2781 2827
2781 2828
2781 2829
2782 2828
2782 2829
2783 2784
2783 2830
2783 2831
2784 2830
2784 2831
2784 2832
2785 2786
2785 2832
2785 2833
2785 2834
2786 2833
2786 2834
2786 2835
2787 2788
2787 2835
2787 2836
2788 2789
2788 2836
2788 2837
2789 2790
2789 2837
2790 2791
2790 2837
2790 2838
2791 2838
2791 2839
2792 2793
2792 2840
2792 2841
2793 2794
2793 2841
2793 2842
2794 2795
2794 2842
2794 2843
2795 2796
2795 2842
2795 2843
2795 2844
2796 2797
2796 2843
2796 2844
2796 2845
2797 2844
2797 2845
2798 2799
2798 2846
2798 2847
2799 2800
2799 2846
2799 2847
2799 2848
2800 2847
2800 2848
2800 2849
2801 2849
2801 2850
2802 2803
2802 2851
2802 2852
2803 2804
2803 2851
2803 2852
2803 2853
2804 2805
2804 2852
2804 2853
2804 2854
2805 2806
2805 2853
2805 2854
2805 2855
2806 2807
2806 2854
2806 2855
2806 2856
2807 2855
2807 2856
2807 2857
2808 2809
2808 2857
2808 2858
2809 2810
2809 2858
2809 2859
2810 2811
2810 2859
2810 2860
2811 2812
2811 2859
2811 2860
2811 2861
2812 2813
2812 2860
2812 2861
2812 2862
2813 2861
2813 2862
2814 2863
2814 2864
2815 2816
2815 2864
2815 2865
2815 2866
2816 2865
2816 2866
2817 2818
2817 2867
2817 2868
2818 2819
2818 2867
2818 2868
2818 2869
2819 2820
2819 2868
2819 2869
2819 2870
2820 2821
2820 2869
2820 2870
2820 2871
2821 2822
2821 2870
2821 2871
2821 2872
2822 2871
2822 2872
2823 2824
2823 2873
2823 2874
2824 2825
2824 2873
2824 2874
2824 2875
2825 2826
2825 2874
2825 2875
2825 2876
2826 2875
2826 2876
2826 2877
2827 2828
2827 2877
2827 2878
2827 2879
2828 2829
2828 2878
2828 2879
2828 2880
2829 2879
2829 2880
2830 2831
2831 2832
2832 2833
2833 2834
2834 2835
2835 2836
2838 2839
2839 2840
2840 2841
2842 2843
2843 2844
2844 2845
2846 2847
2847 2848
2848 2849
2849 2850
2851 2852
2852 2853
2853 2854
2854 2855
2855 2856
2856 2857
2857 2858
2859 2860
2860 2861
2861 2862
2863 2864
2864 2865
2865 2866
2867 2868
2868 2869
2869 2870
2870 2871
2871 2872
2873 2874
2874 2875
2875 2876
2876 2877
2877 2878
2878 2879
2879 2880
