# Factoring MIS graph
n = 2295626083
n1 = 40751
n2 = 56333
k1 = 16
k2 = 16
seed = 7
type = fact_map

vertices: 9502

weights:
0 2.0
1 2.0
2 2.0
3 2.0
4 2.0
5 2.0
6 2.0
7 2.0
8 2.0
9 2.0
10 2.0
11 2.0
12 2.0
13 2.0
14 2.0
15 2.0
16 2.0
17 2.0
18 2.0
19 2.0
20 2.0
21 2.0
22 2.0
23 2.0
24 2.0
25 2.0
26 2.0
27 2.0
28 2.0
29 2.0
30 2.0
31 2.0
32 2.0
33 2.0
34 2.0
35 2.0
36 2.0
37 2.0
38 2.0
39 2.0
40 2.0
41 2.0
42 2.0
43 2.0
44 2.0
45 1.0
46 2.0
47 2.0
48 1.0
49 2.0
50 2.0
51 1.0
52 2.0
53 2.0
54 1.0
55 2.0
56 2.0
57 1.0
58 2.0
59 2.0
60 1.0
61 2.0
62 2.0
63 1.0
64 2.0
65 2.0
66 1.0
67 2.0
68 2.0
69 1.0
70 2.0
71 2.0
72 1.0
73 2.0
74 2.0
75 1.0
76 2.0
77 2.0
78 1.0
79 2.0
80 2.0
81 1.0
82 2.0
83 2.0
84 1.0
85 2.0
86 2.0
87 1.0
88 2.0
89 2.0
90 1.0
91 3.0
92 3.0
93 2.0
94 2.0
95 3.0
96 3.0
97 2.0
98 2.0
99 3.0
100 3.0
101 2.0
102 2.0
103 3.0
104 3.0
105 2.0
106 2.0
107 3.0
108 3.0
109 2.0
110 2.0
111 3.0
112 3.0
113 2.0
114 2.0
115 3.0
116 3.0
117 2.0
118 2.0
119 3.0
120 3.0
121 2.0
122 2.0
123 3.0
124 3.0
125 2.0
126 2.0
127 3.0
128 3.0
129 2.0
130 2.0
131 3.0
132 3.0
133 2.0
134 2.0
135 3.0
136 3.0
137 2.0
138 2.0
139 3.0
140 3.0
141 2.0
142 2.0
143 3.0
144 3.0
145 2.0
146 2.0
147 3.0
148 3.0
149 2.0
150 2.0
151 3.0
152 3.0
153 2.0
154 2.0
155 2.0
156 3.0
157 3.0
158 2.0
159 3.0
160 3.0
161 2.0
162 3.0
163 3.0
164 2.0
165 3.0
166 3.0
167 2.0
168 3.0
169 3.0
170 2.0
171 3.0
172 3.0
173 2.0
174 3.0
175 3.0
176 2.0
177 3.0
178 3.0
179 2.0
180 3.0
181 3.0
182 2.0
183 3.0
184 3.0
185 2.0
186 3.0
187 3.0
188 2.0
189 3.0
190 3.0
191 2.0
192 3.0
193 3.0
194 2.0
195 3.0
196 3.0
197 2.0
198 3.0
199 3.0
200 2.0
201 3.0
202 3.0
203 2.0
204 2.0
205 2.0
206 3.0
207 3.0
208 2.0
209 2.0
210 2.0
211 3.0
212 3.0
213 2.0
214 2.0
215 2.0
216 3.0
217 3.0
218 2.0
219 2.0
220 2.0
221 3.0
222 3.0
223 2.0
224 2.0
225 2.0
226 3.0
227 3.0
228 2.0
229 2.0
230 2.0
231 3.0
232 3.0
233 2.0
234 2.0
235 2.0
236 3.0
237 3.0
238 2.0
239 2.0
240 2.0
241 3.0
242 3.0
243 2.0
244 2.0
245 2.0
246 3.0
247 3.0
248 2.0
249 2.0
250 2.0
251 3.0
252 3.0
253 2.0
254 2.0
255 2.0
256 3.0
257 3.0
258 2.0
259 2.0
260 2.0
261 3.0
262 3.0
263 2.0
264 2.0
265 2.0
266 3.0
267 3.0
268 2.0
269 2.0
270 2.0
271 3.0
272 3.0
273 2.0
274 2.0
275 2.0
276 3.0
277 3.0
278 2.0
279 2.0
280 2.0
281 2.0
282 2.0
283 2.0
284 2.0
285 2.0
286 2.0
287 2.0
288 2.0
289 2.0
290 2.0
291 2.0
292 2.0
293 2.0
294 2.0
295 2.0
296 2.0
297 2.0
298 2.0
299 2.0
300 2.0
301 2.0
302 2.0
303 2.0
304 2.0
305 2.0
306 2.0
307 2.0
308 2.0
309 2.0
310 2.0
311 2.0
312 2.0
313 2.0
314 2.0
315 2.0
316 2.0
317 2.0
318 2.0
319 2.0
320 2.0
321 2.0
322 2.0
323 2.0
324 2.0
325 2.0
326 2.0
327 2.0
328 2.0
329 2.0
330 2.0
331 2.0
332 2.0
333 2.0
334 2.0
335 2.0
336 2.0
337 2.0
338 2.0
339 2.0
340 2.0
341 2.0
342 2.0
343 2.0
344 2.0
345 2.0
346 2.0
347 2.0
348 2.0
349 2.0
350 2.0
351 2.0
352 2.0
353 2.0
354 2.0
355 2.0
356 2.0
357 2.0
358 2.0
359 2.0
360 2.0
361 2.0
362 2.0
363 2.0
364 2.0
365 2.0
366 2.0
367 2.0
368 2.0
369 2.0
370 2.0
371 2.0
372 2.0
373 2.0
374 2.0
375 2.0
376 2.0
377 3.0
378 4.0
379 3.0
380 3.0
381 3.0
382 3.0
383 3.0
384 4.0
385 3.0
386 3.0
387 3.0
388 3.0
389 3.0
390 4.0
391 3.0
392 3.0
393 3.0
394 3.0
395 3.0
396 4.0
397 3.0
398 3.0
399 3.0
400 3.0
401 3.0
402 4.0
403 3.0
404 3.0
405 3.0
406 3.0
407 3.0
408 4.0
409 3.0
410 3.0
411 3.0
412 3.0
413 3.0
414 4.0
415 3.0
416 3.0
417 3.0
418 3.0
419 3.0
420 4.0
421 3.0
422 3.0
423 3.0
424 3.0
425 3.0
426 4.0
427 3.0
428 3.0
429 3.0
430 3.0
431 3.0
432 4.0
433 3.0
434 3.0
435 3.0
436 3.0
437 3.0
438 4.0
439 3.0
440 3.0
441 3.0
442 3.0
443 3.0
444 4.0
445 3.0
446 3.0
447 3.0
448 3.0
449 3.0
450 4.0
451 3.0
452 3.0
453 3.0
454 3.0
455 3.0
456 4.0
457 3.0
458 3.0
459 3.0
460 3.0
461 3.0
462 4.0
463 3.0
464 3.0
465 3.0
466 3.0
467 3.0
468 4.0
469 3.0
470 3.0
471 3.0
472 3.0
473 1.0
474 2.0
475 2.0
476 2.0
477 2.0
478 2.0
479 2.0
480 2.0
481 2.0
482 2.0
483 2.0
484 2.0
485 2.0
486 2.0
487 2.0
488 2.0
489 2.0
490 2.0
491 2.0
492 2.0
493 2.0
494 2.0
495 2.0
496 2.0
497 2.0
498 2.0
499 2.0
500 2.0
501 2.0
502 2.0
503 2.0
504 2.0
505 2.0
506 2.0
507 2.0
508 2.0
509 2.0
510 2.0
511 2.0
512 2.0
513 2.0
514 2.0
515 2.0
516 2.0
517 2.0
518 2.0
519 2.0
520 2.0
521 2.0
522 2.0
523 2.0
524 2.0
525 2.0
526 2.0
527 2.0
528 2.0
529 2.0
530 2.0
531 2.0
532 2.0
533 2.0
534 2.0
535 2.0
536 2.0
537 1.0
538 3.0
539 3.0
540 3.0
541 3.0
542 3.0
543 3.0
544 3.0
545 3.0
546 3.0
547 3.0
548 3.0
549 3.0
550 3.0
551 3.0
552 3.0
553 3.0
554 3.0
555 3.0
556 3.0
557 3.0
558 3.0
559 3.0
560 3.0
561 3.0
562 3.0
563 3.0
564 3.0
565 3.0
566 3.0
567 3.0
568 3.0
569 3.0
570 3.0
571 3.0
572 3.0
573 3.0
574 3.0
575 3.0
576 3.0
577 3.0
578 3.0
579 3.0
580 3.0
581 3.0
582 3.0
583 3.0
584 3.0
585 3.0
586 3.0
587 3.0
588 3.0
589 3.0
590 3.0
591 3.0
592 3.0
593 3.0
594 3.0
595 3.0
596 3.0
597 3.0
598 3.0
599 3.0
600 3.0
601 3.0
602 3.0
603 3.0
604 3.0
605 3.0
606 3.0
607 3.0
608 3.0
609 3.0
610 3.0
611 3.0
612 3.0
613 3.0
614 3.0
615 3.0
616 3.0
617 3.0
618 3.0
619 3.0
620 3.0
621 3.0
622 3.0
623 3.0
624 3.0
625 3.0
626 3.0
627 3.0
628 3.0
629 3.0
630 3.0
631 3.0
632 3.0
633 3.0
634 2.0
635 2.0
636 2.0
637 2.0
638 2.0
639 2.0
640 2.0
641 2.0
642 2.0
643 2.0
644 2.0
645 2.0
646 2.0
647 2.0
648 2.0
649 2.0
650 2.0
651 2.0
652 2.0
653 2.0
654 2.0
655 2.0
656 2.0
657 2.0
658 2.0
659 2.0
660 2.0
661 2.0
662 2.0
663 2.0
664 2.0
665 2.0
666 2.0
667 2.0
668 2.0
669 2.0
670 2.0
671 2.0
672 2.0
673 2.0
674 2.0
675 2.0
676 2.0
677 2.0
678 2.0
679 2.0
680 2.0
681 3.0
682 3.0
683 2.0
684 2.0
685 3.0
686 3.0
687 2.0
688 2.0
689 3.0
690 3.0
691 2.0
692 2.0
693 3.0
694 3.0
695 2.0
696 2.0
697 3.0
698 3.0
699 2.0
700 2.0
701 3.0
702 3.0
703 2.0
704 2.0
705 3.0
706 3.0
707 2.0
708 2.0
709 3.0
710 3.0
711 2.0
712 2.0
713 3.0
714 3.0
715 2.0
716 2.0
717 3.0
718 3.0
719 2.0
720 2.0
721 3.0
722 3.0
723 2.0
724 2.0
725 3.0
726 3.0
727 2.0
728 2.0
729 3.0
730 3.0
731 2.0
732 2.0
733 3.0
734 3.0
735 2.0
736 2.0
737 3.0
738 3.0
739 2.0
740 2.0
741 3.0
742 3.0
743 2.0
744 2.0
745 2.0
746 3.0
747 3.0
748 2.0
749 3.0
750 3.0
751 2.0
752 3.0
753 3.0
754 2.0
755 3.0
756 3.0
757 2.0
758 3.0
759 3.0
760 2.0
761 3.0
762 3.0
763 2.0
764 3.0
765 3.0
766 2.0
767 3.0
768 3.0
769 2.0
770 3.0
771 3.0
772 2.0
773 3.0
774 3.0
775 2.0
776 3.0
777 3.0
778 2.0
779 3.0
780 3.0
781 2.0
782 3.0
783 3.0
784 2.0
785 3.0
786 3.0
787 2.0
788 3.0
789 3.0
790 2.0
791 3.0
792 3.0
793 3.0
794 3.0
795 2.0
796 2.0
797 2.0
798 3.0
799 3.0
800 2.0
801 2.0
802 2.0
803 3.0
804 3.0
805 2.0
806 2.0
807 2.0
808 3.0
809 3.0
810 2.0
811 2.0
812 2.0
813 3.0
814 3.0
815 2.0
816 2.0
817 2.0
818 3.0
819 3.0
820 2.0
821 2.0
822 2.0
823 3.0
824 3.0
825 2.0
826 2.0
827 2.0
828 3.0
829 3.0
830 2.0
831 2.0
832 2.0
833 3.0
834 3.0
835 2.0
836 2.0
837 2.0
838 3.0
839 3.0
840 2.0
841 2.0
842 2.0
843 3.0
844 3.0
845 2.0
846 2.0
847 2.0
848 3.0
849 3.0
850 2.0
851 2.0
852 2.0
853 3.0
854 3.0
855 2.0
856 2.0
857 2.0
858 3.0
859 3.0
860 2.0
861 2.0
862 2.0
863 3.0
864 3.0
865 2.0
866 2.0
867 2.0
868 3.0
869 3.0
870 2.0
871 2.0
872 2.0
873 2.0
874 2.0
875 2.0
876 2.0
877 2.0
878 2.0
879 2.0
880 2.0
881 2.0
882 2.0
883 2.0
884 2.0
885 2.0
886 2.0
887 2.0
888 2.0
889 2.0
890 2.0
891 2.0
892 2.0
893 2.0
894 2.0
895 2.0
896 2.0
897 2.0
898 2.0
899 2.0
900 2.0
901 2.0
902 2.0
903 2.0
904 2.0
905 2.0
906 2.0
907 2.0
908 2.0
909 2.0
910 2.0
911 2.0
912 2.0
913 2.0
914 2.0
915 2.0
916 2.0
917 2.0
918 2.0
919 2.0
920 2.0
921 2.0
922 2.0
923 2.0
924 2.0
925 2.0
926 2.0
927 2.0
928 2.0
929 2.0
930 2.0
931 2.0
932 2.0
933 2.0
934 2.0
935 2.0
936 2.0
937 2.0
938 2.0
939 2.0
940 2.0
941 2.0
942 2.0
943 2.0
944 2.0
945 2.0
946 2.0
947 2.0
948 2.0
949 2.0
950 2.0
951 2.0
952 2.0
953 2.0
954 2.0
955 2.0
956 2.0
957 2.0
958 2.0
959 2.0
960 2.0
961 2.0
962 2.0
963 2.0
964 2.0
965 2.0
966 2.0
967 2.0
968 2.0
969 3.0
970 4.0
971 3.0
972 3.0
973 3.0
974 3.0
975 3.0
976 4.0
977 3.0
978 3.0
979 3.0
980 3.0
981 3.0
982 4.0
983 3.0
984 3.0
985 3.0
986 3.0
987 3.0
988 4.0
989 3.0
990 3.0
991 3.0
992 3.0
993 3.0
994 4.0
995 3.0
996 3.0
997 3.0
998 3.0
999 3.0
1000 4.0
1001 3.0
1002 3.0
1003 3.0
1004 3.0
1005 3.0
1006 4.0
1007 3.0
1008 3.0
1009 3.0
1010 3.0
1011 3.0
1012 4.0
1013 3.0
1014 3.0
1015 3.0
1016 3.0
1017 3.0
1018 4.0
1019 3.0
1020 3.0
1021 3.0
1022 3.0
1023 3.0
1024 4.0
1025 3.0
1026 3.0
1027 3.0
1028 3.0
1029 3.0
1030 4.0
1031 3.0
1032 3.0
1033 3.0
1034 3.0
1035 3.0
1036 4.0
1037 3.0
1038 3.0
1039 3.0
1040 3.0
1041 3.0
1042 4.0
1043 3.0
1044 3.0
1045 3.0
1046 3.0
1047 3.0
1048 4.0
1049 3.0
1050 3.0
1051 3.0
1052 3.0
1053 3.0
1054 4.0
1055 3.0
1056 3.0
1057 3.0
1058 3.0
1059 3.0
1060 4.0
1061 3.0
1062 3.0
1063 3.0
1064 3.0
1065 1.0
1066 2.0
1067 2.0
1068 2.0
1069 2.0
1070 2.0
1071 2.0
1072 2.0
1073 2.0
1074 2.0
1075 2.0
1076 2.0
1077 2.0
1078 2.0
1079 2.0
1080 2.0
1081 2.0
1082 2.0
1083 2.0
1084 2.0
1085 2.0
1086 2.0
1087 2.0
1088 2.0
1089 2.0
1090 2.0
1091 2.0
1092 2.0
1093 2.0
1094 2.0
1095 2.0
1096 2.0
1097 2.0
1098 2.0
1099 2.0
1100 2.0
1101 2.0
1102 2.0
1103 2.0
1104 2.0
1105 2.0
1106 2.0
1107 2.0
1108 2.0
1109 2.0
1110 2.0
1111 2.0
1112 2.0
1113 2.0
1114 2.0
1115 2.0
1116 2.0
1117 2.0
1118 2.0
1119 2.0
1120 2.0
1121 2.0
1122 2.0
1123 2.0
1124 2.0
1125 2.0
1126 2.0
1127 2.0
1128 2.0
1129 1.0
1130 3.0
1131 3.0
1132 3.0
1133 3.0
1134 3.0
1135 3.0
1136 3.0
1137 3.0
1138 3.0
1139 3.0
1140 3.0
1141 3.0
1142 3.0
1143 3.0
1144 3.0
1145 3.0
1146 3.0
1147 3.0
1148 3.0
1149 3.0
1150 3.0
1151 3.0
1152 3.0
1153 3.0
1154 3.0
1155 3.0
1156 3.0
1157 3.0
1158 3.0
1159 3.0
1160 3.0
1161 3.0
1162 3.0
1163 3.0
1164 3.0
1165 3.0
1166 3.0
1167 3.0
1168 3.0
1169 3.0
1170 3.0
1171 3.0
1172 3.0
1173 3.0
1174 3.0
1175 3.0
1176 3.0
1177 3.0
1178 3.0
1179 3.0
1180 3.0
1181 3.0
1182 3.0
1183 3.0
1184 3.0
1185 3.0
1186 3.0
1187 3.0
1188 3.0
1189 3.0
1190 3.0
1191 3.0
1192 3.0
1193 3.0
1194 3.0
1195 3.0
1196 3.0
1197 3.0
1198 3.0
1199 3.0
1200 3.0
1201 3.0
1202 3.0
1203 3.0
1204 3.0
1205 3.0
1206 3.0
1207 3.0
1208 3.0
1209 3.0
1210 3.0
1211 3.0
1212 3.0
1213 3.0
1214 3.0
1215 3.0
1216 3.0
1217 3.0
1218 3.0
1219 3.0
1220 3.0
1221 3.0
1222 3.0
1223 3.0
1224 3.0
1225 3.0
1226 2.0
1227 2.0
1228 2.0
1229 2.0
1230 2.0
1231 2.0
1232 2.0
1233 2.0
1234 2.0
1235 2.0
1236 2.0
1237 2.0
1238 2.0
1239 2.0
1240 2.0
1241 2.0
1242 2.0
1243 2.0
1244 2.0
1245 2.0
1246 2.0
1247 2.0
1248 2.0
1249 2.0
1250 2.0
1251 2.0
1252 2.0
1253 2.0
1254 2.0
1255 2.0
1256 2.0
1257 2.0
1258 2.0
1259 2.0
1260 2.0
1261 2.0
1262 2.0
1263 2.0
1264 2.0
1265 2.0
1266 2.0
1267 2.0
1268 2.0
1269 2.0
1270 2.0
1271 2.0
1272 2.0
1273 3.0
1274 3.0
1275 2.0
1276 2.0
1277 3.0
1278 3.0
1279 2.0
1280 2.0
1281 3.0
1282 3.0
1283 2.0
1284 2.0
1285 3.0
1286 3.0
1287 2.0
1288 2.0
1289 3.0
1290 3.0
1291 2.0
1292 2.0
1293 3.0
1294 3.0
1295 2.0
1296 2.0
1297 3.0
1298 3.0
1299 2.0
1300 2.0
1301 3.0
1302 3.0
1303 2.0
1304 2.0
1305 3.0
1306 3.0
1307 2.0
1308 2.0
1309 3.0
1310 3.0
1311 2.0
1312 2.0
1313 3.0
1314 3.0
1315 2.0
1316 2.0
1317 3.0
1318 3.0
1319 2.0
1320 2.0
1321 3.0
1322 3.0
1323 2.0
1324 2.0
1325 3.0
1326 3.0
1327 2.0
1328 2.0
1329 3.0
1330 3.0
1331 2.0
1332 2.0
1333 3.0
1334 3.0
1335 2.0
1336 2.0
1337 2.0
1338 3.0
1339 3.0
1340 2.0
1341 3.0
1342 3.0
1343 2.0
1344 3.0
1345 3.0
1346 2.0
1347 3.0
1348 3.0
1349 2.0
1350 3.0
1351 3.0
1352 2.0
1353 3.0
1354 3.0
1355 2.0
1356 3.0
1357 3.0
1358 2.0
1359 3.0
1360 3.0
1361 2.0
1362 3.0
1363 3.0
1364 2.0
1365 3.0
1366 3.0
1367 2.0
1368 3.0
1369 3.0
1370 2.0
1371 3.0
1372 3.0
1373 2.0
1374 3.0
1375 3.0
1376 2.0
1377 3.0
1378 3.0
1379 2.0
1380 3.0
1381 3.0
1382 2.0
1383 3.0
1384 3.0
1385 3.0
1386 3.0
1387 2.0
1388 2.0
1389 2.0
1390 3.0
1391 3.0
1392 2.0
1393 2.0
1394 2.0
1395 3.0
1396 3.0
1397 2.0
1398 2.0
1399 2.0
1400 3.0
1401 3.0
1402 2.0
1403 2.0
1404 2.0
1405 3.0
1406 3.0
1407 2.0
1408 2.0
1409 2.0
1410 3.0
1411 3.0
1412 2.0
1413 2.0
1414 2.0
1415 3.0
1416 3.0
1417 2.0
1418 2.0
1419 2.0
1420 3.0
1421 3.0
1422 2.0
1423 2.0
1424 2.0
1425 3.0
1426 3.0
1427 2.0
1428 2.0
1429 2.0
1430 3.0
1431 3.0
1432 2.0
1433 2.0
1434 2.0
1435 3.0
1436 3.0
1437 2.0
1438 2.0
1439 2.0
1440 3.0
1441 3.0
1442 2.0
1443 2.0
1444 2.0
1445 3.0
1446 3.0
1447 2.0
1448 2.0
1449 2.0
1450 3.0
1451 3.0
1452 2.0
1453 2.0
1454 2.0
1455 3.0
1456 3.0
1457 2.0
1458 2.0
1459 2.0
1460 3.0
1461 3.0
1462 2.0
1463 2.0
1464 2.0
1465 2.0
1466 2.0
1467 2.0
1468 2.0
1469 2.0
1470 2.0
1471 2.0
1472 2.0
1473 2.0
1474 2.0
1475 2.0
1476 2.0
1477 2.0
1478 2.0
1479 2.0
1480 2.0
1481 2.0
1482 2.0
1483 2.0
1484 2.0
1485 2.0
1486 2.0
1487 2.0
1488 2.0
1489 2.0
1490 2.0
1491 2.0
1492 2.0
1493 2.0
1494 2.0
1495 2.0
1496 2.0
1497 2.0
1498 2.0
1499 2.0
1500 2.0
1501 2.0
1502 2.0
1503 2.0
1504 2.0
1505 2.0
1506 2.0
1507 2.0
1508 2.0
1509 2.0
1510 2.0
1511 2.0
1512 2.0
1513 2.0
1514 2.0
1515 2.0
1516 2.0
1517 2.0
1518 2.0
1519 2.0
1520 2.0
1521 2.0
1522 2.0
1523 2.0
1524 2.0
1525 2.0
1526 2.0
1527 2.0
1528 2.0
1529 2.0
1530 2.0
1531 2.0
1532 2.0
1533 2.0
1534 2.0
1535 2.0
1536 2.0
1537 2.0
1538 2.0
1539 2.0
1540 2.0
1541 2.0
1542 2.0
1543 2.0
1544 2.0
1545 2.0
1546 2.0
1547 2.0
1548 2.0
1549 2.0
1550 2.0
1551 2.0
1552 2.0
1553 2.0
1554 2.0
1555 2.0
1556 2.0
1557 2.0
1558 2.0
1559 2.0
1560 2.0
1561 3.0
1562 4.0
1563 3.0
1564 3.0
1565 3.0
1566 3.0
1567 3.0
1568 4.0
1569 3.0
1570 3.0
1571 3.0
1572 3.0
1573 3.0
1574 4.0
1575 3.0
1576 3.0
1577 3.0
1578 3.0
1579 3.0
1580 4.0
1581 3.0
1582 3.0
1583 3.0
1584 3.0
1585 3.0
1586 4.0
1587 3.0
1588 3.0
1589 3.0
1590 3.0
1591 3.0
1592 4.0
1593 3.0
1594 3.0
1595 3.0
1596 3.0
1597 3.0
1598 4.0
1599 3.0
1600 3.0
1601 3.0
1602 3.0
1603 3.0
1604 4.0
1605 3.0
1606 3.0
1607 3.0
1608 3.0
1609 3.0
1610 4.0
1611 3.0
1612 3.0
1613 3.0
1614 3.0
1615 3.0
1616 4.0
1617 3.0
1618 3.0
1619 3.0
1620 3.0
1621 3.0
1622 4.0
1623 3.0
1624 3.0
1625 3.0
1626 3.0
1627 3.0
1628 4.0
1629 3.0
1630 3.0
1631 3.0
1632 3.0
1633 3.0
1634 4.0
1635 3.0
1636 3.0
1637 3.0
1638 3.0
1639 3.0
1640 4.0
1641 3.0
1642 3.0
1643 3.0
1644 3.0
1645 3.0
1646 4.0
1647 3.0
1648 3.0
1649 3.0
1650 3.0
1651 3.0
1652 4.0
1653 3.0
1654 3.0
1655 3.0
1656 3.0
1657 1.0
1658 2.0
1659 2.0
1660 2.0
1661 2.0
1662 2.0
1663 2.0
1664 2.0
1665 2.0
1666 2.0
1667 2.0
1668 2.0
1669 2.0
1670 2.0
1671 2.0
1672 2.0
1673 2.0
1674 2.0
1675 2.0
1676 2.0
1677 2.0
1678 2.0
1679 2.0
1680 2.0
1681 2.0
1682 2.0
1683 2.0
1684 2.0
1685 2.0
1686 2.0
1687 2.0
1688 2.0
1689 2.0
1690 2.0
1691 2.0
1692 2.0
1693 2.0
1694 2.0
1695 2.0
1696 2.0
1697 2.0
1698 2.0
1699 2.0
1700 2.0
1701 2.0
1702 2.0
1703 2.0
1704 2.0
1705 2.0
1706 2.0
1707 2.0
1708 2.0
1709 2.0
1710 2.0
1711 2.0
1712 2.0
1713 2.0
1714 2.0
1715 2.0
1716 2.0
1717 2.0
1718 2.0
1719 2.0
1720 2.0
1721 1.0
1722 3.0
1723 3.0
1724 3.0
1725 3.0
1726 3.0
1727 3.0
1728 3.0
1729 3.0
1730 3.0
1731 3.0
1732 3.0
1733 3.0
1734 3.0
1735 3.0
1736 3.0
1737 3.0
1738 3.0
1739 3.0
1740 3.0
1741 3.0
1742 3.0
1743 3.0
1744 3.0
1745 3.0
1746 3.0
1747 3.0
1748 3.0
1749 3.0
1750 3.0
1751 3.0
1752 3.0
1753 3.0
1754 3.0
1755 3.0
1756 3.0
1757 3.0
1758 3.0
1759 3.0
1760 3.0
1761 3.0
1762 3.0
1763 3.0
1764 3.0
1765 3.0
1766 3.0
1767 3.0
1768 3.0
1769 3.0
1770 3.0
1771 3.0
1772 3.0
1773 3.0
1774 3.0
1775 3.0
1776 3.0
1777 3.0
1778 3.0
1779 3.0
1780 3.0
1781 3.0
1782 3.0
1783 3.0
1784 3.0
1785 3.0
1786 3.0
1787 3.0
1788 3.0
1789 3.0
1790 3.0
1791 3.0
1792 3.0
1793 3.0
1794 3.0
1795 3.0
1796 3.0
1797 3.0
1798 3.0
1799 3.0
1800 3.0
1801 3.0
1802 3.0
1803 3.0
1804 3.0
1805 3.0
1806 3.0
1807 3.0
1808 3.0
1809 3.0
1810 3.0
1811 3.0
1812 3.0
1813 3.0
1814 3.0
1815 3.0
1816 3.0
1817 3.0
1818 2.0
1819 2.0
1820 2.0
1821 2.0
1822 2.0
1823 2.0
1824 2.0
1825 2.0
1826 2.0
1827 2.0
1828 2.0
1829 2.0
1830 2.0
1831 2.0
1832 2.0
1833 2.0
1834 2.0
1835 2.0
1836 2.0
1837 2.0
1838 2.0
1839 2.0
1840 2.0
1841 2.0
1842 2.0
1843 2.0
1844 2.0
1845 2.0
1846 2.0
1847 2.0
1848 2.0
1849 2.0
1850 2.0
1851 2.0
1852 2.0
1853 2.0
1854 2.0
1855 2.0
1856 2.0
1857 2.0
1858 2.0
1859 2.0
1860 2.0
1861 2.0
1862 2.0
1863 2.0
1864 2.0
1865 3.0
1866 3.0
1867 2.0
1868 2.0
1869 3.0
1870 3.0
1871 2.0
1872 2.0
1873 3.0
1874 3.0
1875 2.0
1876 2.0
1877 3.0
1878 3.0
1879 2.0
1880 2.0
1881 3.0
1882 3.0
1883 2.0
1884 2.0
1885 3.0
1886 3.0
1887 2.0
1888 2.0
1889 3.0
1890 3.0
1891 2.0
1892 2.0
1893 3.0
1894 3.0
1895 2.0
1896 2.0
1897 3.0
1898 3.0
1899 2.0
1900 2.0
1901 3.0
1902 3.0
1903 2.0
1904 2.0
1905 3.0
1906 3.0
1907 2.0
1908 2.0
1909 3.0
1910 3.0
1911 2.0
1912 2.0
1913 3.0
1914 3.0
1915 2.0
1916 2.0
1917 3.0
1918 3.0
1919 2.0
1920 2.0
1921 3.0
1922 3.0
1923 2.0
1924 2.0
1925 3.0
1926 3.0
1927 2.0
1928 2.0
1929 2.0
1930 3.0
1931 3.0
1932 2.0
1933 3.0
1934 3.0
1935 2.0
1936 3.0
1937 3.0
1938 2.0
1939 3.0
1940 3.0
1941 2.0
1942 3.0
1943 3.0
1944 2.0
1945 3.0
1946 3.0
1947 2.0
1948 3.0
1949 3.0
1950 2.0
1951 3.0
1952 3.0
1953 2.0
1954 3.0
1955 3.0
1956 2.0
1957 3.0
1958 3.0
1959 2.0
1960 3.0
1961 3.0
1962 2.0
1963 3.0
1964 3.0
1965 2.0
1966 3.0
1967 3.0
1968 2.0
1969 3.0
1970 3.0
1971 2.0
1972 3.0
1973 3.0
1974 2.0
1975 3.0
1976 3.0
1977 3.0
1978 3.0
1979 2.0
1980 2.0
1981 2.0
1982 3.0
1983 3.0
1984 2.0
1985 2.0
1986 2.0
1987 3.0
1988 3.0
1989 2.0
1990 2.0
1991 2.0
1992 3.0
1993 3.0
1994 2.0
1995 2.0
1996 2.0
1997 3.0
1998 3.0
1999 2.0
2000 2.0
2001 2.0
2002 3.0
2003 3.0
2004 2.0
2005 2.0
2006 2.0
2007 3.0
2008 3.0
2009 2.0
2010 2.0
2011 2.0
2012 3.0
2013 3.0
2014 2.0
2015 2.0
2016 2.0
2017 3.0
2018 3.0
2019 2.0
2020 2.0
2021 2.0
2022 3.0
2023 3.0
2024 2.0
2025 2.0
2026 2.0
2027 3.0
2028 3.0
2029 2.0
2030 2.0
2031 2.0
2032 3.0
2033 3.0
2034 2.0
2035 2.0
2036 2.0
2037 3.0
2038 3.0
2039 2.0
2040 2.0
2041 2.0
2042 3.0
2043 3.0
2044 2.0
2045 2.0
2046 2.0
2047 3.0
2048 3.0
2049 2.0
2050 2.0
2051 2.0
2052 3.0
2053 3.0
2054 2.0
2055 2.0
2056 2.0
2057 2.0
2058 2.0
2059 2.0
2060 2.0
2061 2.0
2062 2.0
2063 2.0
2064 2.0
2065 2.0
2066 2.0
2067 2.0
2068 2.0
2069 2.0
2070 2.0
2071 2.0
2072 2.0
2073 2.0
2074 2.0
2075 2.0
2076 2.0
2077 2.0
2078 2.0
2079 2.0
2080 2.0
2081 2.0
2082 2.0
2083 2.0
2084 2.0
2085 2.0
2086 2.0
2087 2.0
2088 2.0
2089 2.0
2090 2.0
2091 2.0
2092 2.0
2093 2.0
2094 2.0
2095 2.0
2096 2.0
2097 2.0
2098 2.0
2099 2.0
2100 2.0
2101 2.0
2102 2.0
2103 2.0
2104 2.0
2105 2.0
2106 2.0
2107 2.0
2108 2.0
2109 2.0
2110 2.0
2111 2.0
2112 2.0
2113 2.0
2114 2.0
2115 2.0
2116 2.0
2117 2.0
2118 2.0
2119 2.0
2120 2.0
2121 2.0
2122 2.0
2123 2.0
2124 2.0
2125 2.0
2126 2.0
2127 2.0
2128 2.0
2129 2.0
2130 2.0
2131 2.0
2132 2.0
2133 2.0
2134 2.0
2135 2.0
2136 2.0
2137 2.0
2138 2.0
2139 2.0
2140 2.0
2141 2.0
2142 2.0
2143 2.0
2144 2.0
2145 2.0
2146 2.0
2147 2.0
2148 2.0
2149 2.0
2150 2.0
2151 2.0
2152 2.0
2153 3.0
2154 4.0
2155 3.0
2156 3.0
2157 3.0
2158 3.0
2159 3.0
2160 4.0
2161 3.0
2162 3.0
2163 3.0
2164 3.0
2165 3.0
2166 4.0
2167 3.0
2168 3.0
2169 3.0
2170 3.0
2171 3.0
2172 4.0
2173 3.0
2174 3.0
2175 3.0
2176 3.0
2177 3.0
2178 4.0
2179 3.0
2180 3.0
2181 3.0
2182 3.0
2183 3.0
2184 4.0
2185 3.0
2186 3.0
2187 3.0
2188 3.0
2189 3.0
2190 4.0
2191 3.0
2192 3.0
2193 3.0
2194 3.0
2195 3.0
2196 4.0
2197 3.0
2198 3.0
2199 3.0
2200 3.0
2201 3.0
2202 4.0
2203 3.0
2204 3.0
2205 3.0
2206 3.0
2207 3.0
2208 4.0
2209 3.0
2210 3.0
2211 3.0
2212 3.0
2213 3.0
2214 4.0
2215 3.0
2216 3.0
2217 3.0
2218 3.0
2219 3.0
2220 4.0
2221 3.0
2222 3.0
2223 3.0
2224 3.0
2225 3.0
2226 4.0
2227 3.0
2228 3.0
2229 3.0
2230 3.0
2231 3.0
2232 4.0
2233 3.0
2234 3.0
2235 3.0
2236 3.0
2237 3.0
2238 4.0
2239 3.0
2240 3.0
2241 3.0
2242 3.0
2243 3.0
2244 4.0
2245 3.0
2246 3.0
2247 3.0
2248 3.0
2249 1.0
2250 2.0
2251 2.0
2252 2.0
2253 2.0
2254 2.0
2255 2.0
2256 2.0
2257 2.0
2258 2.0
2259 2.0
2260 2.0
2261 2.0
2262 2.0
2263 2.0
2264 2.0
2265 2.0
2266 2.0
2267 2.0
2268 2.0
2269 2.0
2270 2.0
2271 2.0
2272 2.0
2273 2.0
2274 2.0
2275 2.0
2276 2.0
2277 2.0
2278 2.0
2279 2.0
2280 2.0
2281 2.0
2282 2.0
2283 2.0
2284 2.0
2285 2.0
2286 2.0
2287 2.0
2288 2.0
2289 2.0
2290 2.0
2291 2.0
2292 2.0
2293 2.0
2294 2.0
2295 2.0
2296 2.0
2297 2.0
2298 2.0
2299 2.0
2300 2.0
2301 2.0
2302 2.0
2303 2.0
2304 2.0
2305 2.0
2306 2.0
2307 2.0
2308 2.0
2309 2.0
2310 2.0
2311 2.0
2312 2.0
2313 1.0
2314 3.0
2315 3.0
2316 3.0
2317 3.0
2318 3.0
2319 3.0
2320 3.0
2321 3.0
2322 3.0
2323 3.0
2324 3.0
2325 3.0
2326 3.0
2327 3.0
2328 3.0
2329 3.0
2330 3.0
2331 3.0
2332 3.0
2333 3.0
2334 3.0
2335 3.0
2336 3.0
2337 3.0
2338 3.0
2339 3.0
2340 3.0
2341 3.0
2342 3.0
2343 3.0
2344 3.0
2345 3.0
2346 3.0
2347 3.0
2348 3.0
2349 3.0
2350 3.0
2351 3.0
2352 3.0
2353 3.0
2354 3.0
2355 3.0
2356 3.0
2357 3.0
2358 3.0
2359 3.0
2360 3.0
2361 3.0
2362 3.0
2363 3.0
2364 3.0
2365 3.0
2366 3.0
2367 3.0
2368 3.0
2369 3.0
2370 3.0
2371 3.0
2372 3.0
2373 3.0
2374 3.0
2375 3.0
2376 3.0
2377 3.0
2378 3.0
2379 3.0
2380 3.0
2381 3.0
2382 3.0
2383 3.0
2384 3.0
2385 3.0
2386 3.0
2387 3.0
2388 3.0
2389 3.0
2390 3.0
2391 3.0
2392 3.0
2393 3.0
2394 3.0
2395 3.0
2396 3.0
2397 3.0
2398 3.0
2399 3.0
2400 3.0
2401 3.0
2402 3.0
2403 3.0
2404 3.0
2405 3.0
2406 3.0
2407 3.0
2408 2.0
2409 2.0
2410 2.0
2411 2.0
2412 2.0
2413 2.0
2414 2.0
2415 2.0
2416 2.0
2417 2.0
2418 2.0
2419 2.0
2420 2.0
2421 2.0
2422 2.0
2423 2.0
2424 2.0
2425 2.0
2426 2.0
2427 2.0
2428 2.0
2429 2.0
2430 2.0
2431 2.0
2432 2.0
2433 2.0
2434 2.0
2435 2.0
2436 2.0
2437 2.0
2438 2.0
2439 2.0
2440 2.0
2441 2.0
2442 2.0
2443 2.0
2444 2.0
2445 2.0
2446 2.0
2447 2.0
2448 2.0
2449 2.0
2450 2.0
2451 2.0
2452 2.0
2453 2.0
2454 2.0
2455 3.0
2456 3.0
2457 2.0
2458 2.0
2459 3.0
2460 3.0
2461 2.0
2462 2.0
2463 3.0
2464 3.0
2465 2.0
2466 2.0
2467 3.0
2468 3.0
2469 2.0
2470 2.0
2471 3.0
2472 3.0
2473 2.0
2474 2.0
2475 3.0
2476 3.0
2477 2.0
2478 2.0
2479 3.0
2480 3.0
2481 2.0
2482 2.0
2483 3.0
2484 3.0
2485 2.0
2486 2.0
2487 3.0
2488 3.0
2489 2.0
2490 2.0
2491 3.0
2492 3.0
2493 2.0
2494 2.0
2495 3.0
2496 3.0
2497 2.0
2498 2.0
2499 3.0
2500 3.0
2501 2.0
2502 2.0
2503 3.0
2504 3.0
2505 2.0
2506 2.0
2507 3.0
2508 3.0
2509 2.0
2510 2.0
2511 3.0
2512 3.0
2513 2.0
2514 2.0
2515 3.0
2516 3.0
2517 2.0
2518 2.0
2519 2.0
2520 3.0
2521 3.0
2522 2.0
2523 3.0
2524 3.0
2525 2.0
2526 3.0
2527 3.0
2528 2.0
2529 3.0
2530 3.0
2531 2.0
2532 3.0
2533 3.0
2534 2.0
2535 3.0
2536 3.0
2537 2.0
2538 3.0
2539 3.0
2540 2.0
2541 3.0
2542 3.0
2543 2.0
2544 3.0
2545 3.0
2546 2.0
2547 3.0
2548 3.0
2549 2.0
2550 3.0
2551 3.0
2552 2.0
2553 3.0
2554 3.0
2555 2.0
2556 3.0
2557 3.0
2558 2.0
2559 3.0
2560 3.0
2561 2.0
2562 3.0
2563 3.0
2564 2.0
2565 3.0
2566 3.0
2567 3.0
2568 3.0
2569 2.0
2570 2.0
2571 2.0
2572 3.0
2573 3.0
2574 2.0
2575 2.0
2576 2.0
2577 3.0
2578 3.0
2579 2.0
2580 2.0
2581 2.0
2582 3.0
2583 3.0
2584 2.0
2585 2.0
2586 2.0
2587 3.0
2588 3.0
2589 2.0
2590 2.0
2591 2.0
2592 3.0
2593 3.0
2594 2.0
2595 2.0
2596 2.0
2597 3.0
2598 3.0
2599 2.0
2600 2.0
2601 2.0
2602 3.0
2603 3.0
2604 2.0
2605 2.0
2606 2.0
2607 3.0
2608 3.0
2609 2.0
2610 2.0
2611 2.0
2612 3.0
2613 3.0
2614 2.0
2615 2.0
2616 2.0
2617 3.0
2618 3.0
2619 2.0
2620 2.0
2621 2.0
2622 3.0
2623 3.0
2624 2.0
2625 2.0
2626 2.0
2627 3.0
2628 3.0
2629 2.0
2630 2.0
2631 2.0
2632 3.0
2633 3.0
2634 2.0
2635 2.0
2636 2.0
2637 3.0
2638 3.0
2639 2.0
2640 2.0
2641 2.0
2642 3.0
2643 3.0
2644 2.0
2645 2.0
2646 2.0
2647 2.0
2648 2.0
2649 2.0
2650 2.0
2651 2.0
2652 2.0
2653 2.0
2654 2.0
2655 2.0
2656 2.0
2657 2.0
2658 2.0
2659 2.0
2660 2.0
2661 2.0
2662 2.0
2663 2.0
2664 2.0
2665 2.0
2666 2.0
2667 2.0
2668 2.0
2669 2.0
2670 2.0
2671 2.0
2672 2.0
2673 2.0
2674 2.0
2675 2.0
2676 2.0
2677 2.0
2678 2.0
2679 2.0
2680 2.0
2681 2.0
2682 2.0
2683 2.0
2684 2.0
2685 2.0
2686 2.0
2687 2.0
2688 2.0
2689 2.0
2690 2.0
2691 2.0
2692 2.0
2693 2.0
2694 2.0
2695 2.0
2696 2.0
2697 2.0
2698 2.0
2699 2.0
2700 2.0
2701 2.0
2702 2.0
2703 2.0
2704 2.0
2705 2.0
2706 2.0
2707 2.0
2708 2.0
2709 2.0
2710 2.0
2711 2.0
2712 2.0
2713 2.0
2714 2.0
2715 2.0
2716 2.0
2717 2.0
2718 2.0
2719 2.0
2720 2.0
2721 2.0
2722 2.0
2723 2.0
2724 2.0
2725 2.0
2726 2.0
2727 2.0
2728 2.0
2729 2.0
2730 2.0
2731 2.0
2732 2.0
2733 2.0
2734 2.0
2735 2.0
2736 2.0
2737 2.0
2738 2.0
2739 2.0
2740 2.0
2741 2.0
2742 2.0
2743 3.0
2744 4.0
2745 3.0
2746 3.0
2747 3.0
2748 3.0
2749 3.0
2750 4.0
2751 3.0
2752 3.0
2753 3.0
2754 3.0
2755 3.0
2756 4.0
2757 3.0
2758 3.0
2759 3.0
2760 3.0
2761 3.0
2762 4.0
2763 3.0
2764 3.0
2765 3.0
2766 3.0
2767 3.0
2768 4.0
2769 3.0
2770 3.0
2771 3.0
2772 3.0
2773 3.0
2774 4.0
2775 3.0
2776 3.0
2777 3.0
2778 3.0
2779 3.0
2780 4.0
2781 3.0
2782 3.0
2783 3.0
2784 3.0
2785 3.0
2786 4.0
2787 3.0
2788 3.0
2789 3.0
2790 3.0
2791 3.0
2792 4.0
2793 3.0
2794 3.0
2795 3.0
2796 3.0
2797 3.0
2798 4.0
2799 3.0
2800 3.0
2801 3.0
2802 3.0
2803 3.0
2804 4.0
2805 3.0
2806 3.0
2807 3.0
2808 3.0
2809 3.0
2810 4.0
2811 3.0
2812 3.0
2813 3.0
2814 3.0
2815 3.0
2816 4.0
2817 3.0
2818 3.0
2819 3.0
2820 3.0
2821 3.0
2822 4.0
2823 3.0
2824 3.0
2825 3.0
2826 3.0
2827 3.0
2828 4.0
2829 3.0
2830 3.0
2831 3.0
2832 3.0
2833 3.0
2834 4.0
2835 3.0
2836 3.0
2837 3.0
2838 3.0
2839 1.0
2840 2.0
2841 2.0
2842 2.0
2843 2.0
2844 2.0
2845 2.0
2846 2.0
2847 2.0
2848 2.0
2849 2.0
2850 2.0
2851 2.0
2852 2.0
2853 2.0
2854 2.0
2855 2.0
2856 2.0
2857 2.0
2858 2.0
2859 2.0
2860 2.0
2861 2.0
2862 2.0
2863 2.0
2864 2.0
2865 2.0
2866 2.0
2867 2.0
2868 2.0
2869 2.0
2870 2.0
2871 2.0
2872 2.0
2873 2.0
2874 2.0
2875 2.0
2876 2.0
2877 2.0
2878 2.0
2879 2.0
2880 2.0
2881 2.0
2882 2.0
2883 2.0
2884 2.0
2885 2.0
2886 2.0
2887 2.0
2888 2.0
2889 2.0
2890 2.0
2891 2.0
2892 2.0
2893 2.0
2894 2.0
2895 2.0
2896 2.0
2897 2.0
2898 2.0
2899 2.0
2900 2.0
2901 2.0
2902 2.0
2903 1.0
2904 3.0
2905 3.0
2906 3.0
2907 3.0
2908 3.0
2909 3.0
2910 3.0
2911 3.0
2912 3.0
2913 3.0
2914 3.0
2915 3.0
2916 3.0
2917 3.0
2918 3.0
2919 3.0
2920 3.0
2921 3.0
2922 3.0
2923 3.0
2924 3.0
2925 3.0
2926 3.0
2927 3.0
2928 3.0
2929 3.0
2930 3.0
2931 3.0
2932 3.0
2933 3.0
2934 3.0
2935 3.0
2936 3.0
2937 3.0
2938 3.0
2939 3.0
2940 3.0
2941 3.0
2942 3.0
2943 3.0
2944 3.0
2945 3.0
2946 3.0
2947 3.0
2948 3.0
2949 3.0
2950 3.0
2951 3.0
2952 3.0
2953 3.0
2954 3.0
2955 3.0
2956 3.0
2957 3.0
2958 3.0
2959 3.0
2960 3.0
2961 3.0
2962 3.0
2963 3.0
2964 3.0
2965 3.0
2966 3.0
2967 3.0
2968 3.0
2969 3.0
2970 3.0
2971 3.0
2972 3.0
2973 3.0
2974 3.0
2975 3.0
2976 3.0
2977 3.0
2978 3.0
2979 3.0
2980 3.0
2981 3.0
2982 3.0
2983 3.0
2984 3.0
2985 3.0
2986 3.0
2987 3.0
2988 3.0
2989 3.0
2990 3.0
2991 3.0
2992 3.0
2993 3.0
2994 3.0
2995 3.0
2996 3.0
2997 3.0
2998 3.0
2999 3.0
3000 2.0
3001 2.0
3002 2.0
3003 2.0
3004 2.0
3005 2.0
3006 2.0
3007 2.0
3008 2.0
3009 2.0
3010 2.0
3011 2.0
3012 2.0
3013 2.0
3014 2.0
3015 2.0
3016 2.0
3017 2.0
3018 2.0
3019 2.0
3020 2.0
3021 2.0
3022 2.0
3023 2.0
3024 2.0
3025 2.0
3026 2.0
3027 2.0
3028 2.0
3029 2.0
3030 2.0
3031 2.0
3032 2.0
3033 2.0
3034 2.0
3035 2.0
3036 2.0
3037 2.0
3038 2.0
3039 2.0
3040 2.0
3041 2.0
3042 2.0
3043 2.0
3044 2.0
3045 2.0
3046 2.0
3047 3.0
3048 3.0
3049 2.0
3050 2.0
3051 3.0
3052 3.0
3053 2.0
3054 2.0
3055 3.0
3056 3.0
3057 2.0
3058 2.0
3059 3.0
3060 3.0
3061 2.0
3062 2.0
3063 3.0
3064 3.0
3065 2.0
3066 2.0
3067 3.0
3068 3.0
3069 2.0
3070 2.0
3071 3.0
3072 3.0
3073 2.0
3074 2.0
3075 3.0
3076 3.0
3077 2.0
3078 2.0
3079 3.0
3080 3.0
3081 2.0
3082 2.0
3083 3.0
3084 3.0
3085 2.0
3086 2.0
3087 3.0
3088 3.0
3089 2.0
3090 2.0
3091 3.0
3092 3.0
3093 2.0
3094 2.0
3095 3.0
3096 3.0
3097 2.0
3098 2.0
3099 3.0
3100 3.0
3101 2.0
3102 2.0
3103 3.0
3104 3.0
3105 2.0
3106 2.0
3107 3.0
3108 3.0
3109 2.0
3110 2.0
3111 2.0
3112 3.0
3113 3.0
3114 2.0
3115 3.0
3116 3.0
3117 2.0
3118 3.0
3119 3.0
3120 2.0
3121 3.0
3122 3.0
3123 2.0
3124 3.0
3125 3.0
3126 2.0
3127 3.0
3128 3.0
3129 2.0
3130 3.0
3131 3.0
3132 2.0
3133 3.0
3134 3.0
3135 2.0
3136 3.0
3137 3.0
3138 2.0
3139 3.0
3140 3.0
3141 2.0
3142 3.0
3143 3.0
3144 2.0
3145 3.0
3146 3.0
3147 2.0
3148 3.0
3149 3.0
3150 2.0
3151 3.0
3152 3.0
3153 2.0
3154 3.0
3155 3.0
3156 2.0
3157 3.0
3158 3.0
3159 3.0
3160 3.0
3161 2.0
3162 2.0
3163 2.0
3164 3.0
3165 3.0
3166 2.0
3167 2.0
3168 2.0
3169 3.0
3170 3.0
3171 2.0
3172 2.0
3173 2.0
3174 3.0
3175 3.0
3176 2.0
3177 2.0
3178 2.0
3179 3.0
3180 3.0
3181 2.0
3182 2.0
3183 2.0
3184 3.0
3185 3.0
3186 2.0
3187 2.0
3188 2.0
3189 3.0
3190 3.0
3191 2.0
3192 2.0
3193 2.0
3194 3.0
3195 3.0
3196 2.0
3197 2.0
3198 2.0
3199 3.0
3200 3.0
3201 2.0
3202 2.0
3203 2.0
3204 3.0
3205 3.0
3206 2.0
3207 2.0
3208 2.0
3209 3.0
3210 3.0
3211 2.0
3212 2.0
3213 2.0
3214 3.0
3215 3.0
3216 2.0
3217 2.0
3218 2.0
3219 3.0
3220 3.0
3221 2.0
3222 2.0
3223 2.0
3224 3.0
3225 3.0
3226 2.0
3227 2.0
3228 2.0
3229 3.0
3230 3.0
3231 2.0
3232 2.0
3233 2.0
3234 3.0
3235 3.0
3236 2.0
3237 2.0
3238 2.0
3239 2.0
3240 2.0
3241 2.0
3242 2.0
3243 2.0
3244 2.0
3245 2.0
3246 2.0
3247 2.0
3248 2.0
3249 2.0
3250 2.0
3251 2.0
3252 2.0
3253 2.0
3254 2.0
3255 2.0
3256 2.0
3257 2.0
3258 2.0
3259 2.0
3260 2.0
3261 2.0
3262 2.0
3263 2.0
3264 2.0
3265 2.0
3266 2.0
3267 2.0
3268 2.0
3269 2.0
3270 2.0
3271 2.0
3272 2.0
3273 2.0
3274 2.0
3275 2.0
3276 2.0
3277 2.0
3278 2.0
3279 2.0
3280 2.0
3281 2.0
3282 2.0
3283 2.0
3284 2.0
3285 2.0
3286 2.0
3287 2.0
3288 2.0
3289 2.0
3290 2.0
3291 2.0
3292 2.0
3293 2.0
3294 2.0
3295 2.0
3296 2.0
3297 2.0
3298 2.0
3299 2.0
3300 2.0
3301 2.0
3302 2.0
3303 2.0
3304 2.0
3305 2.0
3306 2.0
3307 2.0
3308 2.0
3309 2.0
3310 2.0
3311 2.0
3312 2.0
3313 2.0
3314 2.0
3315 2.0
3316 2.0
3317 2.0
3318 2.0
3319 2.0
3320 2.0
3321 2.0
3322 2.0
3323 2.0
3324 2.0
3325 2.0
3326 2.0
3327 2.0
3328 2.0
3329 2.0
3330 2.0
3331 2.0
3332 2.0
3333 2.0
3334 2.0
3335 3.0
3336 4.0
3337 3.0
3338 3.0
3339 3.0
3340 3.0
3341 3.0
3342 4.0
3343 3.0
3344 3.0
3345 3.0
3346 3.0
3347 3.0
3348 4.0
3349 3.0
3350 3.0
3351 3.0
3352 3.0
3353 3.0
3354 4.0
3355 3.0
3356 3.0
3357 3.0
3358 3.0
3359 3.0
3360 4.0
3361 3.0
3362 3.0
3363 3.0
3364 3.0
3365 3.0
3366 4.0
3367 3.0
3368 3.0
3369 3.0
3370 3.0
3371 3.0
3372 4.0
3373 3.0
3374 3.0
3375 3.0
3376 3.0
3377 3.0
3378 4.0
3379 3.0
3380 3.0
3381 3.0
3382 3.0
3383 3.0
3384 4.0
3385 3.0
3386 3.0
3387 3.0
3388 3.0
3389 3.0
3390 4.0
3391 3.0
3392 3.0
3393 3.0
3394 3.0
3395 3.0
3396 4.0
3397 3.0
3398 3.0
3399 3.0
3400 3.0
3401 3.0
3402 4.0
3403 3.0
3404 3.0
3405 3.0
3406 3.0
3407 3.0
3408 4.0
3409 3.0
3410 3.0
3411 3.0
3412 3.0
3413 3.0
3414 4.0
3415 3.0
3416 3.0
3417 3.0
3418 3.0
3419 3.0
3420 4.0
3421 3.0
3422 3.0
3423 3.0
3424 3.0
3425 3.0
3426 4.0
3427 3.0
3428 3.0
3429 3.0
3430 3.0
3431 1.0
3432 2.0
3433 2.0
3434 2.0
3435 2.0
3436 2.0
3437 2.0
3438 2.0
3439 2.0
3440 2.0
3441 2.0
3442 2.0
3443 2.0
3444 2.0
3445 2.0
3446 2.0
3447 2.0
3448 2.0
3449 2.0
3450 2.0
3451 2.0
3452 2.0
3453 2.0
3454 2.0
3455 2.0
3456 2.0
3457 2.0
3458 2.0
3459 2.0
3460 2.0
3461 2.0
3462 2.0
3463 2.0
3464 2.0
3465 2.0
3466 2.0
3467 2.0
3468 2.0
3469 2.0
3470 2.0
3471 2.0
3472 2.0
3473 2.0
3474 2.0
3475 2.0
3476 2.0
3477 2.0
3478 2.0
3479 2.0
3480 2.0
3481 2.0
3482 2.0
3483 2.0
3484 2.0
3485 2.0
3486 2.0
3487 2.0
3488 2.0
3489 2.0
3490 2.0
3491 2.0
3492 2.0
3493 2.0
3494 2.0
3495 1.0
3496 3.0
3497 3.0
3498 3.0
3499 3.0
3500 3.0
3501 3.0
3502 3.0
3503 3.0
3504 3.0
3505 3.0
3506 3.0
3507 3.0
3508 3.0
3509 3.0
3510 3.0
3511 3.0
3512 3.0
3513 3.0
3514 3.0
3515 3.0
3516 3.0
3517 3.0
3518 3.0
3519 3.0
3520 3.0
3521 3.0
3522 3.0
3523 3.0
3524 3.0
3525 3.0
3526 3.0
3527 3.0
3528 3.0
3529 3.0
3530 3.0
3531 3.0
3532 3.0
3533 3.0
3534 3.0
3535 3.0
3536 3.0
3537 3.0
3538 3.0
3539 3.0
3540 3.0
3541 3.0
3542 3.0
3543 3.0
3544 3.0
3545 3.0
3546 3.0
3547 3.0
3548 3.0
3549 3.0
3550 3.0
3551 3.0
3552 3.0
3553 3.0
3554 3.0
3555 3.0
3556 3.0
3557 3.0
3558 3.0
3559 3.0
3560 3.0
3561 3.0
3562 3.0
3563 3.0
3564 3.0
3565 3.0
3566 3.0
3567 3.0
3568 3.0
3569 3.0
3570 3.0
3571 3.0
3572 3.0
3573 3.0
3574 3.0
3575 3.0
3576 3.0
3577 3.0
3578 3.0
3579 3.0
3580 3.0
3581 3.0
3582 3.0
3583 3.0
3584 3.0
3585 3.0
3586 3.0
3587 3.0
3588 3.0
3589 3.0
3590 3.0
3591 3.0
3592 2.0
3593 2.0
3594 2.0
3595 2.0
3596 2.0
3597 2.0
3598 2.0
3599 2.0
3600 2.0
3601 2.0
3602 2.0
3603 2.0
3604 2.0
3605 2.0
3606 2.0
3607 2.0
3608 2.0
3609 2.0
3610 2.0
3611 2.0
3612 2.0
3613 2.0
3614 2.0
3615 2.0
3616 2.0
3617 2.0
3618 2.0
3619 2.0
3620 2.0
3621 2.0
3622 2.0
3623 2.0
3624 2.0
3625 2.0
3626 2.0
3627 2.0
3628 2.0
3629 2.0
3630 2.0
3631 2.0
3632 2.0
3633 2.0
3634 2.0
3635 2.0
3636 2.0
3637 2.0
3638 2.0
3639 3.0
3640 3.0
3641 2.0
3642 2.0
3643 3.0
3644 3.0
3645 2.0
3646 2.0
3647 3.0
3648 3.0
3649 2.0
3650 2.0
3651 3.0
3652 3.0
3653 2.0
3654 2.0
3655 3.0
3656 3.0
3657 2.0
3658 2.0
3659 3.0
3660 3.0
3661 2.0
3662 2.0
3663 3.0
3664 3.0
3665 2.0
3666 2.0
3667 3.0
3668 3.0
3669 2.0
3670 2.0
3671 3.0
3672 3.0
3673 2.0
3674 2.0
3675 3.0
3676 3.0
3677 2.0
3678 2.0
3679 3.0
3680 3.0
3681 2.0
3682 2.0
3683 3.0
3684 3.0
3685 2.0
3686 2.0
3687 3.0
3688 3.0
3689 2.0
3690 2.0
3691 3.0
3692 3.0
3693 2.0
3694 2.0
3695 3.0
3696 3.0
3697 2.0
3698 2.0
3699 3.0
3700 3.0
3701 2.0
3702 2.0
3703 2.0
3704 3.0
3705 3.0
3706 2.0
3707 3.0
3708 3.0
3709 2.0
3710 3.0
3711 3.0
3712 2.0
3713 3.0
3714 3.0
3715 2.0
3716 3.0
3717 3.0
3718 2.0
3719 3.0
3720 3.0
3721 2.0
3722 3.0
3723 3.0
3724 2.0
3725 3.0
3726 3.0
3727 2.0
3728 3.0
3729 3.0
3730 2.0
3731 3.0
3732 3.0
3733 2.0
3734 3.0
3735 3.0
3736 2.0
3737 3.0
3738 3.0
3739 2.0
3740 3.0
3741 3.0
3742 2.0
3743 3.0
3744 3.0
3745 2.0
3746 3.0
3747 3.0
3748 2.0
3749 3.0
3750 3.0
3751 3.0
3752 3.0
3753 2.0
3754 2.0
3755 2.0
3756 3.0
3757 3.0
3758 2.0
3759 2.0
3760 2.0
3761 3.0
3762 3.0
3763 2.0
3764 2.0
3765 2.0
3766 3.0
3767 3.0
3768 2.0
3769 2.0
3770 2.0
3771 3.0
3772 3.0
3773 2.0
3774 2.0
3775 2.0
3776 3.0
3777 3.0
3778 2.0
3779 2.0
3780 2.0
3781 3.0
3782 3.0
3783 2.0
3784 2.0
3785 2.0
3786 3.0
3787 3.0
3788 2.0
3789 2.0
3790 2.0
3791 3.0
3792 3.0
3793 2.0
3794 2.0
3795 2.0
3796 3.0
3797 3.0
3798 2.0
3799 2.0
3800 2.0
3801 3.0
3802 3.0
3803 2.0
3804 2.0
3805 2.0
3806 3.0
3807 3.0
3808 2.0
3809 2.0
3810 2.0
3811 3.0
3812 3.0
3813 2.0
3814 2.0
3815 2.0
3816 3.0
3817 3.0
3818 2.0
3819 2.0
3820 2.0
3821 3.0
3822 3.0
3823 2.0
3824 2.0
3825 2.0
3826 3.0
3827 3.0
3828 2.0
3829 2.0
3830 2.0
3831 2.0
3832 2.0
3833 2.0
3834 2.0
3835 2.0
3836 2.0
3837 2.0
3838 2.0
3839 2.0
3840 2.0
3841 2.0
3842 2.0
3843 2.0
3844 2.0
3845 2.0
3846 2.0
3847 2.0
3848 2.0
3849 2.0
3850 2.0
3851 2.0
3852 2.0
3853 2.0
3854 2.0
3855 2.0
3856 2.0
3857 2.0
3858 2.0
3859 2.0
3860 2.0
3861 2.0
3862 2.0
3863 2.0
3864 2.0
3865 2.0
3866 2.0
3867 2.0
3868 2.0
3869 2.0
3870 2.0
3871 2.0
3872 2.0
3873 2.0
3874 2.0
3875 2.0
3876 2.0
3877 2.0
3878 2.0
3879 2.0
3880 2.0
3881 2.0
3882 2.0
3883 2.0
3884 2.0
3885 2.0
3886 2.0
3887 2.0
3888 2.0
3889 2.0
3890 2.0
3891 2.0
3892 2.0
3893 2.0
3894 2.0
3895 2.0
3896 2.0
3897 2.0
3898 2.0
3899 2.0
3900 2.0
3901 2.0
3902 2.0
3903 2.0
3904 2.0
3905 2.0
3906 2.0
3907 2.0
3908 2.0
3909 2.0
3910 2.0
3911 2.0
3912 2.0
3913 2.0
3914 2.0
3915 2.0
3916 2.0
3917 2.0
3918 2.0
3919 2.0
3920 2.0
3921 2.0
3922 2.0
3923 2.0
3924 2.0
3925 2.0
3926 2.0
3927 3.0
3928 4.0
3929 3.0
3930 3.0
3931 3.0
3932 3.0
3933 3.0
3934 4.0
3935 3.0
3936 3.0
3937 3.0
3938 3.0
3939 3.0
3940 4.0
3941 3.0
3942 3.0
3943 3.0
3944 3.0
3945 3.0
3946 4.0
3947 3.0
3948 3.0
3949 3.0
3950 3.0
3951 3.0
3952 4.0
3953 3.0
3954 3.0
3955 3.0
3956 3.0
3957 3.0
3958 4.0
3959 3.0
3960 3.0
3961 3.0
3962 3.0
3963 3.0
3964 4.0
3965 3.0
3966 3.0
3967 3.0
3968 3.0
3969 3.0
3970 4.0
3971 3.0
3972 3.0
3973 3.0
3974 3.0
3975 3.0
3976 4.0
3977 3.0
3978 3.0
3979 3.0
3980 3.0
3981 3.0
3982 4.0
3983 3.0
3984 3.0
3985 3.0
3986 3.0
3987 3.0
3988 4.0
3989 3.0
3990 3.0
3991 3.0
3992 3.0
3993 3.0
3994 4.0
3995 3.0
3996 3.0
3997 3.0
3998 3.0
3999 3.0
4000 4.0
4001 3.0
4002 3.0
4003 3.0
4004 3.0
4005 3.0
4006 4.0
4007 3.0
4008 3.0
4009 3.0
4010 3.0
4011 3.0
4012 4.0
4013 3.0
4014 3.0
4015 3.0
4016 3.0
4017 3.0
4018 4.0
4019 3.0
4020 3.0
4021 3.0
4022 3.0
4023 1.0
4024 2.0
4025 2.0
4026 2.0
4027 2.0
4028 2.0
4029 2.0
4030 2.0
4031 2.0
4032 2.0
4033 2.0
4034 2.0
4035 2.0
4036 2.0
4037 2.0
4038 2.0
4039 2.0
4040 2.0
4041 2.0
4042 2.0
4043 2.0
4044 2.0
4045 2.0
4046 2.0
4047 2.0
4048 2.0
4049 2.0
4050 2.0
4051 2.0
4052 2.0
4053 2.0
4054 2.0
4055 2.0
4056 2.0
4057 2.0
4058 2.0
4059 2.0
4060 2.0
4061 2.0
4062 2.0
4063 2.0
4064 2.0
4065 2.0
4066 2.0
4067 2.0
4068 2.0
4069 2.0
4070 2.0
4071 2.0
4072 2.0
4073 2.0
4074 2.0
4075 2.0
4076 2.0
4077 2.0
4078 2.0
4079 2.0
4080 2.0
4081 2.0
4082 2.0
4083 2.0
4084 2.0
4085 2.0
4086 2.0
4087 1.0
4088 3.0
4089 3.0
4090 3.0
4091 3.0
4092 3.0
4093 3.0
4094 3.0
4095 3.0
4096 3.0
4097 3.0
4098 3.0
4099 3.0
4100 3.0
4101 3.0
4102 3.0
4103 3.0
4104 3.0
4105 3.0
4106 3.0
4107 3.0
4108 3.0
4109 3.0
4110 3.0
4111 3.0
4112 3.0
4113 3.0
4114 3.0
4115 3.0
4116 3.0
4117 3.0
4118 3.0
4119 3.0
4120 3.0
4121 3.0
4122 3.0
4123 3.0
4124 3.0
4125 3.0
4126 3.0
4127 3.0
4128 3.0
4129 3.0
4130 3.0
4131 3.0
4132 3.0
4133 3.0
4134 3.0
4135 3.0
4136 3.0
4137 3.0
4138 3.0
4139 3.0
4140 3.0
4141 3.0
4142 3.0
4143 3.0
4144 3.0
4145 3.0
4146 3.0
4147 3.0
4148 3.0
4149 3.0
4150 3.0
4151 3.0
4152 3.0
4153 3.0
4154 3.0
4155 3.0
4156 3.0
4157 3.0
4158 3.0
4159 3.0
4160 3.0
4161 3.0
4162 3.0
4163 3.0
4164 3.0
4165 3.0
4166 3.0
4167 3.0
4168 3.0
4169 3.0
4170 3.0
4171 3.0
4172 3.0
4173 3.0
4174 3.0
4175 3.0
4176 3.0
4177 3.0
4178 3.0
4179 3.0
4180 3.0
4181 3.0
4182 3.0
4183 3.0
4184 2.0
4185 2.0
4186 2.0
4187 2.0
4188 2.0
4189 2.0
4190 2.0
4191 2.0
4192 2.0
4193 2.0
4194 2.0
4195 2.0
4196 2.0
4197 2.0
4198 2.0
4199 2.0
4200 2.0
4201 2.0
4202 2.0
4203 2.0
4204 2.0
4205 2.0
4206 2.0
4207 2.0
4208 2.0
4209 2.0
4210 2.0
4211 2.0
4212 2.0
4213 2.0
4214 2.0
4215 2.0
4216 2.0
4217 2.0
4218 2.0
4219 2.0
4220 2.0
4221 2.0
4222 2.0
4223 2.0
4224 2.0
4225 2.0
4226 2.0
4227 2.0
4228 2.0
4229 2.0
4230 2.0
4231 3.0
4232 3.0
4233 2.0
4234 2.0
4235 3.0
4236 3.0
4237 2.0
4238 2.0
4239 3.0
4240 3.0
4241 2.0
4242 2.0
4243 3.0
4244 3.0
4245 2.0
4246 2.0
4247 3.0
4248 3.0
4249 2.0
4250 2.0
4251 3.0
4252 3.0
4253 2.0
4254 2.0
4255 3.0
4256 3.0
4257 2.0
4258 2.0
4259 3.0
4260 3.0
4261 2.0
4262 2.0
4263 3.0
4264 3.0
4265 2.0
4266 2.0
4267 3.0
4268 3.0
4269 2.0
4270 2.0
4271 3.0
4272 3.0
4273 2.0
4274 2.0
4275 3.0
4276 3.0
4277 2.0
4278 2.0
4279 3.0
4280 3.0
4281 2.0
4282 2.0
4283 3.0
4284 3.0
4285 2.0
4286 2.0
4287 3.0
4288 3.0
4289 2.0
4290 2.0
4291 3.0
4292 3.0
4293 2.0
4294 2.0
4295 2.0
4296 3.0
4297 3.0
4298 2.0
4299 3.0
4300 3.0
4301 2.0
4302 3.0
4303 3.0
4304 2.0
4305 3.0
4306 3.0
4307 2.0
4308 3.0
4309 3.0
4310 2.0
4311 3.0
4312 3.0
4313 2.0
4314 3.0
4315 3.0
4316 2.0
4317 3.0
4318 3.0
4319 2.0
4320 3.0
4321 3.0
4322 2.0
4323 3.0
4324 3.0
4325 2.0
4326 3.0
4327 3.0
4328 2.0
4329 3.0
4330 3.0
4331 2.0
4332 3.0
4333 3.0
4334 2.0
4335 3.0
4336 3.0
4337 2.0
4338 3.0
4339 3.0
4340 2.0
4341 3.0
4342 3.0
4343 3.0
4344 3.0
4345 2.0
4346 2.0
4347 2.0
4348 3.0
4349 3.0
4350 2.0
4351 2.0
4352 2.0
4353 3.0
4354 3.0
4355 2.0
4356 2.0
4357 2.0
4358 3.0
4359 3.0
4360 2.0
4361 2.0
4362 2.0
4363 3.0
4364 3.0
4365 2.0
4366 2.0
4367 2.0
4368 3.0
4369 3.0
4370 2.0
4371 2.0
4372 2.0
4373 3.0
4374 3.0
4375 2.0
4376 2.0
4377 2.0
4378 3.0
4379 3.0
4380 2.0
4381 2.0
4382 2.0
4383 3.0
4384 3.0
4385 2.0
4386 2.0
4387 2.0
4388 3.0
4389 3.0
4390 2.0
4391 2.0
4392 2.0
4393 3.0
4394 3.0
4395 2.0
4396 2.0
4397 2.0
4398 3.0
4399 3.0
4400 2.0
4401 2.0
4402 2.0
4403 3.0
4404 3.0
4405 2.0
4406 2.0
4407 2.0
4408 3.0
4409 3.0
4410 2.0
4411 2.0
4412 2.0
4413 3.0
4414 3.0
4415 2.0
4416 2.0
4417 2.0
4418 3.0
4419 3.0
4420 2.0
4421 2.0
4422 2.0
4423 2.0
4424 2.0
4425 2.0
4426 2.0
4427 2.0
4428 2.0
4429 2.0
4430 2.0
4431 2.0
4432 2.0
4433 2.0
4434 2.0
4435 2.0
4436 2.0
4437 2.0
4438 2.0
4439 2.0
4440 2.0
4441 2.0
4442 2.0
4443 2.0
4444 2.0
4445 2.0
4446 2.0
4447 2.0
4448 2.0
4449 2.0
4450 2.0
4451 2.0
4452 2.0
4453 2.0
4454 2.0
4455 2.0
4456 2.0
4457 2.0
4458 2.0
4459 2.0
4460 2.0
4461 2.0
4462 2.0
4463 2.0
4464 2.0
4465 2.0
4466 2.0
4467 2.0
4468 2.0
4469 2.0
4470 2.0
4471 2.0
4472 2.0
4473 2.0
4474 2.0
4475 2.0
4476 2.0
4477 2.0
4478 2.0
4479 2.0
4480 2.0
4481 2.0
4482 2.0
4483 2.0
4484 2.0
4485 2.0
4486 2.0
4487 2.0
4488 2.0
4489 2.0
4490 2.0
4491 2.0
4492 2.0
4493 2.0
4494 2.0
4495 2.0
4496 2.0
4497 2.0
4498 2.0
4499 2.0
4500 2.0
4501 2.0
4502 2.0
4503 2.0
4504 2.0
4505 2.0
4506 2.0
4507 2.0
4508 2.0
4509 2.0
4510 2.0
4511 2.0
4512 2.0
4513 2.0
4514 2.0
4515 2.0
4516 2.0
4517 2.0
4518 2.0
4519 3.0
4520 4.0
4521 3.0
4522 3.0
4523 3.0
4524 3.0
4525 3.0
4526 4.0
4527 3.0
4528 3.0
4529 3.0
4530 3.0
4531 3.0
4532 4.0
4533 3.0
4534 3.0
4535 3.0
4536 3.0
4537 3.0
4538 4.0
4539 3.0
4540 3.0
4541 3.0
4542 3.0
4543 3.0
4544 4.0
4545 3.0
4546 3.0
4547 3.0
4548 3.0
4549 3.0
4550 4.0
4551 3.0
4552 3.0
4553 3.0
4554 3.0
4555 3.0
4556 4.0
4557 3.0
4558 3.0
4559 3.0
4560 3.0
4561 3.0
4562 4.0
4563 3.0
4564 3.0
4565 3.0
4566 3.0
4567 3.0
4568 4.0
4569 3.0
4570 3.0
4571 3.0
4572 3.0
4573 3.0
4574 4.0
4575 3.0
4576 3.0
4577 3.0
4578 3.0
4579 3.0
4580 4.0
4581 3.0
4582 3.0
4583 3.0
4584 3.0
4585 3.0
4586 4.0
4587 3.0
4588 3.0
4589 3.0
4590 3.0
4591 3.0
4592 4.0
4593 3.0
4594 3.0
4595 3.0
4596 3.0
4597 3.0
4598 4.0
4599 3.0
4600 3.0
4601 3.0
4602 3.0
4603 3.0
4604 4.0
4605 3.0
4606 3.0
4607 3.0
4608 3.0
4609 3.0
4610 4.0
4611 3.0
4612 3.0
4613 3.0
4614 3.0
4615 1.0
4616 2.0
4617 2.0
4618 2.0
4619 2.0
4620 2.0
4621 2.0
4622 2.0
4623 2.0
4624 2.0
4625 2.0
4626 2.0
4627 2.0
4628 2.0
4629 2.0
4630 2.0
4631 2.0
4632 2.0
4633 2.0
4634 2.0
4635 2.0
4636 2.0
4637 2.0
4638 2.0
4639 2.0
4640 2.0
4641 2.0
4642 2.0
4643 2.0
4644 2.0
4645 2.0
4646 2.0
4647 2.0
4648 2.0
4649 2.0
4650 2.0
4651 2.0
4652 2.0
4653 2.0
4654 2.0
4655 2.0
4656 2.0
4657 2.0
4658 2.0
4659 2.0
4660 2.0
4661 2.0
4662 2.0
4663 2.0
4664 2.0
4665 2.0
4666 2.0
4667 2.0
4668 2.0
4669 2.0
4670 2.0
4671 2.0
4672 2.0
4673 2.0
4674 2.0
4675 2.0
4676 2.0
4677 2.0
4678 2.0
4679 1.0
4680 3.0
4681 3.0
4682 3.0
4683 3.0
4684 3.0
4685 3.0
4686 3.0
4687 3.0
4688 3.0
4689 3.0
4690 3.0
4691 3.0
4692 3.0
4693 3.0
4694 3.0
4695 3.0
4696 3.0
4697 3.0
4698 3.0
4699 3.0
4700 3.0
4701 3.0
4702 3.0
4703 3.0
4704 3.0
4705 3.0
4706 3.0
4707 3.0
4708 3.0
4709 3.0
4710 3.0
4711 3.0
4712 3.0
4713 3.0
4714 3.0
4715 3.0
4716 3.0
4717 3.0
4718 3.0
4719 3.0
4720 3.0
4721 3.0
4722 3.0
4723 3.0
4724 3.0
4725 3.0
4726 3.0
4727 3.0
4728 3.0
4729 3.0
4730 3.0
4731 3.0
4732 3.0
4733 3.0
4734 3.0
4735 3.0
4736 3.0
4737 3.0
4738 3.0
4739 3.0
4740 3.0
4741 3.0
4742 3.0
4743 3.0
4744 3.0
4745 3.0
4746 3.0
4747 3.0
4748 3.0
4749 3.0
4750 3.0
4751 3.0
4752 3.0
4753 3.0
4754 3.0
4755 3.0
4756 3.0
4757 3.0
4758 3.0
4759 3.0
4760 3.0
4761 3.0
4762 3.0
4763 3.0
4764 3.0
4765 3.0
4766 3.0
4767 3.0
4768 3.0
4769 3.0
4770 3.0
4771 3.0
4772 3.0
4773 3.0
4774 2.0
4775 2.0
4776 2.0
4777 2.0
4778 2.0
4779 2.0
4780 2.0
4781 2.0
4782 2.0
4783 2.0
4784 2.0
4785 2.0
4786 2.0
4787 2.0
4788 2.0
4789 2.0
4790 2.0
4791 2.0
4792 2.0
4793 2.0
4794 2.0
4795 2.0
4796 2.0
4797 2.0
4798 2.0
4799 2.0
4800 2.0
4801 2.0
4802 2.0
4803 2.0
4804 2.0
4805 2.0
4806 2.0
4807 2.0
4808 2.0
4809 2.0
4810 2.0
4811 2.0
4812 2.0
4813 2.0
4814 2.0
4815 2.0
4816 2.0
4817 2.0
4818 2.0
4819 2.0
4820 2.0
4821 3.0
4822 3.0
4823 2.0
4824 2.0
4825 3.0
4826 3.0
4827 2.0
4828 2.0
4829 3.0
4830 3.0
4831 2.0
4832 2.0
4833 3.0
4834 3.0
4835 2.0
4836 2.0
4837 3.0
4838 3.0
4839 2.0
4840 2.0
4841 3.0
4842 3.0
4843 2.0
4844 2.0
4845 3.0
4846 3.0
4847 2.0
4848 2.0
4849 3.0
4850 3.0
4851 2.0
4852 2.0
4853 3.0
4854 3.0
4855 2.0
4856 2.0
4857 3.0
4858 3.0
4859 2.0
4860 2.0
4861 3.0
4862 3.0
4863 2.0
4864 2.0
4865 3.0
4866 3.0
4867 2.0
4868 2.0
4869 3.0
4870 3.0
4871 2.0
4872 2.0
4873 3.0
4874 3.0
4875 2.0
4876 2.0
4877 3.0
4878 3.0
4879 2.0
4880 2.0
4881 3.0
4882 3.0
4883 2.0
4884 2.0
4885 2.0
4886 3.0
4887 3.0
4888 2.0
4889 3.0
4890 3.0
4891 2.0
4892 3.0
4893 3.0
4894 2.0
4895 3.0
4896 3.0
4897 2.0
4898 3.0
4899 3.0
4900 2.0
4901 3.0
4902 3.0
4903 2.0
4904 3.0
4905 3.0
4906 2.0
4907 3.0
4908 3.0
4909 2.0
4910 3.0
4911 3.0
4912 2.0
4913 3.0
4914 3.0
4915 2.0
4916 3.0
4917 3.0
4918 2.0
4919 3.0
4920 3.0
4921 2.0
4922 3.0
4923 3.0
4924 2.0
4925 3.0
4926 3.0
4927 2.0
4928 3.0
4929 3.0
4930 2.0
4931 3.0
4932 3.0
4933 3.0
4934 3.0
4935 2.0
4936 2.0
4937 2.0
4938 3.0
4939 3.0
4940 2.0
4941 2.0
4942 2.0
4943 3.0
4944 3.0
4945 2.0
4946 2.0
4947 2.0
4948 3.0
4949 3.0
4950 2.0
4951 2.0
4952 2.0
4953 3.0
4954 3.0
4955 2.0
4956 2.0
4957 2.0
4958 3.0
4959 3.0
4960 2.0
4961 2.0
4962 2.0
4963 3.0
4964 3.0
4965 2.0
4966 2.0
4967 2.0
4968 3.0
4969 3.0
4970 2.0
4971 2.0
4972 2.0
4973 3.0
4974 3.0
4975 2.0
4976 2.0
4977 2.0
4978 3.0
4979 3.0
4980 2.0
4981 2.0
4982 2.0
4983 3.0
4984 3.0
4985 2.0
4986 2.0
4987 2.0
4988 3.0
4989 3.0
4990 2.0
4991 2.0
4992 2.0
4993 3.0
4994 3.0
4995 2.0
4996 2.0
4997 2.0
4998 3.0
4999 3.0
5000 2.0
5001 2.0
5002 2.0
5003 3.0
5004 3.0
5005 2.0
5006 2.0
5007 2.0
5008 3.0
5009 3.0
5010 2.0
5011 2.0
5012 2.0
5013 2.0
5014 2.0
5015 2.0
5016 2.0
5017 2.0
5018 2.0
5019 2.0
5020 2.0
5021 2.0
5022 2.0
5023 2.0
5024 2.0
5025 2.0
5026 2.0
5027 2.0
5028 2.0
5029 2.0
5030 2.0
5031 2.0
5032 2.0
5033 2.0
5034 2.0
5035 2.0
5036 2.0
5037 2.0
5038 2.0
5039 2.0
5040 2.0
5041 2.0
5042 2.0
5043 2.0
5044 2.0
5045 2.0
5046 2.0
5047 2.0
5048 2.0
5049 2.0
5050 2.0
5051 2.0
5052 2.0
5053 2.0
5054 2.0
5055 2.0
5056 2.0
5057 2.0
5058 2.0
5059 2.0
5060 2.0
5061 2.0
5062 2.0
5063 2.0
5064 2.0
5065 2.0
5066 2.0
5067 2.0
5068 2.0
5069 2.0
5070 2.0
5071 2.0
5072 2.0
5073 2.0
5074 2.0
5075 2.0
5076 2.0
5077 2.0
5078 2.0
5079 2.0
5080 2.0
5081 2.0
5082 2.0
5083 2.0
5084 2.0
5085 2.0
5086 2.0
5087 2.0
5088 2.0
5089 2.0
5090 2.0
5091 2.0
5092 2.0
5093 2.0
5094 2.0
5095 2.0
5096 2.0
5097 2.0
5098 2.0
5099 2.0
5100 2.0
5101 2.0
5102 2.0
5103 2.0
5104 2.0
5105 2.0
5106 2.0
5107 2.0
5108 2.0
5109 3.0
5110 4.0
5111 3.0
5112 3.0
5113 3.0
5114 3.0
5115 3.0
5116 4.0
5117 3.0
5118 3.0
5119 3.0
5120 3.0
5121 3.0
5122 4.0
5123 3.0
5124 3.0
5125 3.0
5126 3.0
5127 3.0
5128 4.0
5129 3.0
5130 3.0
5131 3.0
5132 3.0
5133 3.0
5134 4.0
5135 3.0
5136 3.0
5137 3.0
5138 3.0
5139 3.0
5140 4.0
5141 3.0
5142 3.0
5143 3.0
5144 3.0
5145 3.0
5146 4.0
5147 3.0
5148 3.0
5149 3.0
5150 3.0
5151 3.0
5152 4.0
5153 3.0
5154 3.0
5155 3.0
5156 3.0
5157 3.0
5158 4.0
5159 3.0
5160 3.0
5161 3.0
5162 3.0
5163 3.0
5164 4.0
5165 3.0
5166 3.0
5167 3.0
5168 3.0
5169 3.0
5170 4.0
5171 3.0
5172 3.0
5173 3.0
5174 3.0
5175 3.0
5176 4.0
5177 3.0
5178 3.0
5179 3.0
5180 3.0
5181 3.0
5182 4.0
5183 3.0
5184 3.0
5185 3.0
5186 3.0
5187 3.0
5188 4.0
5189 3.0
5190 3.0
5191 3.0
5192 3.0
5193 3.0
5194 4.0
5195 3.0
5196 3.0
5197 3.0
5198 3.0
5199 3.0
5200 4.0
5201 3.0
5202 3.0
5203 3.0
5204 3.0
5205 1.0
5206 2.0
5207 2.0
5208 2.0
5209 2.0
5210 2.0
5211 2.0
5212 2.0
5213 2.0
5214 2.0
5215 2.0
5216 2.0
5217 2.0
5218 2.0
5219 2.0
5220 2.0
5221 2.0
5222 2.0
5223 2.0
5224 2.0
5225 2.0
5226 2.0
5227 2.0
5228 2.0
5229 2.0
5230 2.0
5231 2.0
5232 2.0
5233 2.0
5234 2.0
5235 2.0
5236 2.0
5237 2.0
5238 2.0
5239 2.0
5240 2.0
5241 2.0
5242 2.0
5243 2.0
5244 2.0
5245 2.0
5246 2.0
5247 2.0
5248 2.0
5249 2.0
5250 2.0
5251 2.0
5252 2.0
5253 2.0
5254 2.0
5255 2.0
5256 2.0
5257 2.0
5258 2.0
5259 2.0
5260 2.0
5261 2.0
5262 2.0
5263 2.0
5264 2.0
5265 2.0
5266 2.0
5267 2.0
5268 2.0
5269 1.0
5270 3.0
5271 3.0
5272 3.0
5273 3.0
5274 3.0
5275 3.0
5276 3.0
5277 3.0
5278 3.0
5279 3.0
5280 3.0
5281 3.0
5282 3.0
5283 3.0
5284 3.0
5285 3.0
5286 3.0
5287 3.0
5288 3.0
5289 3.0
5290 3.0
5291 3.0
5292 3.0
5293 3.0
5294 3.0
5295 3.0
5296 3.0
5297 3.0
5298 3.0
5299 3.0
5300 3.0
5301 3.0
5302 3.0
5303 3.0
5304 3.0
5305 3.0
5306 3.0
5307 3.0
5308 3.0
5309 3.0
5310 3.0
5311 3.0
5312 3.0
5313 3.0
5314 3.0
5315 3.0
5316 3.0
5317 3.0
5318 3.0
5319 3.0
5320 3.0
5321 3.0
5322 3.0
5323 3.0
5324 3.0
5325 3.0
5326 3.0
5327 3.0
5328 3.0
5329 3.0
5330 3.0
5331 3.0
5332 3.0
5333 3.0
5334 3.0
5335 3.0
5336 3.0
5337 3.0
5338 3.0
5339 3.0
5340 3.0
5341 3.0
5342 3.0
5343 3.0
5344 3.0
5345 3.0
5346 3.0
5347 3.0
5348 3.0
5349 3.0
5350 3.0
5351 3.0
5352 3.0
5353 3.0
5354 3.0
5355 3.0
5356 3.0
5357 3.0
5358 3.0
5359 3.0
5360 3.0
5361 3.0
5362 3.0
5363 3.0
5364 2.0
5365 2.0
5366 2.0
5367 2.0
5368 2.0
5369 2.0
5370 2.0
5371 2.0
5372 2.0
5373 2.0
5374 2.0
5375 2.0
5376 2.0
5377 2.0
5378 2.0
5379 2.0
5380 2.0
5381 2.0
5382 2.0
5383 2.0
5384 2.0
5385 2.0
5386 2.0
5387 2.0
5388 2.0
5389 2.0
5390 2.0
5391 2.0
5392 2.0
5393 2.0
5394 2.0
5395 2.0
5396 2.0
5397 2.0
5398 2.0
5399 2.0
5400 2.0
5401 2.0
5402 2.0
5403 2.0
5404 2.0
5405 2.0
5406 2.0
5407 2.0
5408 2.0
5409 2.0
5410 2.0
5411 3.0
5412 3.0
5413 2.0
5414 2.0
5415 3.0
5416 3.0
5417 2.0
5418 2.0
5419 3.0
5420 3.0
5421 2.0
5422 2.0
5423 3.0
5424 3.0
5425 2.0
5426 2.0
5427 3.0
5428 3.0
5429 2.0
5430 2.0
5431 3.0
5432 3.0
5433 2.0
5434 2.0
5435 3.0
5436 3.0
5437 2.0
5438 2.0
5439 3.0
5440 3.0
5441 2.0
5442 2.0
5443 3.0
5444 3.0
5445 2.0
5446 2.0
5447 3.0
5448 3.0
5449 2.0
5450 2.0
5451 3.0
5452 3.0
5453 2.0
5454 2.0
5455 3.0
5456 3.0
5457 2.0
5458 2.0
5459 3.0
5460 3.0
5461 2.0
5462 2.0
5463 3.0
5464 3.0
5465 2.0
5466 2.0
5467 3.0
5468 3.0
5469 2.0
5470 2.0
5471 3.0
5472 3.0
5473 2.0
5474 2.0
5475 2.0
5476 3.0
5477 3.0
5478 2.0
5479 3.0
5480 3.0
5481 2.0
5482 3.0
5483 3.0
5484 2.0
5485 3.0
5486 3.0
5487 2.0
5488 3.0
5489 3.0
5490 2.0
5491 3.0
5492 3.0
5493 2.0
5494 3.0
5495 3.0
5496 2.0
5497 3.0
5498 3.0
5499 2.0
5500 3.0
5501 3.0
5502 2.0
5503 3.0
5504 3.0
5505 2.0
5506 3.0
5507 3.0
5508 2.0
5509 3.0
5510 3.0
5511 2.0
5512 3.0
5513 3.0
5514 2.0
5515 3.0
5516 3.0
5517 2.0
5518 3.0
5519 3.0
5520 2.0
5521 3.0
5522 3.0
5523 3.0
5524 3.0
5525 2.0
5526 2.0
5527 2.0
5528 3.0
5529 3.0
5530 2.0
5531 2.0
5532 2.0
5533 3.0
5534 3.0
5535 2.0
5536 2.0
5537 2.0
5538 3.0
5539 3.0
5540 2.0
5541 2.0
5542 2.0
5543 3.0
5544 3.0
5545 2.0
5546 2.0
5547 2.0
5548 3.0
5549 3.0
5550 2.0
5551 2.0
5552 2.0
5553 3.0
5554 3.0
5555 2.0
5556 2.0
5557 2.0
5558 3.0
5559 3.0
5560 2.0
5561 2.0
5562 2.0
5563 3.0
5564 3.0
5565 2.0
5566 2.0
5567 2.0
5568 3.0
5569 3.0
5570 2.0
5571 2.0
5572 2.0
5573 3.0
5574 3.0
5575 2.0
5576 2.0
5577 2.0
5578 3.0
5579 3.0
5580 2.0
5581 2.0
5582 2.0
5583 3.0
5584 3.0
5585 2.0
5586 2.0
5587 2.0
5588 3.0
5589 3.0
5590 2.0
5591 2.0
5592 2.0
5593 3.0
5594 3.0
5595 2.0
5596 2.0
5597 2.0
5598 3.0
5599 3.0
5600 2.0
5601 2.0
5602 2.0
5603 2.0
5604 2.0
5605 2.0
5606 2.0
5607 2.0
5608 2.0
5609 2.0
5610 2.0
5611 2.0
5612 2.0
5613 2.0
5614 2.0
5615 2.0
5616 2.0
5617 2.0
5618 2.0
5619 2.0
5620 2.0
5621 2.0
5622 2.0
5623 2.0
5624 2.0
5625 2.0
5626 2.0
5627 2.0
5628 2.0
5629 2.0
5630 2.0
5631 2.0
5632 2.0
5633 2.0
5634 2.0
5635 2.0
5636 2.0
5637 2.0
5638 2.0
5639 2.0
5640 2.0
5641 2.0
5642 2.0
5643 2.0
5644 2.0
5645 2.0
5646 2.0
5647 2.0
5648 2.0
5649 2.0
5650 2.0
5651 2.0
5652 2.0
5653 2.0
5654 2.0
5655 2.0
5656 2.0
5657 2.0
5658 2.0
5659 2.0
5660 2.0
5661 2.0
5662 2.0
5663 2.0
5664 2.0
5665 2.0
5666 2.0
5667 2.0
5668 2.0
5669 2.0
5670 2.0
5671 2.0
5672 2.0
5673 2.0
5674 2.0
5675 2.0
5676 2.0
5677 2.0
5678 2.0
5679 2.0
5680 2.0
5681 2.0
5682 2.0
5683 2.0
5684 2.0
5685 2.0
5686 2.0
5687 2.0
5688 2.0
5689 2.0
5690 2.0
5691 2.0
5692 2.0
5693 2.0
5694 2.0
5695 2.0
5696 2.0
5697 2.0
5698 2.0
5699 3.0
5700 4.0
5701 3.0
5702 3.0
5703 3.0
5704 3.0
5705 3.0
5706 4.0
5707 3.0
5708 3.0
5709 3.0
5710 3.0
5711 3.0
5712 4.0
5713 3.0
5714 3.0
5715 3.0
5716 3.0
5717 3.0
5718 4.0
5719 3.0
5720 3.0
5721 3.0
5722 3.0
5723 3.0
5724 4.0
5725 3.0
5726 3.0
5727 3.0
5728 3.0
5729 3.0
5730 4.0
5731 3.0
5732 3.0
5733 3.0
5734 3.0
5735 3.0
5736 4.0
5737 3.0
5738 3.0
5739 3.0
5740 3.0
5741 3.0
5742 4.0
5743 3.0
5744 3.0
5745 3.0
5746 3.0
5747 3.0
5748 4.0
5749 3.0
5750 3.0
5751 3.0
5752 3.0
5753 3.0
5754 4.0
5755 3.0
5756 3.0
5757 3.0
5758 3.0
5759 3.0
5760 4.0
5761 3.0
5762 3.0
5763 3.0
5764 3.0
5765 3.0
5766 4.0
5767 3.0
5768 3.0
5769 3.0
5770 3.0
5771 3.0
5772 4.0
5773 3.0
5774 3.0
5775 3.0
5776 3.0
5777 3.0
5778 4.0
5779 3.0
5780 3.0
5781 3.0
5782 3.0
5783 3.0
5784 4.0
5785 3.0
5786 3.0
5787 3.0
5788 3.0
5789 3.0
5790 4.0
5791 3.0
5792 3.0
5793 3.0
5794 3.0
5795 1.0
5796 2.0
5797 2.0
5798 2.0
5799 2.0
5800 2.0
5801 2.0
5802 2.0
5803 2.0
5804 2.0
5805 2.0
5806 2.0
5807 2.0
5808 2.0
5809 2.0
5810 2.0
5811 2.0
5812 2.0
5813 2.0
5814 2.0
5815 2.0
5816 2.0
5817 2.0
5818 2.0
5819 2.0
5820 2.0
5821 2.0
5822 2.0
5823 2.0
5824 2.0
5825 2.0
5826 2.0
5827 2.0
5828 2.0
5829 2.0
5830 2.0
5831 2.0
5832 2.0
5833 2.0
5834 2.0
5835 2.0
5836 2.0
5837 2.0
5838 2.0
5839 2.0
5840 2.0
5841 2.0
5842 2.0
5843 2.0
5844 2.0
5845 2.0
5846 2.0
5847 2.0
5848 2.0
5849 2.0
5850 2.0
5851 2.0
5852 2.0
5853 2.0
5854 2.0
5855 2.0
5856 2.0
5857 2.0
5858 2.0
5859 1.0
5860 3.0
5861 3.0
5862 3.0
5863 3.0
5864 3.0
5865 3.0
5866 3.0
5867 3.0
5868 3.0
5869 3.0
5870 3.0
5871 3.0
5872 3.0
5873 3.0
5874 3.0
5875 3.0
5876 3.0
5877 3.0
5878 3.0
5879 3.0
5880 3.0
5881 3.0
5882 3.0
5883 3.0
5884 3.0
5885 3.0
5886 3.0
5887 3.0
5888 3.0
5889 3.0
5890 3.0
5891 3.0
5892 3.0
5893 3.0
5894 3.0
5895 3.0
5896 3.0
5897 3.0
5898 3.0
5899 3.0
5900 3.0
5901 3.0
5902 3.0
5903 3.0
5904 3.0
5905 3.0
5906 3.0
5907 3.0
5908 3.0
5909 3.0
5910 3.0
5911 3.0
5912 3.0
5913 3.0
5914 3.0
5915 3.0
5916 3.0
5917 3.0
5918 3.0
5919 3.0
5920 3.0
5921 3.0
5922 3.0
5923 3.0
5924 3.0
5925 3.0
5926 3.0
5927 3.0
5928 3.0
5929 3.0
5930 3.0
5931 3.0
5932 3.0
5933 3.0
5934 3.0
5935 3.0
5936 3.0
5937 3.0
5938 3.0
5939 3.0
5940 3.0
5941 3.0
5942 3.0
5943 3.0
5944 3.0
5945 3.0
5946 3.0
5947 3.0
5948 3.0
5949 3.0
5950 3.0
5951 3.0
5952 3.0
5953 3.0
5954 3.0
5955 3.0
5956 2.0
5957 2.0
5958 2.0
5959 2.0
5960 2.0
5961 2.0
5962 2.0
5963 2.0
5964 2.0
5965 2.0
5966 2.0
5967 2.0
5968 2.0
5969 2.0
5970 2.0
5971 2.0
5972 2.0
5973 2.0
5974 2.0
5975 2.0
5976 2.0
5977 2.0
5978 2.0
5979 2.0
5980 2.0
5981 2.0
5982 2.0
5983 2.0
5984 2.0
5985 2.0
5986 2.0
5987 2.0
5988 2.0
5989 2.0
5990 2.0
5991 2.0
5992 2.0
5993 2.0
5994 2.0
5995 2.0
5996 2.0
5997 2.0
5998 2.0
5999 2.0
6000 2.0
6001 2.0
6002 2.0
6003 3.0
6004 3.0
6005 2.0
6006 2.0
6007 3.0
6008 3.0
6009 2.0
6010 2.0
6011 3.0
6012 3.0
6013 2.0
6014 2.0
6015 3.0
6016 3.0
6017 2.0
6018 2.0
6019 3.0
6020 3.0
6021 2.0
6022 2.0
6023 3.0
6024 3.0
6025 2.0
6026 2.0
6027 3.0
6028 3.0
6029 2.0
6030 2.0
6031 3.0
6032 3.0
6033 2.0
6034 2.0
6035 3.0
6036 3.0
6037 2.0
6038 2.0
6039 3.0
6040 3.0
6041 2.0
6042 2.0
6043 3.0
6044 3.0
6045 2.0
6046 2.0
6047 3.0
6048 3.0
6049 2.0
6050 2.0
6051 3.0
6052 3.0
6053 2.0
6054 2.0
6055 3.0
6056 3.0
6057 2.0
6058 2.0
6059 3.0
6060 3.0
6061 2.0
6062 2.0
6063 3.0
6064 3.0
6065 2.0
6066 2.0
6067 2.0
6068 3.0
6069 3.0
6070 2.0
6071 3.0
6072 3.0
6073 2.0
6074 3.0
6075 3.0
6076 2.0
6077 3.0
6078 3.0
6079 2.0
6080 3.0
6081 3.0
6082 2.0
6083 3.0
6084 3.0
6085 2.0
6086 3.0
6087 3.0
6088 2.0
6089 3.0
6090 3.0
6091 2.0
6092 3.0
6093 3.0
6094 2.0
6095 3.0
6096 3.0
6097 2.0
6098 3.0
6099 3.0
6100 2.0
6101 3.0
6102 3.0
6103 2.0
6104 3.0
6105 3.0
6106 2.0
6107 3.0
6108 3.0
6109 2.0
6110 3.0
6111 3.0
6112 2.0
6113 3.0
6114 3.0
6115 3.0
6116 3.0
6117 2.0
6118 2.0
6119 2.0
6120 3.0
6121 3.0
6122 2.0
6123 2.0
6124 2.0
6125 3.0
6126 3.0
6127 2.0
6128 2.0
6129 2.0
6130 3.0
6131 3.0
6132 2.0
6133 2.0
6134 2.0
6135 3.0
6136 3.0
6137 2.0
6138 2.0
6139 2.0
6140 3.0
6141 3.0
6142 2.0
6143 2.0
6144 2.0
6145 3.0
6146 3.0
6147 2.0
6148 2.0
6149 2.0
6150 3.0
6151 3.0
6152 2.0
6153 2.0
6154 2.0
6155 3.0
6156 3.0
6157 2.0
6158 2.0
6159 2.0
6160 3.0
6161 3.0
6162 2.0
6163 2.0
6164 2.0
6165 3.0
6166 3.0
6167 2.0
6168 2.0
6169 2.0
6170 3.0
6171 3.0
6172 2.0
6173 2.0
6174 2.0
6175 3.0
6176 3.0
6177 2.0
6178 2.0
6179 2.0
6180 3.0
6181 3.0
6182 2.0
6183 2.0
6184 2.0
6185 3.0
6186 3.0
6187 2.0
6188 2.0
6189 2.0
6190 3.0
6191 3.0
6192 2.0
6193 2.0
6194 2.0
6195 2.0
6196 2.0
6197 2.0
6198 2.0
6199 2.0
6200 2.0
6201 2.0
6202 2.0
6203 2.0
6204 2.0
6205 2.0
6206 2.0
6207 2.0
6208 2.0
6209 2.0
6210 2.0
6211 2.0
6212 2.0
6213 2.0
6214 2.0
6215 2.0
6216 2.0
6217 2.0
6218 2.0
6219 2.0
6220 2.0
6221 2.0
6222 2.0
6223 2.0
6224 2.0
6225 2.0
6226 2.0
6227 2.0
6228 2.0
6229 2.0
6230 2.0
6231 2.0
6232 2.0
6233 2.0
6234 2.0
6235 2.0
6236 2.0
6237 2.0
6238 2.0
6239 2.0
6240 2.0
6241 2.0
6242 2.0
6243 2.0
6244 2.0
6245 2.0
6246 2.0
6247 2.0
6248 2.0
6249 2.0
6250 2.0
6251 2.0
6252 2.0
6253 2.0
6254 2.0
6255 2.0
6256 2.0
6257 2.0
6258 2.0
6259 2.0
6260 2.0
6261 2.0
6262 2.0
6263 2.0
6264 2.0
6265 2.0
6266 2.0
6267 2.0
6268 2.0
6269 2.0
6270 2.0
6271 2.0
6272 2.0
6273 2.0
6274 2.0
6275 2.0
6276 2.0
6277 2.0
6278 2.0
6279 2.0
6280 2.0
6281 2.0
6282 2.0
6283 2.0
6284 2.0
6285 2.0
6286 2.0
6287 2.0
6288 2.0
6289 2.0
6290 2.0
6291 3.0
6292 4.0
6293 3.0
6294 3.0
6295 3.0
6296 3.0
6297 3.0
6298 4.0
6299 3.0
6300 3.0
6301 3.0
6302 3.0
6303 3.0
6304 4.0
6305 3.0
6306 3.0
6307 3.0
6308 3.0
6309 3.0
6310 4.0
6311 3.0
6312 3.0
6313 3.0
6314 3.0
6315 3.0
6316 4.0
6317 3.0
6318 3.0
6319 3.0
6320 3.0
6321 3.0
6322 4.0
6323 3.0
6324 3.0
6325 3.0
6326 3.0
6327 3.0
6328 4.0
6329 3.0
6330 3.0
6331 3.0
6332 3.0
6333 3.0
6334 4.0
6335 3.0
6336 3.0
6337 3.0
6338 3.0
6339 3.0
6340 4.0
6341 3.0
6342 3.0
6343 3.0
6344 3.0
6345 3.0
6346 4.0
6347 3.0
6348 3.0
6349 3.0
6350 3.0
6351 3.0
6352 4.0
6353 3.0
6354 3.0
6355 3.0
6356 3.0
6357 3.0
6358 4.0
6359 3.0
6360 3.0
6361 3.0
6362 3.0
6363 3.0
6364 4.0
6365 3.0
6366 3.0
6367 3.0
6368 3.0
6369 3.0
6370 4.0
6371 3.0
6372 3.0
6373 3.0
6374 3.0
6375 3.0
6376 4.0
6377 3.0
6378 3.0
6379 3.0
6380 3.0
6381 3.0
6382 4.0
6383 3.0
6384 3.0
6385 3.0
6386 3.0
6387 1.0
6388 2.0
6389 2.0
6390 2.0
6391 2.0
6392 2.0
6393 2.0
6394 2.0
6395 2.0
6396 2.0
6397 2.0
6398 2.0
6399 2.0
6400 2.0
6401 2.0
6402 2.0
6403 2.0
6404 2.0
6405 2.0
6406 2.0
6407 2.0
6408 2.0
6409 2.0
6410 2.0
6411 2.0
6412 2.0
6413 2.0
6414 2.0
6415 2.0
6416 2.0
6417 2.0
6418 2.0
6419 2.0
6420 2.0
6421 2.0
6422 2.0
6423 2.0
6424 2.0
6425 2.0
6426 2.0
6427 2.0
6428 2.0
6429 2.0
6430 2.0
6431 2.0
6432 2.0
6433 2.0
6434 2.0
6435 2.0
6436 2.0
6437 2.0
6438 2.0
6439 2.0
6440 2.0
6441 2.0
6442 2.0
6443 2.0
6444 2.0
6445 2.0
6446 2.0
6447 2.0
6448 2.0
6449 2.0
6450 2.0
6451 1.0
6452 3.0
6453 3.0
6454 3.0
6455 3.0
6456 3.0
6457 3.0
6458 3.0
6459 3.0
6460 3.0
6461 3.0
6462 3.0
6463 3.0
6464 3.0
6465 3.0
6466 3.0
6467 3.0
6468 3.0
6469 3.0
6470 3.0
6471 3.0
6472 3.0
6473 3.0
6474 3.0
6475 3.0
6476 3.0
6477 3.0
6478 3.0
6479 3.0
6480 3.0
6481 3.0
6482 3.0
6483 3.0
6484 3.0
6485 3.0
6486 3.0
6487 3.0
6488 3.0
6489 3.0
6490 3.0
6491 3.0
6492 3.0
6493 3.0
6494 3.0
6495 3.0
6496 3.0
6497 3.0
6498 3.0
6499 3.0
6500 3.0
6501 3.0
6502 3.0
6503 3.0
6504 3.0
6505 3.0
6506 3.0
6507 3.0
6508 3.0
6509 3.0
6510 3.0
6511 3.0
6512 3.0
6513 3.0
6514 3.0
6515 3.0
6516 3.0
6517 3.0
6518 3.0
6519 3.0
6520 3.0
6521 3.0
6522 3.0
6523 3.0
6524 3.0
6525 3.0
6526 3.0
6527 3.0
6528 3.0
6529 3.0
6530 3.0
6531 3.0
6532 3.0
6533 3.0
6534 3.0
6535 3.0
6536 3.0
6537 3.0
6538 3.0
6539 3.0
6540 3.0
6541 3.0
6542 3.0
6543 3.0
6544 3.0
6545 3.0
6546 2.0
6547 2.0
6548 2.0
6549 2.0
6550 2.0
6551 2.0
6552 2.0
6553 2.0
6554 2.0
6555 2.0
6556 2.0
6557 2.0
6558 2.0
6559 2.0
6560 2.0
6561 2.0
6562 2.0
6563 2.0
6564 2.0
6565 2.0
6566 2.0
6567 2.0
6568 2.0
6569 2.0
6570 2.0
6571 2.0
6572 2.0
6573 2.0
6574 2.0
6575 2.0
6576 2.0
6577 2.0
6578 2.0
6579 2.0
6580 2.0
6581 2.0
6582 2.0
6583 2.0
6584 2.0
6585 2.0
6586 2.0
6587 2.0
6588 2.0
6589 2.0
6590 2.0
6591 2.0
6592 2.0
6593 3.0
6594 3.0
6595 2.0
6596 2.0
6597 3.0
6598 3.0
6599 2.0
6600 2.0
6601 3.0
6602 3.0
6603 2.0
6604 2.0
6605 3.0
6606 3.0
6607 2.0
6608 2.0
6609 3.0
6610 3.0
6611 2.0
6612 2.0
6613 3.0
6614 3.0
6615 2.0
6616 2.0
6617 3.0
6618 3.0
6619 2.0
6620 2.0
6621 3.0
6622 3.0
6623 2.0
6624 2.0
6625 3.0
6626 3.0
6627 2.0
6628 2.0
6629 3.0
6630 3.0
6631 2.0
6632 2.0
6633 3.0
6634 3.0
6635 2.0
6636 2.0
6637 3.0
6638 3.0
6639 2.0
6640 2.0
6641 3.0
6642 3.0
6643 2.0
6644 2.0
6645 3.0
6646 3.0
6647 2.0
6648 2.0
6649 3.0
6650 3.0
6651 2.0
6652 2.0
6653 3.0
6654 3.0
6655 2.0
6656 2.0
6657 2.0
6658 3.0
6659 3.0
6660 2.0
6661 3.0
6662 3.0
6663 2.0
6664 3.0
6665 3.0
6666 2.0
6667 3.0
6668 3.0
6669 2.0
6670 3.0
6671 3.0
6672 2.0
6673 3.0
6674 3.0
6675 2.0
6676 3.0
6677 3.0
6678 2.0
6679 3.0
6680 3.0
6681 2.0
6682 3.0
6683 3.0
6684 2.0
6685 3.0
6686 3.0
6687 2.0
6688 3.0
6689 3.0
6690 2.0
6691 3.0
6692 3.0
6693 2.0
6694 3.0
6695 3.0
6696 2.0
6697 3.0
6698 3.0
6699 2.0
6700 3.0
6701 3.0
6702 2.0
6703 3.0
6704 3.0
6705 3.0
6706 3.0
6707 2.0
6708 2.0
6709 2.0
6710 3.0
6711 3.0
6712 2.0
6713 2.0
6714 2.0
6715 3.0
6716 3.0
6717 2.0
6718 2.0
6719 2.0
6720 3.0
6721 3.0
6722 2.0
6723 2.0
6724 2.0
6725 3.0
6726 3.0
6727 2.0
6728 2.0
6729 2.0
6730 3.0
6731 3.0
6732 2.0
6733 2.0
6734 2.0
6735 3.0
6736 3.0
6737 2.0
6738 2.0
6739 2.0
6740 3.0
6741 3.0
6742 2.0
6743 2.0
6744 2.0
6745 3.0
6746 3.0
6747 2.0
6748 2.0
6749 2.0
6750 3.0
6751 3.0
6752 2.0
6753 2.0
6754 2.0
6755 3.0
6756 3.0
6757 2.0
6758 2.0
6759 2.0
6760 3.0
6761 3.0
6762 2.0
6763 2.0
6764 2.0
6765 3.0
6766 3.0
6767 2.0
6768 2.0
6769 2.0
6770 3.0
6771 3.0
6772 2.0
6773 2.0
6774 2.0
6775 3.0
6776 3.0
6777 2.0
6778 2.0
6779 2.0
6780 3.0
6781 3.0
6782 2.0
6783 2.0
6784 2.0
6785 2.0
6786 2.0
6787 2.0
6788 2.0
6789 2.0
6790 2.0
6791 2.0
6792 2.0
6793 2.0
6794 2.0
6795 2.0
6796 2.0
6797 2.0
6798 2.0
6799 2.0
6800 2.0
6801 2.0
6802 2.0
6803 2.0
6804 2.0
6805 2.0
6806 2.0
6807 2.0
6808 2.0
6809 2.0
6810 2.0
6811 2.0
6812 2.0
6813 2.0
6814 2.0
6815 2.0
6816 2.0
6817 2.0
6818 2.0
6819 2.0
6820 2.0
6821 2.0
6822 2.0
6823 2.0
6824 2.0
6825 2.0
6826 2.0
6827 2.0
6828 2.0
6829 2.0
6830 2.0
6831 2.0
6832 2.0
6833 2.0
6834 2.0
6835 2.0
6836 2.0
6837 2.0
6838 2.0
6839 2.0
6840 2.0
6841 2.0
6842 2.0
6843 2.0
6844 2.0
6845 2.0
6846 2.0
6847 2.0
6848 2.0
6849 2.0
6850 2.0
6851 2.0
6852 2.0
6853 2.0
6854 2.0
6855 2.0
6856 2.0
6857 2.0
6858 2.0
6859 2.0
6860 2.0
6861 2.0
6862 2.0
6863 2.0
6864 2.0
6865 2.0
6866 2.0
6867 2.0
6868 2.0
6869 2.0
6870 2.0
6871 2.0
6872 2.0
6873 2.0
6874 2.0
6875 2.0
6876 2.0
6877 2.0
6878 2.0
6879 2.0
6880 2.0
6881 3.0
6882 4.0
6883 3.0
6884 3.0
6885 3.0
6886 3.0
6887 3.0
6888 4.0
6889 3.0
6890 3.0
6891 3.0
6892 3.0
6893 3.0
6894 4.0
6895 3.0
6896 3.0
6897 3.0
6898 3.0
6899 3.0
6900 4.0
6901 3.0
6902 3.0
6903 3.0
6904 3.0
6905 3.0
6906 4.0
6907 3.0
6908 3.0
6909 3.0
6910 3.0
6911 3.0
6912 4.0
6913 3.0
6914 3.0
6915 3.0
6916 3.0
6917 3.0
6918 4.0
6919 3.0
6920 3.0
6921 3.0
6922 3.0
6923 3.0
6924 4.0
6925 3.0
6926 3.0
6927 3.0
6928 3.0
6929 3.0
6930 4.0
6931 3.0
6932 3.0
6933 3.0
6934 3.0
6935 3.0
6936 4.0
6937 3.0
6938 3.0
6939 3.0
6940 3.0
6941 3.0
6942 4.0
6943 3.0
6944 3.0
6945 3.0
6946 3.0
6947 3.0
6948 4.0
6949 3.0
6950 3.0
6951 3.0
6952 3.0
6953 3.0
6954 4.0
6955 3.0
6956 3.0
6957 3.0
6958 3.0
6959 3.0
6960 4.0
6961 3.0
6962 3.0
6963 3.0
6964 3.0
6965 3.0
6966 4.0
6967 3.0
6968 3.0
6969 3.0
6970 3.0
6971 3.0
6972 4.0
6973 3.0
6974 3.0
6975 3.0
6976 3.0
6977 1.0
6978 2.0
6979 2.0
6980 2.0
6981 2.0
6982 2.0
6983 2.0
6984 2.0
6985 2.0
6986 2.0
6987 2.0
6988 2.0
6989 2.0
6990 2.0
6991 2.0
6992 2.0
6993 2.0
6994 2.0
6995 2.0
6996 2.0
6997 2.0
6998 2.0
6999 2.0
7000 2.0
7001 2.0
7002 2.0
7003 2.0
7004 2.0
7005 2.0
7006 2.0
7007 2.0
7008 2.0
7009 2.0
7010 2.0
7011 2.0
7012 2.0
7013 2.0
7014 2.0
7015 2.0
7016 2.0
7017 2.0
7018 2.0
7019 2.0
7020 2.0
7021 2.0
7022 2.0
7023 2.0
7024 2.0
7025 2.0
7026 2.0
7027 2.0
7028 2.0
7029 2.0
7030 2.0
7031 2.0
7032 2.0
7033 2.0
7034 2.0
7035 2.0
7036 2.0
7037 2.0
7038 2.0
7039 2.0
7040 2.0
7041 1.0
7042 3.0
7043 3.0
7044 3.0
7045 3.0
7046 3.0
7047 3.0
7048 3.0
7049 3.0
7050 3.0
7051 3.0
7052 3.0
7053 3.0
7054 3.0
7055 3.0
7056 3.0
7057 3.0
7058 3.0
7059 3.0
7060 3.0
7061 3.0
7062 3.0
7063 3.0
7064 3.0
7065 3.0
7066 3.0
7067 3.0
7068 3.0
7069 3.0
7070 3.0
7071 3.0
7072 3.0
7073 3.0
7074 3.0
7075 3.0
7076 3.0
7077 3.0
7078 3.0
7079 3.0
7080 3.0
7081 3.0
7082 3.0
7083 3.0
7084 3.0
7085 3.0
7086 3.0
7087 3.0
7088 3.0
7089 3.0
7090 3.0
7091 3.0
7092 3.0
7093 3.0
7094 3.0
7095 3.0
7096 3.0
7097 3.0
7098 3.0
7099 3.0
7100 3.0
7101 3.0
7102 3.0
7103 3.0
7104 3.0
7105 3.0
7106 3.0
7107 3.0
7108 3.0
7109 3.0
7110 3.0
7111 3.0
7112 3.0
7113 3.0
7114 3.0
7115 3.0
7116 3.0
7117 3.0
7118 3.0
7119 3.0
7120 3.0
7121 3.0
7122 3.0
7123 3.0
7124 3.0
7125 3.0
7126 3.0
7127 3.0
7128 3.0
7129 3.0
7130 3.0
7131 3.0
7132 3.0
7133 3.0
7134 3.0
7135 3.0
7136 3.0
7137 3.0
7138 2.0
7139 2.0
7140 2.0
7141 2.0
7142 2.0
7143 2.0
7144 2.0
7145 2.0
7146 2.0
7147 2.0
7148 2.0
7149 2.0
7150 2.0
7151 2.0
7152 2.0
7153 2.0
7154 2.0
7155 2.0
7156 2.0
7157 2.0
7158 2.0
7159 2.0
7160 2.0
7161 2.0
7162 2.0
7163 2.0
7164 2.0
7165 2.0
7166 2.0
7167 2.0
7168 2.0
7169 2.0
7170 2.0
7171 2.0
7172 2.0
7173 2.0
7174 2.0
7175 2.0
7176 2.0
7177 2.0
7178 2.0
7179 2.0
7180 2.0
7181 2.0
7182 2.0
7183 2.0
7184 2.0
7185 3.0
7186 3.0
7187 2.0
7188 2.0
7189 3.0
7190 3.0
7191 2.0
7192 2.0
7193 3.0
7194 3.0
7195 2.0
7196 2.0
7197 3.0
7198 3.0
7199 2.0
7200 2.0
7201 3.0
7202 3.0
7203 2.0
7204 2.0
7205 3.0
7206 3.0
7207 2.0
7208 2.0
7209 3.0
7210 3.0
7211 2.0
7212 2.0
7213 3.0
7214 3.0
7215 2.0
7216 2.0
7217 3.0
7218 3.0
7219 2.0
7220 2.0
7221 3.0
7222 3.0
7223 2.0
7224 2.0
7225 3.0
7226 3.0
7227 2.0
7228 2.0
7229 3.0
7230 3.0
7231 2.0
7232 2.0
7233 3.0
7234 3.0
7235 2.0
7236 2.0
7237 3.0
7238 3.0
7239 2.0
7240 2.0
7241 3.0
7242 3.0
7243 2.0
7244 2.0
7245 3.0
7246 3.0
7247 2.0
7248 2.0
7249 2.0
7250 3.0
7251 3.0
7252 2.0
7253 3.0
7254 3.0
7255 2.0
7256 3.0
7257 3.0
7258 2.0
7259 3.0
7260 3.0
7261 2.0
7262 3.0
7263 3.0
7264 2.0
7265 3.0
7266 3.0
7267 2.0
7268 3.0
7269 3.0
7270 2.0
7271 3.0
7272 3.0
7273 2.0
7274 3.0
7275 3.0
7276 2.0
7277 3.0
7278 3.0
7279 2.0
7280 3.0
7281 3.0
7282 2.0
7283 3.0
7284 3.0
7285 2.0
7286 3.0
7287 3.0
7288 2.0
7289 3.0
7290 3.0
7291 2.0
7292 3.0
7293 3.0
7294 2.0
7295 3.0
7296 3.0
7297 3.0
7298 3.0
7299 2.0
7300 2.0
7301 2.0
7302 3.0
7303 3.0
7304 2.0
7305 2.0
7306 2.0
7307 3.0
7308 3.0
7309 2.0
7310 2.0
7311 2.0
7312 3.0
7313 3.0
7314 2.0
7315 2.0
7316 2.0
7317 3.0
7318 3.0
7319 2.0
7320 2.0
7321 2.0
7322 3.0
7323 3.0
7324 2.0
7325 2.0
7326 2.0
7327 3.0
7328 3.0
7329 2.0
7330 2.0
7331 2.0
7332 3.0
7333 3.0
7334 2.0
7335 2.0
7336 2.0
7337 3.0
7338 3.0
7339 2.0
7340 2.0
7341 2.0
7342 3.0
7343 3.0
7344 2.0
7345 2.0
7346 2.0
7347 3.0
7348 3.0
7349 2.0
7350 2.0
7351 2.0
7352 3.0
7353 3.0
7354 2.0
7355 2.0
7356 2.0
7357 3.0
7358 3.0
7359 2.0
7360 2.0
7361 2.0
7362 3.0
7363 3.0
7364 2.0
7365 2.0
7366 2.0
7367 3.0
7368 3.0
7369 2.0
7370 2.0
7371 2.0
7372 3.0
7373 3.0
7374 2.0
7375 2.0
7376 2.0
7377 2.0
7378 2.0
7379 2.0
7380 2.0
7381 2.0
7382 2.0
7383 2.0
7384 2.0
7385 2.0
7386 2.0
7387 2.0
7388 2.0
7389 2.0
7390 2.0
7391 2.0
7392 2.0
7393 2.0
7394 2.0
7395 2.0
7396 2.0
7397 2.0
7398 2.0
7399 2.0
7400 2.0
7401 2.0
7402 2.0
7403 2.0
7404 2.0
7405 2.0
7406 2.0
7407 2.0
7408 2.0
7409 2.0
7410 2.0
7411 2.0
7412 2.0
7413 2.0
7414 2.0
7415 2.0
7416 2.0
7417 2.0
7418 2.0
7419 2.0
7420 2.0
7421 2.0
7422 2.0
7423 2.0
7424 2.0
7425 2.0
7426 2.0
7427 2.0
7428 2.0
7429 2.0
7430 2.0
7431 2.0
7432 2.0
7433 2.0
7434 2.0
7435 2.0
7436 2.0
7437 2.0
7438 2.0
7439 2.0
7440 2.0
7441 2.0
7442 2.0
7443 2.0
7444 2.0
7445 2.0
7446 2.0
7447 2.0
7448 2.0
7449 2.0
7450 2.0
7451 2.0
7452 2.0
7453 2.0
7454 2.0
7455 2.0
7456 2.0
7457 2.0
7458 2.0
7459 2.0
7460 2.0
7461 2.0
7462 2.0
7463 2.0
7464 2.0
7465 2.0
7466 2.0
7467 2.0
7468 2.0
7469 2.0
7470 2.0
7471 2.0
7472 2.0
7473 3.0
7474 4.0
7475 3.0
7476 3.0
7477 3.0
7478 3.0
7479 3.0
7480 4.0
7481 3.0
7482 3.0
7483 3.0
7484 3.0
7485 3.0
7486 4.0
7487 3.0
7488 3.0
7489 3.0
7490 3.0
7491 3.0
7492 4.0
7493 3.0
7494 3.0
7495 3.0
7496 3.0
7497 3.0
7498 4.0
7499 3.0
7500 3.0
7501 3.0
7502 3.0
7503 3.0
7504 4.0
7505 3.0
7506 3.0
7507 3.0
7508 3.0
7509 3.0
7510 4.0
7511 3.0
7512 3.0
7513 3.0
7514 3.0
7515 3.0
7516 4.0
7517 3.0
7518 3.0
7519 3.0
7520 3.0
7521 3.0
7522 4.0
7523 3.0
7524 3.0
7525 3.0
7526 3.0
7527 3.0
7528 4.0
7529 3.0
7530 3.0
7531 3.0
7532 3.0
7533 3.0
7534 4.0
7535 3.0
7536 3.0
7537 3.0
7538 3.0
7539 3.0
7540 4.0
7541 3.0
7542 3.0
7543 3.0
7544 3.0
7545 3.0
7546 4.0
7547 3.0
7548 3.0
7549 3.0
7550 3.0
7551 3.0
7552 4.0
7553 3.0
7554 3.0
7555 3.0
7556 3.0
7557 3.0
7558 4.0
7559 3.0
7560 3.0
7561 3.0
7562 3.0
7563 3.0
7564 4.0
7565 3.0
7566 3.0
7567 3.0
7568 3.0
7569 1.0
7570 2.0
7571 2.0
7572 2.0
7573 2.0
7574 2.0
7575 2.0
7576 2.0
7577 2.0
7578 2.0
7579 2.0
7580 2.0
7581 2.0
7582 2.0
7583 2.0
7584 2.0
7585 2.0
7586 2.0
7587 2.0
7588 2.0
7589 2.0
7590 2.0
7591 2.0
7592 2.0
7593 2.0
7594 2.0
7595 2.0
7596 2.0
7597 2.0
7598 2.0
7599 2.0
7600 2.0
7601 2.0
7602 2.0
7603 2.0
7604 2.0
7605 2.0
7606 2.0
7607 2.0
7608 2.0
7609 2.0
7610 2.0
7611 2.0
7612 2.0
7613 2.0
7614 2.0
7615 2.0
7616 2.0
7617 2.0
7618 2.0
7619 2.0
7620 2.0
7621 2.0
7622 2.0
7623 2.0
7624 2.0
7625 2.0
7626 2.0
7627 2.0
7628 2.0
7629 2.0
7630 2.0
7631 2.0
7632 2.0
7633 1.0
7634 3.0
7635 3.0
7636 3.0
7637 3.0
7638 3.0
7639 3.0
7640 3.0
7641 3.0
7642 3.0
7643 3.0
7644 3.0
7645 3.0
7646 3.0
7647 3.0
7648 3.0
7649 3.0
7650 3.0
7651 3.0
7652 3.0
7653 3.0
7654 3.0
7655 3.0
7656 3.0
7657 3.0
7658 3.0
7659 3.0
7660 3.0
7661 3.0
7662 3.0
7663 3.0
7664 3.0
7665 3.0
7666 3.0
7667 3.0
7668 3.0
7669 3.0
7670 3.0
7671 3.0
7672 3.0
7673 3.0
7674 3.0
7675 3.0
7676 3.0
7677 3.0
7678 3.0
7679 3.0
7680 3.0
7681 3.0
7682 3.0
7683 3.0
7684 3.0
7685 3.0
7686 3.0
7687 3.0
7688 3.0
7689 3.0
7690 3.0
7691 3.0
7692 3.0
7693 3.0
7694 3.0
7695 3.0
7696 3.0
7697 3.0
7698 3.0
7699 3.0
7700 3.0
7701 3.0
7702 3.0
7703 3.0
7704 3.0
7705 3.0
7706 3.0
7707 3.0
7708 3.0
7709 3.0
7710 3.0
7711 3.0
7712 3.0
7713 3.0
7714 3.0
7715 3.0
7716 3.0
7717 3.0
7718 3.0
7719 3.0
7720 3.0
7721 3.0
7722 3.0
7723 3.0
7724 3.0
7725 3.0
7726 3.0
7727 3.0
7728 2.0
7729 2.0
7730 2.0
7731 2.0
7732 2.0
7733 2.0
7734 2.0
7735 2.0
7736 2.0
7737 2.0
7738 2.0
7739 2.0
7740 2.0
7741 2.0
7742 2.0
7743 2.0
7744 2.0
7745 2.0
7746 2.0
7747 2.0
7748 2.0
7749 2.0
7750 2.0
7751 2.0
7752 2.0
7753 2.0
7754 2.0
7755 2.0
7756 2.0
7757 2.0
7758 2.0
7759 2.0
7760 2.0
7761 2.0
7762 2.0
7763 2.0
7764 2.0
7765 2.0
7766 2.0
7767 2.0
7768 2.0
7769 2.0
7770 2.0
7771 2.0
7772 2.0
7773 2.0
7774 2.0
7775 3.0
7776 3.0
7777 2.0
7778 2.0
7779 3.0
7780 3.0
7781 2.0
7782 2.0
7783 3.0
7784 3.0
7785 2.0
7786 2.0
7787 3.0
7788 3.0
7789 2.0
7790 2.0
7791 3.0
7792 3.0
7793 2.0
7794 2.0
7795 3.0
7796 3.0
7797 2.0
7798 2.0
7799 3.0
7800 3.0
7801 2.0
7802 2.0
7803 3.0
7804 3.0
7805 2.0
7806 2.0
7807 3.0
7808 3.0
7809 2.0
7810 2.0
7811 3.0
7812 3.0
7813 2.0
7814 2.0
7815 3.0
7816 3.0
7817 2.0
7818 2.0
7819 3.0
7820 3.0
7821 2.0
7822 2.0
7823 3.0
7824 3.0
7825 2.0
7826 2.0
7827 3.0
7828 3.0
7829 2.0
7830 2.0
7831 3.0
7832 3.0
7833 2.0
7834 2.0
7835 3.0
7836 3.0
7837 2.0
7838 2.0
7839 2.0
7840 3.0
7841 3.0
7842 2.0
7843 3.0
7844 3.0
7845 2.0
7846 3.0
7847 3.0
7848 2.0
7849 3.0
7850 3.0
7851 2.0
7852 3.0
7853 3.0
7854 2.0
7855 3.0
7856 3.0
7857 2.0
7858 3.0
7859 3.0
7860 2.0
7861 3.0
7862 3.0
7863 2.0
7864 3.0
7865 3.0
7866 2.0
7867 3.0
7868 3.0
7869 2.0
7870 3.0
7871 3.0
7872 2.0
7873 3.0
7874 3.0
7875 2.0
7876 3.0
7877 3.0
7878 2.0
7879 3.0
7880 3.0
7881 2.0
7882 3.0
7883 3.0
7884 2.0
7885 3.0
7886 3.0
7887 3.0
7888 3.0
7889 2.0
7890 2.0
7891 2.0
7892 3.0
7893 3.0
7894 2.0
7895 2.0
7896 2.0
7897 3.0
7898 3.0
7899 2.0
7900 2.0
7901 2.0
7902 3.0
7903 3.0
7904 2.0
7905 2.0
7906 2.0
7907 3.0
7908 3.0
7909 2.0
7910 2.0
7911 2.0
7912 3.0
7913 3.0
7914 2.0
7915 2.0
7916 2.0
7917 3.0
7918 3.0
7919 2.0
7920 2.0
7921 2.0
7922 3.0
7923 3.0
7924 2.0
7925 2.0
7926 2.0
7927 3.0
7928 3.0
7929 2.0
7930 2.0
7931 2.0
7932 3.0
7933 3.0
7934 2.0
7935 2.0
7936 2.0
7937 3.0
7938 3.0
7939 2.0
7940 2.0
7941 2.0
7942 3.0
7943 3.0
7944 2.0
7945 2.0
7946 2.0
7947 3.0
7948 3.0
7949 2.0
7950 2.0
7951 2.0
7952 3.0
7953 3.0
7954 2.0
7955 2.0
7956 2.0
7957 3.0
7958 3.0
7959 2.0
7960 2.0
7961 2.0
7962 3.0
7963 3.0
7964 2.0
7965 2.0
7966 2.0
7967 2.0
7968 2.0
7969 2.0
7970 2.0
7971 2.0
7972 2.0
7973 2.0
7974 2.0
7975 2.0
7976 2.0
7977 2.0
7978 2.0
7979 2.0
7980 2.0
7981 2.0
7982 2.0
7983 2.0
7984 2.0
7985 2.0
7986 2.0
7987 2.0
7988 2.0
7989 2.0
7990 2.0
7991 2.0
7992 2.0
7993 2.0
7994 2.0
7995 2.0
7996 2.0
7997 2.0
7998 2.0
7999 2.0
8000 2.0
8001 2.0
8002 2.0
8003 2.0
8004 2.0
8005 2.0
8006 2.0
8007 2.0
8008 2.0
8009 2.0
8010 2.0
8011 2.0
8012 2.0
8013 2.0
8014 2.0
8015 2.0
8016 2.0
8017 2.0
8018 2.0
8019 2.0
8020 2.0
8021 2.0
8022 2.0
8023 2.0
8024 2.0
8025 2.0
8026 2.0
8027 2.0
8028 2.0
8029 2.0
8030 2.0
8031 2.0
8032 2.0
8033 2.0
8034 2.0
8035 2.0
8036 2.0
8037 2.0
8038 2.0
8039 2.0
8040 2.0
8041 2.0
8042 2.0
8043 2.0
8044 2.0
8045 2.0
8046 2.0
8047 2.0
8048 2.0
8049 2.0
8050 2.0
8051 2.0
8052 2.0
8053 2.0
8054 2.0
8055 2.0
8056 2.0
8057 2.0
8058 2.0
8059 2.0
8060 2.0
8061 2.0
8062 2.0
8063 3.0
8064 4.0
8065 3.0
8066 3.0
8067 3.0
8068 3.0
8069 3.0
8070 4.0
8071 3.0
8072 3.0
8073 3.0
8074 3.0
8075 3.0
8076 4.0
8077 3.0
8078 3.0
8079 3.0
8080 3.0
8081 3.0
8082 4.0
8083 3.0
8084 3.0
8085 3.0
8086 3.0
8087 3.0
8088 4.0
8089 3.0
8090 3.0
8091 3.0
8092 3.0
8093 3.0
8094 4.0
8095 3.0
8096 3.0
8097 3.0
8098 3.0
8099 3.0
8100 4.0
8101 3.0
8102 3.0
8103 3.0
8104 3.0
8105 3.0
8106 4.0
8107 3.0
8108 3.0
8109 3.0
8110 3.0
8111 3.0
8112 4.0
8113 3.0
8114 3.0
8115 3.0
8116 3.0
8117 3.0
8118 4.0
8119 3.0
8120 3.0
8121 3.0
8122 3.0
8123 3.0
8124 4.0
8125 3.0
8126 3.0
8127 3.0
8128 3.0
8129 3.0
8130 4.0
8131 3.0
8132 3.0
8133 3.0
8134 3.0
8135 3.0
8136 4.0
8137 3.0
8138 3.0
8139 3.0
8140 3.0
8141 3.0
8142 4.0
8143 3.0
8144 3.0
8145 3.0
8146 3.0
8147 3.0
8148 4.0
8149 3.0
8150 3.0
8151 3.0
8152 3.0
8153 3.0
8154 4.0
8155 3.0
8156 3.0
8157 3.0
8158 3.0
8159 1.0
8160 2.0
8161 2.0
8162 2.0
8163 2.0
8164 2.0
8165 2.0
8166 2.0
8167 2.0
8168 2.0
8169 2.0
8170 2.0
8171 2.0
8172 2.0
8173 2.0
8174 2.0
8175 2.0
8176 2.0
8177 2.0
8178 2.0
8179 2.0
8180 2.0
8181 2.0
8182 2.0
8183 2.0
8184 2.0
8185 2.0
8186 2.0
8187 2.0
8188 2.0
8189 2.0
8190 2.0
8191 2.0
8192 2.0
8193 2.0
8194 2.0
8195 2.0
8196 2.0
8197 2.0
8198 2.0
8199 2.0
8200 2.0
8201 2.0
8202 2.0
8203 2.0
8204 2.0
8205 2.0
8206 2.0
8207 2.0
8208 2.0
8209 2.0
8210 2.0
8211 2.0
8212 2.0
8213 2.0
8214 2.0
8215 2.0
8216 2.0
8217 2.0
8218 2.0
8219 2.0
8220 2.0
8221 2.0
8222 2.0
8223 1.0
8224 3.0
8225 3.0
8226 3.0
8227 3.0
8228 3.0
8229 3.0
8230 3.0
8231 3.0
8232 3.0
8233 3.0
8234 3.0
8235 3.0
8236 3.0
8237 3.0
8238 3.0
8239 3.0
8240 3.0
8241 3.0
8242 3.0
8243 3.0
8244 3.0
8245 3.0
8246 3.0
8247 3.0
8248 3.0
8249 3.0
8250 3.0
8251 3.0
8252 3.0
8253 3.0
8254 3.0
8255 3.0
8256 3.0
8257 3.0
8258 3.0
8259 3.0
8260 3.0
8261 3.0
8262 3.0
8263 3.0
8264 3.0
8265 3.0
8266 3.0
8267 3.0
8268 3.0
8269 3.0
8270 3.0
8271 3.0
8272 3.0
8273 3.0
8274 3.0
8275 3.0
8276 3.0
8277 3.0
8278 3.0
8279 3.0
8280 3.0
8281 3.0
8282 3.0
8283 3.0
8284 3.0
8285 3.0
8286 3.0
8287 3.0
8288 3.0
8289 3.0
8290 3.0
8291 3.0
8292 3.0
8293 3.0
8294 3.0
8295 3.0
8296 3.0
8297 3.0
8298 3.0
8299 3.0
8300 3.0
8301 3.0
8302 3.0
8303 3.0
8304 3.0
8305 3.0
8306 3.0
8307 3.0
8308 3.0
8309 3.0
8310 3.0
8311 3.0
8312 3.0
8313 3.0
8314 3.0
8315 3.0
8316 3.0
8317 3.0
8318 3.0
8319 3.0
8320 2.0
8321 2.0
8322 2.0
8323 2.0
8324 2.0
8325 2.0
8326 2.0
8327 2.0
8328 2.0
8329 2.0
8330 2.0
8331 2.0
8332 2.0
8333 2.0
8334 2.0
8335 2.0
8336 2.0
8337 2.0
8338 2.0
8339 2.0
8340 2.0
8341 2.0
8342 2.0
8343 2.0
8344 2.0
8345 2.0
8346 2.0
8347 2.0
8348 2.0
8349 2.0
8350 2.0
8351 2.0
8352 2.0
8353 2.0
8354 2.0
8355 2.0
8356 2.0
8357 2.0
8358 2.0
8359 2.0
8360 2.0
8361 2.0
8362 2.0
8363 2.0
8364 2.0
8365 2.0
8366 2.0
8367 3.0
8368 3.0
8369 2.0
8370 2.0
8371 3.0
8372 3.0
8373 2.0
8374 2.0
8375 3.0
8376 3.0
8377 2.0
8378 2.0
8379 3.0
8380 3.0
8381 2.0
8382 2.0
8383 3.0
8384 3.0
8385 2.0
8386 2.0
8387 3.0
8388 3.0
8389 2.0
8390 2.0
8391 3.0
8392 3.0
8393 2.0
8394 2.0
8395 3.0
8396 3.0
8397 2.0
8398 2.0
8399 3.0
8400 3.0
8401 2.0
8402 2.0
8403 3.0
8404 3.0
8405 2.0
8406 2.0
8407 3.0
8408 3.0
8409 2.0
8410 2.0
8411 3.0
8412 3.0
8413 2.0
8414 2.0
8415 3.0
8416 3.0
8417 2.0
8418 2.0
8419 3.0
8420 3.0
8421 2.0
8422 2.0
8423 3.0
8424 3.0
8425 2.0
8426 2.0
8427 3.0
8428 3.0
8429 2.0
8430 2.0
8431 2.0
8432 3.0
8433 3.0
8434 2.0
8435 3.0
8436 3.0
8437 2.0
8438 3.0
8439 3.0
8440 2.0
8441 3.0
8442 3.0
8443 2.0
8444 3.0
8445 3.0
8446 2.0
8447 3.0
8448 3.0
8449 2.0
8450 3.0
8451 3.0
8452 2.0
8453 3.0
8454 3.0
8455 2.0
8456 3.0
8457 3.0
8458 2.0
8459 3.0
8460 3.0
8461 2.0
8462 3.0
8463 3.0
8464 2.0
8465 3.0
8466 3.0
8467 2.0
8468 3.0
8469 3.0
8470 2.0
8471 3.0
8472 3.0
8473 2.0
8474 3.0
8475 3.0
8476 2.0
8477 3.0
8478 3.0
8479 3.0
8480 3.0
8481 2.0
8482 2.0
8483 2.0
8484 3.0
8485 3.0
8486 2.0
8487 2.0
8488 2.0
8489 3.0
8490 3.0
8491 2.0
8492 2.0
8493 2.0
8494 3.0
8495 3.0
8496 2.0
8497 2.0
8498 2.0
8499 3.0
8500 3.0
8501 2.0
8502 2.0
8503 2.0
8504 3.0
8505 3.0
8506 2.0
8507 2.0
8508 2.0
8509 3.0
8510 3.0
8511 2.0
8512 2.0
8513 2.0
8514 3.0
8515 3.0
8516 2.0
8517 2.0
8518 2.0
8519 3.0
8520 3.0
8521 2.0
8522 2.0
8523 2.0
8524 3.0
8525 3.0
8526 2.0
8527 2.0
8528 2.0
8529 3.0
8530 3.0
8531 2.0
8532 2.0
8533 2.0
8534 3.0
8535 3.0
8536 2.0
8537 2.0
8538 2.0
8539 3.0
8540 3.0
8541 2.0
8542 2.0
8543 2.0
8544 3.0
8545 3.0
8546 2.0
8547 2.0
8548 2.0
8549 3.0
8550 3.0
8551 2.0
8552 2.0
8553 2.0
8554 3.0
8555 3.0
8556 2.0
8557 2.0
8558 2.0
8559 2.0
8560 2.0
8561 2.0
8562 2.0
8563 2.0
8564 2.0
8565 2.0
8566 2.0
8567 2.0
8568 2.0
8569 2.0
8570 2.0
8571 2.0
8572 2.0
8573 2.0
8574 2.0
8575 2.0
8576 2.0
8577 2.0
8578 2.0
8579 2.0
8580 2.0
8581 2.0
8582 2.0
8583 2.0
8584 2.0
8585 2.0
8586 2.0
8587 2.0
8588 2.0
8589 2.0
8590 2.0
8591 2.0
8592 2.0
8593 2.0
8594 2.0
8595 2.0
8596 2.0
8597 2.0
8598 2.0
8599 2.0
8600 2.0
8601 2.0
8602 2.0
8603 2.0
8604 2.0
8605 2.0
8606 2.0
8607 2.0
8608 2.0
8609 2.0
8610 2.0
8611 2.0
8612 2.0
8613 2.0
8614 2.0
8615 2.0
8616 2.0
8617 2.0
8618 2.0
8619 2.0
8620 2.0
8621 2.0
8622 2.0
8623 2.0
8624 2.0
8625 2.0
8626 2.0
8627 2.0
8628 2.0
8629 2.0
8630 2.0
8631 2.0
8632 2.0
8633 2.0
8634 2.0
8635 2.0
8636 2.0
8637 2.0
8638 2.0
8639 2.0
8640 2.0
8641 2.0
8642 2.0
8643 2.0
8644 2.0
8645 2.0
8646 2.0
8647 2.0
8648 2.0
8649 2.0
8650 2.0
8651 2.0
8652 2.0
8653 2.0
8654 2.0
8655 3.0
8656 4.0
8657 3.0
8658 3.0
8659 3.0
8660 3.0
8661 3.0
8662 4.0
8663 3.0
8664 3.0
8665 3.0
8666 3.0
8667 3.0
8668 4.0
8669 3.0
8670 3.0
8671 3.0
8672 3.0
8673 3.0
8674 4.0
8675 3.0
8676 3.0
8677 3.0
8678 3.0
8679 3.0
8680 4.0
8681 3.0
8682 3.0
8683 3.0
8684 3.0
8685 3.0
8686 4.0
8687 3.0
8688 3.0
8689 3.0
8690 3.0
8691 3.0
8692 4.0
8693 3.0
8694 3.0
8695 3.0
8696 3.0
8697 3.0
8698 4.0
8699 3.0
8700 3.0
8701 3.0
8702 3.0
8703 3.0
8704 4.0
8705 3.0
8706 3.0
8707 3.0
8708 3.0
8709 3.0
8710 4.0
8711 3.0
8712 3.0
8713 3.0
8714 3.0
8715 3.0
8716 4.0
8717 3.0
8718 3.0
8719 3.0
8720 3.0
8721 3.0
8722 4.0
8723 3.0
8724 3.0
8725 3.0
8726 3.0
8727 3.0
8728 4.0
8729 3.0
8730 3.0
8731 3.0
8732 3.0
8733 3.0
8734 4.0
8735 3.0
8736 3.0
8737 3.0
8738 3.0
8739 3.0
8740 4.0
8741 3.0
8742 3.0
8743 3.0
8744 3.0
8745 3.0
8746 4.0
8747 3.0
8748 3.0
8749 3.0
8750 3.0
8751 1.0
8752 2.0
8753 2.0
8754 2.0
8755 2.0
8756 2.0
8757 2.0
8758 2.0
8759 2.0
8760 2.0
8761 2.0
8762 2.0
8763 2.0
8764 2.0
8765 2.0
8766 2.0
8767 2.0
8768 2.0
8769 2.0
8770 2.0
8771 2.0
8772 2.0
8773 2.0
8774 2.0
8775 2.0
8776 2.0
8777 2.0
8778 2.0
8779 2.0
8780 2.0
8781 2.0
8782 2.0
8783 2.0
8784 2.0
8785 2.0
8786 2.0
8787 2.0
8788 2.0
8789 2.0
8790 2.0
8791 2.0
8792 2.0
8793 2.0
8794 2.0
8795 2.0
8796 2.0
8797 2.0
8798 2.0
8799 2.0
8800 2.0
8801 2.0
8802 2.0
8803 2.0
8804 2.0
8805 2.0
8806 2.0
8807 2.0
8808 2.0
8809 2.0
8810 2.0
8811 2.0
8812 2.0
8813 2.0
8814 2.0
8815 1.0
8816 3.0
8817 3.0
8818 3.0
8819 3.0
8820 3.0
8821 3.0
8822 3.0
8823 3.0
8824 3.0
8825 3.0
8826 3.0
8827 3.0
8828 3.0
8829 3.0
8830 3.0
8831 3.0
8832 3.0
8833 3.0
8834 3.0
8835 3.0
8836 3.0
8837 3.0
8838 3.0
8839 3.0
8840 3.0
8841 3.0
8842 3.0
8843 3.0
8844 3.0
8845 3.0
8846 3.0
8847 3.0
8848 3.0
8849 3.0
8850 3.0
8851 3.0
8852 3.0
8853 3.0
8854 3.0
8855 3.0
8856 3.0
8857 3.0
8858 3.0
8859 3.0
8860 3.0
8861 3.0
8862 3.0
8863 3.0
8864 3.0
8865 3.0
8866 3.0
8867 3.0
8868 3.0
8869 3.0
8870 3.0
8871 3.0
8872 3.0
8873 3.0
8874 3.0
8875 3.0
8876 3.0
8877 3.0
8878 3.0
8879 3.0
8880 3.0
8881 3.0
8882 3.0
8883 3.0
8884 3.0
8885 3.0
8886 3.0
8887 3.0
8888 3.0
8889 3.0
8890 3.0
8891 3.0
8892 3.0
8893 3.0
8894 3.0
8895 3.0
8896 3.0
8897 3.0
8898 3.0
8899 3.0
8900 3.0
8901 3.0
8902 3.0
8903 3.0
8904 3.0
8905 3.0
8906 3.0
8907 3.0
8908 3.0
8909 3.0
8910 3.0
8911 3.0
8912 2.0
8913 2.0
8914 2.0
8915 2.0
8916 2.0
8917 2.0
8918 2.0
8919 2.0
8920 2.0
8921 2.0
8922 2.0
8923 2.0
8924 2.0
8925 2.0
8926 2.0
8927 2.0
8928 2.0
8929 2.0
8930 2.0
8931 2.0
8932 2.0
8933 2.0
8934 2.0
8935 2.0
8936 2.0
8937 2.0
8938 2.0
8939 2.0
8940 2.0
8941 2.0
8942 2.0
8943 2.0
8944 2.0
8945 2.0
8946 2.0
8947 2.0
8948 2.0
8949 2.0
8950 2.0
8951 2.0
8952 2.0
8953 2.0
8954 2.0
8955 2.0
8956 2.0
8957 2.0
8958 2.0
8959 3.0
8960 3.0
8961 2.0
8962 2.0
8963 3.0
8964 3.0
8965 2.0
8966 2.0
8967 3.0
8968 3.0
8969 2.0
8970 2.0
8971 3.0
8972 3.0
8973 2.0
8974 2.0
8975 3.0
8976 3.0
8977 2.0
8978 2.0
8979 3.0
8980 3.0
8981 2.0
8982 2.0
8983 3.0
8984 3.0
8985 2.0
8986 2.0
8987 3.0
8988 3.0
8989 2.0
8990 2.0
8991 3.0
8992 3.0
8993 2.0
8994 2.0
8995 3.0
8996 3.0
8997 2.0
8998 2.0
8999 3.0
9000 3.0
9001 2.0
9002 2.0
9003 3.0
9004 3.0
9005 2.0
9006 2.0
9007 3.0
9008 3.0
9009 2.0
9010 2.0
9011 3.0
9012 3.0
9013 2.0
9014 2.0
9015 3.0
9016 3.0
9017 2.0
9018 2.0
9019 3.0
9020 3.0
9021 2.0
9022 2.0
9023 2.0
9024 3.0
9025 3.0
9026 2.0
9027 3.0
9028 3.0
9029 2.0
9030 3.0
9031 3.0
9032 2.0
9033 3.0
9034 3.0
9035 2.0
9036 3.0
9037 3.0
9038 2.0
9039 3.0
9040 3.0
9041 2.0
9042 3.0
9043 3.0
9044 2.0
9045 3.0
9046 3.0
9047 2.0
9048 3.0
9049 3.0
9050 2.0
9051 3.0
9052 3.0
9053 2.0
9054 3.0
9055 3.0
9056 2.0
9057 3.0
9058 3.0
9059 2.0
9060 3.0
9061 3.0
9062 2.0
9063 3.0
9064 3.0
9065 2.0
9066 3.0
9067 3.0
9068 2.0
9069 3.0
9070 3.0
9071 3.0
9072 3.0
9073 2.0
9074 2.0
9075 2.0
9076 3.0
9077 3.0
9078 2.0
9079 2.0
9080 2.0
9081 3.0
9082 3.0
9083 2.0
9084 2.0
9085 2.0
9086 3.0
9087 3.0
9088 2.0
9089 2.0
9090 2.0
9091 3.0
9092 3.0
9093 2.0
9094 2.0
9095 2.0
9096 3.0
9097 3.0
9098 2.0
9099 2.0
9100 2.0
9101 3.0
9102 3.0
9103 2.0
9104 2.0
9105 2.0
9106 3.0
9107 3.0
9108 2.0
9109 2.0
9110 2.0
9111 3.0
9112 3.0
9113 2.0
9114 2.0
9115 2.0
9116 3.0
9117 3.0
9118 2.0
9119 2.0
9120 2.0
9121 3.0
9122 3.0
9123 2.0
9124 2.0
9125 2.0
9126 3.0
9127 3.0
9128 2.0
9129 2.0
9130 2.0
9131 3.0
9132 3.0
9133 2.0
9134 2.0
9135 2.0
9136 3.0
9137 3.0
9138 2.0
9139 2.0
9140 2.0
9141 3.0
9142 3.0
9143 2.0
9144 2.0
9145 2.0
9146 3.0
9147 3.0
9148 2.0
9149 2.0
9150 2.0
9151 2.0
9152 2.0
9153 2.0
9154 2.0
9155 2.0
9156 2.0
9157 2.0
9158 2.0
9159 2.0
9160 2.0
9161 2.0
9162 2.0
9163 2.0
9164 2.0
9165 2.0
9166 2.0
9167 2.0
9168 2.0
9169 2.0
9170 2.0
9171 2.0
9172 2.0
9173 2.0
9174 2.0
9175 2.0
9176 2.0
9177 2.0
9178 2.0
9179 2.0
9180 2.0
9181 2.0
9182 2.0
9183 2.0
9184 2.0
9185 2.0
9186 2.0
9187 2.0
9188 2.0
9189 2.0
9190 2.0
9191 2.0
9192 2.0
9193 2.0
9194 2.0
9195 2.0
9196 2.0
9197 2.0
9198 2.0
9199 2.0
9200 2.0
9201 2.0
9202 2.0
9203 2.0
9204 2.0
9205 2.0
9206 2.0
9207 2.0
9208 2.0
9209 2.0
9210 2.0
9211 2.0
9212 2.0
9213 2.0
9214 2.0
9215 2.0
9216 2.0
9217 2.0
9218 2.0
9219 2.0
9220 2.0
9221 2.0
9222 2.0
9223 2.0
9224 2.0
9225 2.0
9226 2.0
9227 2.0
9228 2.0
9229 2.0
9230 2.0
9231 2.0
9232 2.0
9233 2.0
9234 2.0
9235 2.0
9236 2.0
9237 2.0
9238 2.0
9239 2.0
9240 2.0
9241 2.0
9242 2.0
9243 2.0
9244 2.0
9245 2.0
9246 2.0
9247 3.0
9248 4.0
9249 3.0
9250 3.0
9251 3.0
9252 3.0
9253 3.0
9254 4.0
9255 3.0
9256 3.0
9257 3.0
9258 3.0
9259 3.0
9260 4.0
9261 3.0
9262 3.0
9263 3.0
9264 3.0
9265 3.0
9266 4.0
9267 3.0
9268 3.0
9269 3.0
9270 3.0
9271 3.0
9272 4.0
9273 3.0
9274 3.0
9275 3.0
9276 3.0
9277 3.0
9278 4.0
9279 3.0
9280 3.0
9281 3.0
9282 3.0
9283 3.0
9284 4.0
9285 3.0
9286 3.0
9287 3.0
9288 3.0
9289 3.0
9290 4.0
9291 3.0
9292 3.0
9293 3.0
9294 3.0
9295 3.0
9296 4.0
9297 3.0
9298 3.0
9299 3.0
9300 3.0
9301 3.0
9302 4.0
9303 3.0
9304 3.0
9305 3.0
9306 3.0
9307 3.0
9308 4.0
9309 3.0
9310 3.0
9311 3.0
9312 3.0
9313 3.0
9314 4.0
9315 3.0
9316 3.0
9317 3.0
9318 3.0
9319 3.0
9320 4.0
9321 3.0
9322 3.0
9323 3.0
9324 3.0
9325 3.0
9326 4.0
9327 3.0
9328 3.0
9329 3.0
9330 3.0
9331 3.0
9332 4.0
9333 3.0
9334 3.0
9335 3.0
9336 3.0
9337 3.0
9338 4.0
9339 3.0
9340 3.0
9341 3.0
9342 3.0
9343 1.0
9344 2.0
9345 2.0
9346 2.0
9347 2.0
9348 2.0
9349 2.0
9350 2.0
9351 2.0
9352 2.0
9353 2.0
9354 2.0
9355 2.0
9356 2.0
9357 2.0
9358 2.0
9359 2.0
9360 2.0
9361 2.0
9362 2.0
9363 2.0
9364 2.0
9365 2.0
9366 2.0
9367 2.0
9368 2.0
9369 2.0
9370 2.0
9371 2.0
9372 2.0
9373 2.0
9374 2.0
9375 2.0
9376 2.0
9377 2.0
9378 2.0
9379 2.0
9380 2.0
9381 2.0
9382 2.0
9383 2.0
9384 2.0
9385 2.0
9386 2.0
9387 2.0
9388 2.0
9389 2.0
9390 2.0
9391 2.0
9392 2.0
9393 2.0
9394 2.0
9395 2.0
9396 2.0
9397 2.0
9398 2.0
9399 2.0
9400 2.0
9401 2.0
9402 2.0
9403 2.0
9404 2.0
9405 2.0
9406 2.0
9407 1.0
9408 3.0
9409 3.0
9410 3.0
9411 3.0
9412 3.0
9413 3.0
9414 3.0
9415 3.0
9416 3.0
9417 3.0
9418 3.0
9419 3.0
9420 3.0
9421 3.0
9422 3.0
9423 3.0
9424 3.0
9425 3.0
9426 3.0
9427 3.0
9428 3.0
9429 3.0
9430 3.0
9431 3.0
9432 3.0
9433 3.0
9434 3.0
9435 3.0
9436 3.0
9437 3.0
9438 3.0
9439 3.0
9440 3.0
9441 3.0
9442 3.0
9443 3.0
9444 3.0
9445 3.0
9446 3.0
9447 3.0
9448 3.0
9449 3.0
9450 3.0
9451 3.0
9452 3.0
9453 3.0
9454 3.0
9455 3.0
9456 3.0
9457 3.0
9458 3.0
9459 3.0
9460 3.0
9461 3.0
9462 3.0
9463 3.0
9464 3.0
9465 3.0
9466 3.0
9467 3.0
9468 3.0
9469 3.0
9470 3.0
9471 3.0
9472 3.0
9473 3.0
9474 3.0
9475 3.0
9476 3.0
9477 3.0
9478 3.0
9479 3.0
9480 3.0
9481 3.0
9482 3.0
9483 3.0
9484 3.0
9485 3.0
9486 1.0
9487 1.0
9488 1.0
9489 1.0
9490 1.0
9491 1.0
9492 1.0
9493 1.0
9494 1.0
9495 1.0
9496 1.0
9497 1.0
9498 1.0
9499 1.0
9500 1.0
9501 1.0

edges:
1 2
1 47
2 31
3 4
3 50
4 32
5 6
5 53
6 33
7 8
7 56
8 34
9 10
9 59
10 35
11 12
11 62
12 36
13 14
13 65
14 37
15 16
15 68
16 38
17 18
17 71
18 39
19 20
19 74
20 40
21 22
21 77
22 41
23 24
23 80
24 42
25 26
25 83
26 43
27 28
27 86
28 44
29 30
29 89
30 45
31 48
32 51
33 54
34 57
35 60
36 63
37 66
38 69
39 72
40 75
41 78
42 81
43 84
44 87
45 90
46 92
46 93
47 157
47 158
48 159
49 96
49 97
50 160
50 161
51 162
52 100
52 101
53 163
53 164
54 165
55 104
55 105
56 166
56 167
57 168
58 108
58 109
59 169
59 170
60 171
61 112
61 113
62 172
62 173
63 174
64 116
64 117
65 175
65 176
66 177
67 120
67 121
68 178
68 179
69 180
70 124
70 125
71 181
71 182
72 183
73 128
73 129
74 184
74 185
75 186
76 132
76 133
77 187
77 188
78 189
79 136
79 137
80 190
80 191
81 192
82 140
82 141
83 193
83 194
84 195
85 144
85 145
86 196
86 197
87 198
88 148
88 149
89 199
89 200
90 201
91 152
91 153
92 93
92 156
92 202
92 203
93 94
93 202
93 203
94 157
94 203
94 204
95 158
95 205
95 206
96 97
96 159
96 207
96 208
97 98
97 207
97 208
98 160
98 208
98 209
99 161
99 210
99 211
100 101
100 162
100 212
100 213
101 102
101 212
101 213
102 163
102 213
102 214
103 164
103 215
103 216
104 105
104 165
104 217
104 218
105 106
105 217
105 218
106 166
106 218
106 219
107 167
107 220
107 221
108 109
108 168
108 222
108 223
109 110
109 222
109 223
110 169
110 223
110 224
111 170
111 225
111 226
112 113
112 171
112 227
112 228
113 114
113 227
113 228
114 172
114 228
114 229
115 173
115 230
115 231
116 117
116 174
116 232
116 233
117 118
117 232
117 233
118 175
118 233
118 234
119 176
119 235
119 236
120 121
120 177
120 237
120 238
121 122
121 237
121 238
122 178
122 238
122 239
123 179
123 240
123 241
124 125
124 180
124 242
124 243
125 126
125 242
125 243
126 181
126 243
126 244
127 182
127 245
127 246
128 129
128 183
128 247
128 248
129 130
129 247
129 248
130 184
130 248
130 249
131 185
131 250
131 251
132 133
132 186
132 252
132 253
133 134
133 252
133 253
134 187
134 253
134 254
135 188
135 255
135 256
136 137
136 189
136 257
136 258
137 138
137 257
137 258
138 190
138 258
138 259
139 191
139 260
139 261
140 141
140 192
140 262
140 263
141 142
141 262
141 263
142 193
142 263
142 264
143 194
143 265
143 266
144 145
144 195
144 267
144 268
145 146
145 267
145 268
146 196
146 268
146 269
147 197
147 270
147 271
148 149
148 198
148 272
148 273
149 150
149 272
149 273
150 199
150 273
150 274
151 200
151 275
151 276
152 153
152 201
152 277
152 278
153 154
153 277
153 278
154 278
154 279
155 280
155 281
156 202
157 158
157 204
157 282
157 283
158 205
158 282
158 283
159 207
160 161
160 209
160 284
160 285
161 210
161 284
161 285
162 212
163 164
163 214
163 286
163 287
164 215
164 286
164 287
165 217
166 167
166 219
166 288
166 289
167 220
167 288
167 289
168 222
169 170
169 224
169 290
169 291
170 225
170 290
170 291
171 227
172 173
172 229
172 292
172 293
173 230
173 292
173 293
174 232
175 176
175 234
175 294
175 295
176 235
176 294
176 295
177 237
178 179
178 239
178 296
178 297
179 240
179 296
179 297
180 242
181 182
181 244
181 298
181 299
182 245
182 298
182 299
183 247
184 185
184 249
184 300
184 301
185 250
185 300
185 301
186 252
187 188
187 254
187 302
187 303
188 255
188 302
188 303
189 257
190 191
190 259
190 304
190 305
191 260
191 304
191 305
192 262
193 194
193 264
193 306
193 307
194 265
194 306
194 307
195 267
196 197
196 269
196 308
196 309
197 270
197 308
197 309
198 272
199 200
199 274
199 310
199 311
200 275
200 310
200 311
201 277
202 203
202 314
203 314
204 282
204 315
205 283
205 316
206 317
207 208
207 318
208 318
209 284
209 319
210 285
210 320
211 321
212 213
212 322
213 322
214 286
214 323
215 287
215 324
216 325
217 218
217 326
218 326
219 288
219 327
220 289
220 328
221 329
222 223
222 330
223 330
224 290
224 331
225 291
225 332
226 333
227 228
227 334
228 334
229 292
229 335
230 293
230 336
231 337
232 233
232 338
233 338
234 294
234 339
235 295
235 340
236 341
237 238
237 342
238 342
239 296
239 343
240 297
240 344
241 345
242 243
242 346
243 346
244 298
244 347
245 299
245 348
246 349
247 248
247 350
248 350
249 300
249 351
250 301
250 352
251 353
252 253
252 354
253 354
254 302
254 355
255 303
255 356
256 357
257 258
257 358
258 358
259 304
259 359
260 305
260 360
261 361
262 263
262 362
263 362
264 306
264 363
265 307
265 364
266 365
267 268
267 366
268 366
269 308
269 367
270 309
270 368
271 369
272 273
272 370
273 370
274 310
274 371
275 311
275 372
276 373
277 278
277 374
278 374
279 312
279 375
280 313
280 376
281 377
282 283
282 315
283 316
284 285
284 319
285 320
286 287
286 323
287 324
288 289
288 327
289 328
290 291
290 331
291 332
292 293
292 335
293 336
294 295
294 339
295 340
296 297
296 343
297 344
298 299
298 347
299 348
300 301
300 351
301 352
302 303
302 355
303 356
304 305
304 359
305 360
306 307
306 363
307 364
308 309
308 367
309 368
310 311
310 371
311 372
312 313
312 375
313 376
314 378
314 379
315 379
316 380
316 381
317 382
317 383
318 384
318 385
319 385
320 386
320 387
321 388
321 389
322 390
322 391
323 391
324 392
324 393
325 394
325 395
326 396
326 397
327 397
328 398
328 399
329 400
329 401
330 402
330 403
331 403
332 404
332 405
333 406
333 407
334 408
334 409
335 409
336 410
336 411
337 412
337 413
338 414
338 415
339 415
340 416
340 417
341 418
341 419
342 420
342 421
343 421
344 422
344 423
345 424
345 425
346 426
346 427
347 427
348 428
348 429
349 430
349 431
350 432
350 433
351 433
352 434
352 435
353 436
353 437
354 438
354 439
355 439
356 440
356 441
357 442
357 443
358 444
358 445
359 445
360 446
360 447
361 448
361 449
362 450
362 451
363 451
364 452
364 453
365 454
365 455
366 456
366 457
367 457
368 458
368 459
369 460
369 461
370 462
370 463
371 463
372 464
372 465
373 466
373 467
374 468
374 469
375 469
376 470
376 471
377 472
377 473
378 379
378 474
378 539
378 540
379 475
379 539
379 540
380 381
380 476
380 541
380 542
381 477
381 541
381 542
382 383
382 477
382 543
382 544
383 478
383 543
383 544
384 385
384 478
384 545
384 546
385 479
385 545
385 546
386 387
386 480
386 547
386 548
387 481
387 547
387 548
388 389
388 481
388 549
388 550
389 482
389 549
389 550
390 391
390 482
390 551
390 552
391 483
391 551
391 552
392 393
392 484
392 553
392 554
393 485
393 553
393 554
394 395
394 485
394 555
394 556
395 486
395 555
395 556
396 397
396 486
396 557
396 558
397 487
397 557
397 558
398 399
398 488
398 559
398 560
399 489
399 559
399 560
400 401
400 489
400 561
400 562
401 490
401 561
401 562
402 403
402 490
402 563
402 564
403 491
403 563
403 564
404 405
404 492
404 565
404 566
405 493
405 565
405 566
406 407
406 493
406 567
406 568
407 494
407 567
407 568
408 409
408 494
408 569
408 570
409 495
409 569
409 570
410 411
410 496
410 571
410 572
411 497
411 571
411 572
412 413
412 497
412 573
412 574
413 498
413 573
413 574
414 415
414 498
414 575
414 576
415 499
415 575
415 576
416 417
416 500
416 577
416 578
417 501
417 577
417 578
418 419
418 501
418 579
418 580
419 502
419 579
419 580
420 421
420 502
420 581
420 582
421 503
421 581
421 582
422 423
422 504
422 583
422 584
423 505
423 583
423 584
424 425
424 505
424 585
424 586
425 506
425 585
425 586
426 427
426 506
426 587
426 588
427 507
427 587
427 588
428 429
428 508
428 589
428 590
429 509
429 589
429 590
430 431
430 509
430 591
430 592
431 510
431 591
431 592
432 433
432 510
432 593
432 594
433 511
433 593
433 594
434 435
434 512
434 595
434 596
435 513
435 595
435 596
436 437
436 513
436 597
436 598
437 514
437 597
437 598
438 439
438 514
438 599
438 600
439 515
439 599
439 600
440 441
440 516
440 601
440 602
441 517
441 601
441 602
442 443
442 517
442 603
442 604
443 518
443 603
443 604
444 445
444 518
444 605
444 606
445 519
445 605
445 606
446 447
446 520
446 607
446 608
447 521
447 607
447 608
448 449
448 521
448 609
448 610
449 522
449 609
449 610
450 451
450 522
450 611
450 612
451 523
451 611
451 612
452 453
452 524
452 613
452 614
453 525
453 613
453 614
454 455
454 525
454 615
454 616
455 526
455 615
455 616
456 457
456 526
456 617
456 618
457 527
457 617
457 618
458 459
458 528
458 619
458 620
459 529
459 619
459 620
460 461
460 529
460 621
460 622
461 530
461 621
461 622
462 463
462 530
462 623
462 624
463 531
463 623
463 624
464 465
464 532
464 625
464 626
465 533
465 625
465 626
466 467
466 533
466 627
466 628
467 534
467 627
467 628
468 469
468 534
468 629
468 630
469 535
469 629
469 630
470 471
470 536
470 631
470 632
471 537
471 631
471 632
472 473
472 537
472 633
472 634
473 538
473 633
473 634
474 539
475 476
475 540
476 541
477 542
477 543
478 544
478 545
479 480
479 546
480 547
481 548
481 549
482 550
482 551
483 484
483 552
484 553
485 554
485 555
486 556
486 557
487 488
487 558
488 559
489 560
489 561
490 562
490 563
491 492
491 564
492 565
493 566
493 567
494 568
494 569
495 496
495 570
496 571
497 572
497 573
498 574
498 575
499 500
499 576
500 577
501 578
501 579
502 580
502 581
503 504
503 582
504 583
505 584
505 585
506 586
506 587
507 508
507 588
508 589
509 590
509 591
510 592
510 593
511 512
511 594
512 595
513 596
513 597
514 598
514 599
515 516
515 600
516 601
517 602
517 603
518 604
518 605
519 520
519 606
520 607
521 608
521 609
522 610
522 611
523 524
523 612
524 613
525 614
525 615
526 616
526 617
527 528
527 618
528 619
529 620
529 621
530 622
530 623
531 532
531 624
532 625
533 626
533 627
534 628
534 629
535 536
535 630
536 631
537 632
537 633
538 634
539 540
539 635
540 635
541 542
541 636
542 636
543 544
543 637
544 637
545 546
545 638
546 638
547 548
547 639
548 639
549 550
549 640
550 640
551 552
551 641
552 641
553 554
553 642
554 642
555 556
555 643
556 643
557 558
557 644
558 644
559 560
559 645
560 645
561 562
561 646
562 646
563 564
563 647
564 647
565 566
565 648
566 648
567 568
567 649
568 649
569 570
569 650
570 650
571 572
571 651
572 651
573 574
573 652
574 652
575 576
575 653
576 653
577 578
577 654
578 654
579 580
579 655
580 655
581 582
581 656
582 656
583 584
583 657
584 657
585 586
585 658
586 658
587 588
587 659
588 659
589 590
589 660
590 660
591 592
591 661
592 661
593 594
593 662
594 662
595 596
595 663
596 663
597 598
597 664
598 664
599 600
599 665
600 665
601 602
601 666
602 666
603 604
603 667
604 667
605 606
605 668
606 668
607 608
607 669
608 669
609 610
609 670
610 670
611 612
611 671
612 671
613 614
613 672
614 672
615 616
615 673
616 673
617 618
617 674
618 674
619 620
619 675
620 675
621 622
621 676
622 676
623 624
623 677
624 677
625 626
625 678
626 678
627 628
627 679
628 679
629 630
629 680
630 680
631 632
631 681
632 681
633 634
635 682
635 683
636 747
636 748
637 749
638 686
638 687
639 750
639 751
640 752
641 690
641 691
642 753
642 754
643 755
644 694
644 695
645 756
645 757
646 758
647 698
647 699
648 759
648 760
649 761
650 702
650 703
651 762
651 763
652 764
653 706
653 707
654 765
654 766
655 767
656 710
656 711
657 768
657 769
658 770
659 714
659 715
660 771
660 772
661 773
662 718
662 719
663 774
663 775
664 776
665 722
665 723
666 777
666 778
667 779
668 726
668 727
669 780
669 781
670 782
671 730
671 731
672 783
672 784
673 785
674 734
674 735
675 786
675 787
676 788
677 738
677 739
678 789
678 790
679 791
680 742
680 743
681 792
681 793
682 683
682 746
682 794
682 795
683 684
683 794
683 795
684 747
684 795
684 796
685 748
685 797
685 798
686 687
686 749
686 799
686 800
687 688
687 799
687 800
688 750
688 800
688 801
689 751
689 802
689 803
690 691
690 752
690 804
690 805
691 692
691 804
691 805
692 753
692 805
692 806
693 754
693 807
693 808
694 695
694 755
694 809
694 810
695 696
695 809
695 810
696 756
696 810
696 811
697 757
697 812
697 813
698 699
698 758
698 814
698 815
699 700
699 814
699 815
700 759
700 815
700 816
701 760
701 817
701 818
702 703
702 761
702 819
702 820
703 704
703 819
703 820
704 762
704 820
704 821
705 763
705 822
705 823
706 707
706 764
706 824
706 825
707 708
707 824
707 825
708 765
708 825
708 826
709 766
709 827
709 828
710 711
710 767
710 829
710 830
711 712
711 829
711 830
712 768
712 830
712 831
713 769
713 832
713 833
714 715
714 770
714 834
714 835
715 716
715 834
715 835
716 771
716 835
716 836
717 772
717 837
717 838
718 719
718 773
718 839
718 840
719 720
719 839
719 840
720 774
720 840
720 841
721 775
721 842
721 843
722 723
722 776
722 844
722 845
723 724
723 844
723 845
724 777
724 845
724 846
725 778
725 847
725 848
726 727
726 779
726 849
726 850
727 728
727 849
727 850
728 780
728 850
728 851
729 781
729 852
729 853
730 731
730 782
730 854
730 855
731 732
731 854
731 855
732 783
732 855
732 856
733 784
733 857
733 858
734 735
734 785
734 859
734 860
735 736
735 859
735 860
736 786
736 860
736 861
737 787
737 862
737 863
738 739
738 788
738 864
738 865
739 740
739 864
739 865
740 789
740 865
740 866
741 790
741 867
741 868
742 743
742 791
742 869
742 870
743 744
743 869
743 870
744 792
744 870
744 871
745 793
745 872
745 873
746 794
747 748
747 796
747 874
747 875
748 797
748 874
748 875
749 799
750 751
750 801
750 876
750 877
751 802
751 876
751 877
752 804
753 754
753 806
753 878
753 879
754 807
754 878
754 879
755 809
756 757
756 811
756 880
756 881
757 812
757 880
757 881
758 814
759 760
759 816
759 882
759 883
760 817
760 882
760 883
761 819
762 763
762 821
762 884
762 885
763 822
763 884
763 885
764 824
765 766
765 826
765 886
765 887
766 827
766 886
766 887
767 829
768 769
768 831
768 888
768 889
769 832
769 888
769 889
770 834
771 772
771 836
771 890
771 891
772 837
772 890
772 891
773 839
774 775
774 841
774 892
774 893
775 842
775 892
775 893
776 844
777 778
777 846
777 894
777 895
778 847
778 894
778 895
779 849
780 781
780 851
780 896
780 897
781 852
781 896
781 897
782 854
783 784
783 856
783 898
783 899
784 857
784 898
784 899
785 859
786 787
786 861
786 900
786 901
787 862
787 900
787 901
788 864
789 790
789 866
789 902
789 903
790 867
790 902
790 903
791 869
792 793
792 871
792 904
792 905
793 872
793 904
793 905
794 795
794 906
795 906
796 874
796 907
797 875
797 908
798 909
799 800
799 910
800 910
801 876
801 911
802 877
802 912
803 913
804 805
804 914
805 914
806 878
806 915
807 879
807 916
808 917
809 810
809 918
810 918
811 880
811 919
812 881
812 920
813 921
814 815
814 922
815 922
816 882
816 923
817 883
817 924
818 925
819 820
819 926
820 926
821 884
821 927
822 885
822 928
823 929
824 825
824 930
825 930
826 886
826 931
827 887
827 932
828 933
829 830
829 934
830 934
831 888
831 935
832 889
832 936
833 937
834 835
834 938
835 938
836 890
836 939
837 891
837 940
838 941
839 840
839 942
840 942
841 892
841 943
842 893
842 944
843 945
844 845
844 946
845 946
846 894
846 947
847 895
847 948
848 949
849 850
849 950
850 950
851 896
851 951
852 897
852 952
853 953
854 855
854 954
855 954
856 898
856 955
857 899
857 956
858 957
859 860
859 958
860 958
861 900
861 959
862 901
862 960
863 961
864 865
864 962
865 962
866 902
866 963
867 903
867 964
868 965
869 870
869 966
870 966
871 904
871 967
872 905
872 968
873 969
874 875
874 907
875 908
876 877
876 911
877 912
878 879
878 915
879 916
880 881
880 919
881 920
882 883
882 923
883 924
884 885
884 927
885 928
886 887
886 931
887 932
888 889
888 935
889 936
890 891
890 939
891 940
892 893
892 943
893 944
894 895
894 947
895 948
896 897
896 951
897 952
898 899
898 955
899 956
900 901
900 959
901 960
902 903
902 963
903 964
904 905
904 967
905 968
906 970
906 971
907 971
908 972
908 973
909 974
909 975
910 976
910 977
911 977
912 978
912 979
913 980
913 981
914 982
914 983
915 983
916 984
916 985
917 986
917 987
918 988
918 989
919 989
920 990
920 991
921 992
921 993
922 994
922 995
923 995
924 996
924 997
925 998
925 999
926 1000
926 1001
927 1001
928 1002
928 1003
929 1004
929 1005
930 1006
930 1007
931 1007
932 1008
932 1009
933 1010
933 1011
934 1012
934 1013
935 1013
936 1014
936 1015
937 1016
937 1017
938 1018
938 1019
939 1019
940 1020
940 1021
941 1022
941 1023
942 1024
942 1025
943 1025
944 1026
944 1027
945 1028
945 1029
946 1030
946 1031
947 1031
948 1032
948 1033
949 1034
949 1035
950 1036
950 1037
951 1037
952 1038
952 1039
953 1040
953 1041
954 1042
954 1043
955 1043
956 1044
956 1045
957 1046
957 1047
958 1048
958 1049
959 1049
960 1050
960 1051
961 1052
961 1053
962 1054
962 1055
963 1055
964 1056
964 1057
965 1058
965 1059
966 1060
966 1061
967 1061
968 1062
968 1063
969 1064
969 1065
970 971
970 1066
970 1131
970 1132
971 1067
971 1131
971 1132
972 973
972 1068
972 1133
972 1134
973 1069
973 1133
973 1134
974 975
974 1069
974 1135
974 1136
975 1070
975 1135
975 1136
976 977
976 1070
976 1137
976 1138
977 1071
977 1137
977 1138
978 979
978 1072
978 1139
978 1140
979 1073
979 1139
979 1140
980 981
980 1073
980 1141
980 1142
981 1074
981 1141
981 1142
982 983
982 1074
982 1143
982 1144
983 1075
983 1143
983 1144
984 985
984 1076
984 1145
984 1146
985 1077
985 1145
985 1146
986 987
986 1077
986 1147
986 1148
987 1078
987 1147
987 1148
988 989
988 1078
988 1149
988 1150
989 1079
989 1149
989 1150
990 991
990 1080
990 1151
990 1152
991 1081
991 1151
991 1152
992 993
992 1081
992 1153
992 1154
993 1082
993 1153
993 1154
994 995
994 1082
994 1155
994 1156
995 1083
995 1155
995 1156
996 997
996 1084
996 1157
996 1158
997 1085
997 1157
997 1158
998 999
998 1085
998 1159
998 1160
999 1086
999 1159
999 1160
1000 1001
1000 1086
1000 1161
1000 1162
1001 1087
1001 1161
1001 1162
1002 1003
1002 1088
1002 1163
1002 1164
1003 1089
1003 1163
1003 1164
1004 1005
1004 1089
1004 1165
1004 1166
1005 1090
1005 1165
1005 1166
1006 1007
1006 1090
1006 1167
1006 1168
1007 1091
1007 1167
1007 1168
1008 1009
1008 1092
1008 1169
1008 1170
1009 1093
1009 1169
1009 1170
1010 1011
1010 1093
1010 1171
1010 1172
1011 1094
1011 1171
1011 1172
1012 1013
1012 1094
1012 1173
1012 1174
1013 1095
1013 1173
1013 1174
1014 1015
1014 1096
1014 1175
1014 1176
1015 1097
1015 1175
1015 1176
1016 1017
1016 1097
1016 1177
1016 1178
1017 1098
1017 1177
1017 1178
1018 1019
1018 1098
1018 1179
1018 1180
1019 1099
1019 1179
1019 1180
1020 1021
1020 1100
1020 1181
1020 1182
1021 1101
1021 1181
1021 1182
1022 1023
1022 1101
1022 1183
1022 1184
1023 1102
1023 1183
1023 1184
1024 1025
1024 1102
1024 1185
1024 1186
1025 1103
1025 1185
1025 1186
1026 1027
1026 1104
1026 1187
1026 1188
1027 1105
1027 1187
1027 1188
1028 1029
1028 1105
1028 1189
1028 1190
1029 1106
1029 1189
1029 1190
1030 1031
1030 1106
1030 1191
1030 1192
1031 1107
1031 1191
1031 1192
1032 1033
1032 1108
1032 1193
1032 1194
1033 1109
1033 1193
1033 1194
1034 1035
1034 1109
1034 1195
1034 1196
1035 1110
1035 1195
1035 1196
1036 1037
1036 1110
1036 1197
1036 1198
1037 1111
1037 1197
1037 1198
1038 1039
1038 1112
1038 1199
1038 1200
1039 1113
1039 1199
1039 1200
1040 1041
1040 1113
1040 1201
1040 1202
1041 1114
1041 1201
1041 1202
1042 1043
1042 1114
1042 1203
1042 1204
1043 1115
1043 1203
1043 1204
1044 1045
1044 1116
1044 1205
1044 1206
1045 1117
1045 1205
1045 1206
1046 1047
1046 1117
1046 1207
1046 1208
1047 1118
1047 1207
1047 1208
1048 1049
1048 1118
1048 1209
1048 1210
1049 1119
1049 1209
1049 1210
1050 1051
1050 1120
1050 1211
1050 1212
1051 1121
1051 1211
1051 1212
1052 1053
1052 1121
1052 1213
1052 1214
1053 1122
1053 1213
1053 1214
1054 1055
1054 1122
1054 1215
1054 1216
1055 1123
1055 1215
1055 1216
1056 1057
1056 1124
1056 1217
1056 1218
1057 1125
1057 1217
1057 1218
1058 1059
1058 1125
1058 1219
1058 1220
1059 1126
1059 1219
1059 1220
1060 1061
1060 1126
1060 1221
1060 1222
1061 1127
1061 1221
1061 1222
1062 1063
1062 1128
1062 1223
1062 1224
1063 1129
1063 1223
1063 1224
1064 1065
1064 1129
1064 1225
1064 1226
1065 1130
1065 1225
1065 1226
1066 1131
1067 1068
1067 1132
1068 1133
1069 1134
1069 1135
1070 1136
1070 1137
1071 1072
1071 1138
1072 1139
1073 1140
1073 1141
1074 1142
1074 1143
1075 1076
1075 1144
1076 1145
1077 1146
1077 1147
1078 1148
1078 1149
1079 1080
1079 1150
1080 1151
1081 1152
1081 1153
1082 1154
1082 1155
1083 1084
1083 1156
1084 1157
1085 1158
1085 1159
1086 1160
1086 1161
1087 1088
1087 1162
1088 1163
1089 1164
1089 1165
1090 1166
1090 1167
1091 1092
1091 1168
1092 1169
1093 1170
1093 1171
1094 1172
1094 1173
1095 1096
1095 1174
1096 1175
1097 1176
1097 1177
1098 1178
1098 1179
1099 1100
1099 1180
1100 1181
1101 1182
1101 1183
1102 1184
1102 1185
1103 1104
1103 1186
1104 1187
1105 1188
1105 1189
1106 1190
1106 1191
1107 1108
1107 1192
1108 1193
1109 1194
1109 1195
1110 1196
1110 1197
1111 1112
1111 1198
1112 1199
1113 1200
1113 1201
1114 1202
1114 1203
1115 1116
1115 1204
1116 1205
1117 1206
1117 1207
1118 1208
1118 1209
1119 1120
1119 1210
1120 1211
1121 1212
1121 1213
1122 1214
1122 1215
1123 1124
1123 1216
1124 1217
1125 1218
1125 1219
1126 1220
1126 1221
1127 1128
1127 1222
1128 1223
1129 1224
1129 1225
1130 1226
1131 1132
1131 1227
1132 1227
1133 1134
1133 1228
1134 1228
1135 1136
1135 1229
1136 1229
1137 1138
1137 1230
1138 1230
1139 1140
1139 1231
1140 1231
1141 1142
1141 1232
1142 1232
1143 1144
1143 1233
1144 1233
1145 1146
1145 1234
1146 1234
1147 1148
1147 1235
1148 1235
1149 1150
1149 1236
1150 1236
1151 1152
1151 1237
1152 1237
1153 1154
1153 1238
1154 1238
1155 1156
1155 1239
1156 1239
1157 1158
1157 1240
1158 1240
1159 1160
1159 1241
1160 1241
1161 1162
1161 1242
1162 1242
1163 1164
1163 1243
1164 1243
1165 1166
1165 1244
1166 1244
1167 1168
1167 1245
1168 1245
1169 1170
1169 1246
1170 1246
1171 1172
1171 1247
1172 1247
1173 1174
1173 1248
1174 1248
1175 1176
1175 1249
1176 1249
1177 1178
1177 1250
1178 1250
1179 1180
1179 1251
1180 1251
1181 1182
1181 1252
1182 1252
1183 1184
1183 1253
1184 1253
1185 1186
1185 1254
1186 1254
1187 1188
1187 1255
1188 1255
1189 1190
1189 1256
1190 1256
1191 1192
1191 1257
1192 1257
1193 1194
1193 1258
1194 1258
1195 1196
1195 1259
1196 1259
1197 1198
1197 1260
1198 1260
1199 1200
1199 1261
1200 1261
1201 1202
1201 1262
1202 1262
1203 1204
1203 1263
1204 1263
1205 1206
1205 1264
1206 1264
1207 1208
1207 1265
1208 1265
1209 1210
1209 1266
1210 1266
1211 1212
1211 1267
1212 1267
1213 1214
1213 1268
1214 1268
1215 1216
1215 1269
1216 1269
1217 1218
1217 1270
1218 1270
1219 1220
1219 1271
1220 1271
1221 1222
1221 1272
1222 1272
1223 1224
1223 1273
1224 1273
1225 1226
1227 1274
1227 1275
1228 1339
1228 1340
1229 1341
1230 1278
1230 1279
1231 1342
1231 1343
1232 1344
1233 1282
1233 1283
1234 1345
1234 1346
1235 1347
1236 1286
1236 1287
1237 1348
1237 1349
1238 1350
1239 1290
1239 1291
1240 1351
1240 1352
1241 1353
1242 1294
1242 1295
1243 1354
1243 1355
1244 1356
1245 1298
1245 1299
1246 1357
1246 1358
1247 1359
1248 1302
1248 1303
1249 1360
1249 1361
1250 1362
1251 1306
1251 1307
1252 1363
1252 1364
1253 1365
1254 1310
1254 1311
1255 1366
1255 1367
1256 1368
1257 1314
1257 1315
1258 1369
1258 1370
1259 1371
1260 1318
1260 1319
1261 1372
1261 1373
1262 1374
1263 1322
1263 1323
1264 1375
1264 1376
1265 1377
1266 1326
1266 1327
1267 1378
1267 1379
1268 1380
1269 1330
1269 1331
1270 1381
1270 1382
1271 1383
1272 1334
1272 1335
1273 1384
1273 1385
1274 1275
1274 1338
1274 1386
1274 1387
1275 1276
1275 1386
1275 1387
1276 1339
1276 1387
1276 1388
1277 1340
1277 1389
1277 1390
1278 1279
1278 1341
1278 1391
1278 1392
1279 1280
1279 1391
1279 1392
1280 1342
1280 1392
1280 1393
1281 1343
1281 1394
1281 1395
1282 1283
1282 1344
1282 1396
1282 1397
1283 1284
1283 1396
1283 1397
1284 1345
1284 1397
1284 1398
1285 1346
1285 1399
1285 1400
1286 1287
1286 1347
1286 1401
1286 1402
1287 1288
1287 1401
1287 1402
1288 1348
1288 1402
1288 1403
1289 1349
1289 1404
1289 1405
1290 1291
1290 1350
1290 1406
1290 1407
1291 1292
1291 1406
1291 1407
1292 1351
1292 1407
1292 1408
1293 1352
1293 1409
1293 1410
1294 1295
1294 1353
1294 1411
1294 1412
1295 1296
1295 1411
1295 1412
1296 1354
1296 1412
1296 1413
1297 1355
1297 1414
1297 1415
1298 1299
1298 1356
1298 1416
1298 1417
1299 1300
1299 1416
1299 1417
1300 1357
1300 1417
1300 1418
1301 1358
1301 1419
1301 1420
1302 1303
1302 1359
1302 1421
1302 1422
1303 1304
1303 1421
1303 1422
1304 1360
1304 1422
1304 1423
1305 1361
1305 1424
1305 1425
1306 1307
1306 1362
1306 1426
1306 1427
1307 1308
1307 1426
1307 1427
1308 1363
1308 1427
1308 1428
1309 1364
1309 1429
1309 1430
1310 1311
1310 1365
1310 1431
1310 1432
1311 1312
1311 1431
1311 1432
1312 1366
1312 1432
1312 1433
1313 1367
1313 1434
1313 1435
1314 1315
1314 1368
1314 1436
1314 1437
1315 1316
1315 1436
1315 1437
1316 1369
1316 1437
1316 1438
1317 1370
1317 1439
1317 1440
1318 1319
1318 1371
1318 1441
1318 1442
1319 1320
1319 1441
1319 1442
1320 1372
1320 1442
1320 1443
1321 1373
1321 1444
1321 1445
1322 1323
1322 1374
1322 1446
1322 1447
1323 1324
1323 1446
1323 1447
1324 1375
1324 1447
1324 1448
1325 1376
1325 1449
1325 1450
1326 1327
1326 1377
1326 1451
1326 1452
1327 1328
1327 1451
1327 1452
1328 1378
1328 1452
1328 1453
1329 1379
1329 1454
1329 1455
1330 1331
1330 1380
1330 1456
1330 1457
1331 1332
1331 1456
1331 1457
1332 1381
1332 1457
1332 1458
1333 1382
1333 1459
1333 1460
1334 1335
1334 1383
1334 1461
1334 1462
1335 1336
1335 1461
1335 1462
1336 1384
1336 1462
1336 1463
1337 1385
1337 1464
1337 1465
1338 1386
1339 1340
1339 1388
1339 1466
1339 1467
1340 1389
1340 1466
1340 1467
1341 1391
1342 1343
1342 1393
1342 1468
1342 1469
1343 1394
1343 1468
1343 1469
1344 1396
1345 1346
1345 1398
1345 1470
1345 1471
1346 1399
1346 1470
1346 1471
1347 1401
1348 1349
1348 1403
1348 1472
1348 1473
1349 1404
1349 1472
1349 1473
1350 1406
1351 1352
1351 1408
1351 1474
1351 1475
1352 1409
1352 1474
1352 1475
1353 1411
1354 1355
1354 1413
1354 1476
1354 1477
1355 1414
1355 1476
1355 1477
1356 1416
1357 1358
1357 1418
1357 1478
1357 1479
1358 1419
1358 1478
1358 1479
1359 1421
1360 1361
1360 1423
1360 1480
1360 1481
1361 1424
1361 1480
1361 1481
1362 1426
1363 1364
1363 1428
1363 1482
1363 1483
1364 1429
1364 1482
1364 1483
1365 1431
1366 1367
1366 1433
1366 1484
1366 1485
1367 1434
1367 1484
1367 1485
1368 1436
1369 1370
1369 1438
1369 1486
1369 1487
1370 1439
1370 1486
1370 1487
1371 1441
1372 1373
1372 1443
1372 1488
1372 1489
1373 1444
1373 1488
1373 1489
1374 1446
1375 1376
1375 1448
1375 1490
1375 1491
1376 1449
1376 1490
1376 1491
1377 1451
1378 1379
1378 1453
1378 1492
1378 1493
1379 1454
1379 1492
1379 1493
1380 1456
1381 1382
1381 1458
1381 1494
1381 1495
1382 1459
1382 1494
1382 1495
1383 1461
1384 1385
1384 1463
1384 1496
1384 1497
1385 1464
1385 1496
1385 1497
1386 1387
1386 1498
1387 1498
1388 1466
1388 1499
1389 1467
1389 1500
1390 1501
1391 1392
1391 1502
1392 1502
1393 1468
1393 1503
1394 1469
1394 1504
1395 1505
1396 1397
1396 1506
1397 1506
1398 1470
1398 1507
1399 1471
1399 1508
1400 1509
1401 1402
1401 1510
1402 1510
1403 1472
1403 1511
1404 1473
1404 1512
1405 1513
1406 1407
1406 1514
1407 1514
1408 1474
1408 1515
1409 1475
1409 1516
1410 1517
1411 1412
1411 1518
1412 1518
1413 1476
1413 1519
1414 1477
1414 1520
1415 1521
1416 1417
1416 1522
1417 1522
1418 1478
1418 1523
1419 1479
1419 1524
1420 1525
1421 1422
1421 1526
1422 1526
1423 1480
1423 1527
1424 1481
1424 1528
1425 1529
1426 1427
1426 1530
1427 1530
1428 1482
1428 1531
1429 1483
1429 1532
1430 1533
1431 1432
1431 1534
1432 1534
1433 1484
1433 1535
1434 1485
1434 1536
1435 1537
1436 1437
1436 1538
1437 1538
1438 1486
1438 1539
1439 1487
1439 1540
1440 1541
1441 1442
1441 1542
1442 1542
1443 1488
1443 1543
1444 1489
1444 1544
1445 1545
1446 1447
1446 1546
1447 1546
1448 1490
1448 1547
1449 1491
1449 1548
1450 1549
1451 1452
1451 1550
1452 1550
1453 1492
1453 1551
1454 1493
1454 1552
1455 1553
1456 1457
1456 1554
1457 1554
1458 1494
1458 1555
1459 1495
1459 1556
1460 1557
1461 1462
1461 1558
1462 1558
1463 1496
1463 1559
1464 1497
1464 1560
1465 1561
1466 1467
1466 1499
1467 1500
1468 1469
1468 1503
1469 1504
1470 1471
1470 1507
1471 1508
1472 1473
1472 1511
1473 1512
1474 1475
1474 1515
1475 1516
1476 1477
1476 1519
1477 1520
1478 1479
1478 1523
1479 1524
1480 1481
1480 1527
1481 1528
1482 1483
1482 1531
1483 1532
1484 1485
1484 1535
1485 1536
1486 1487
1486 1539
1487 1540
1488 1489
1488 1543
1489 1544
1490 1491
1490 1547
1491 1548
1492 1493
1492 1551
1493 1552
1494 1495
1494 1555
1495 1556
1496 1497
1496 1559
1497 1560
1498 1562
1498 1563
1499 1563
1500 1564
1500 1565
1501 1566
1501 1567
1502 1568
1502 1569
1503 1569
1504 1570
1504 1571
1505 1572
1505 1573
1506 1574
1506 1575
1507 1575
1508 1576
1508 1577
1509 1578
1509 1579
1510 1580
1510 1581
1511 1581
1512 1582
1512 1583
1513 1584
1513 1585
1514 1586
1514 1587
1515 1587
1516 1588
1516 1589
1517 1590
1517 1591
1518 1592
1518 1593
1519 1593
1520 1594
1520 1595
1521 1596
1521 1597
1522 1598
1522 1599
1523 1599
1524 1600
1524 1601
1525 1602
1525 1603
1526 1604
1526 1605
1527 1605
1528 1606
1528 1607
1529 1608
1529 1609
1530 1610
1530 1611
1531 1611
1532 1612
1532 1613
1533 1614
1533 1615
1534 1616
1534 1617
1535 1617
1536 1618
1536 1619
1537 1620
1537 1621
1538 1622
1538 1623
1539 1623
1540 1624
1540 1625
1541 1626
1541 1627
1542 1628
1542 1629
1543 1629
1544 1630
1544 1631
1545 1632
1545 1633
1546 1634
1546 1635
1547 1635
1548 1636
1548 1637
1549 1638
1549 1639
1550 1640
1550 1641
1551 1641
1552 1642
1552 1643
1553 1644
1553 1645
1554 1646
1554 1647
1555 1647
1556 1648
1556 1649
1557 1650
1557 1651
1558 1652
1558 1653
1559 1653
1560 1654
1560 1655
1561 1656
1561 1657
1562 1563
1562 1658
1562 1723
1562 1724
1563 1659
1563 1723
1563 1724
1564 1565
1564 1660
1564 1725
1564 1726
1565 1661
1565 1725
1565 1726
1566 1567
1566 1661
1566 1727
1566 1728
1567 1662
1567 1727
1567 1728
1568 1569
1568 1662
1568 1729
1568 1730
1569 1663
1569 1729
1569 1730
1570 1571
1570 1664
1570 1731
1570 1732
1571 1665
1571 1731
1571 1732
1572 1573
1572 1665
1572 1733
1572 1734
1573 1666
1573 1733
1573 1734
1574 1575
1574 1666
1574 1735
1574 1736
1575 1667
1575 1735
1575 1736
1576 1577
1576 1668
1576 1737
1576 1738
1577 1669
1577 1737
1577 1738
1578 1579
1578 1669
1578 1739
1578 1740
1579 1670
1579 1739
1579 1740
1580 1581
1580 1670
1580 1741
1580 1742
1581 1671
1581 1741
1581 1742
1582 1583
1582 1672
1582 1743
1582 1744
1583 1673
1583 1743
1583 1744
1584 1585
1584 1673
1584 1745
1584 1746
1585 1674
1585 1745
1585 1746
1586 1587
1586 1674
1586 1747
1586 1748
1587 1675
1587 1747
1587 1748
1588 1589
1588 1676
1588 1749
1588 1750
1589 1677
1589 1749
1589 1750
1590 1591
1590 1677
1590 1751
1590 1752
1591 1678
1591 1751
1591 1752
1592 1593
1592 1678
1592 1753
1592 1754
1593 1679
1593 1753
1593 1754
1594 1595
1594 1680
1594 1755
1594 1756
1595 1681
1595 1755
1595 1756
1596 1597
1596 1681
1596 1757
1596 1758
1597 1682
1597 1757
1597 1758
1598 1599
1598 1682
1598 1759
1598 1760
1599 1683
1599 1759
1599 1760
1600 1601
1600 1684
1600 1761
1600 1762
1601 1685
1601 1761
1601 1762
1602 1603
1602 1685
1602 1763
1602 1764
1603 1686
1603 1763
1603 1764
1604 1605
1604 1686
1604 1765
1604 1766
1605 1687
1605 1765
1605 1766
1606 1607
1606 1688
1606 1767
1606 1768
1607 1689
1607 1767
1607 1768
1608 1609
1608 1689
1608 1769
1608 1770
1609 1690
1609 1769
1609 1770
1610 1611
1610 1690
1610 1771
1610 1772
1611 1691
1611 1771
1611 1772
1612 1613
1612 1692
1612 1773
1612 1774
1613 1693
1613 1773
1613 1774
1614 1615
1614 1693
1614 1775
1614 1776
1615 1694
1615 1775
1615 1776
1616 1617
1616 1694
1616 1777
1616 1778
1617 1695
1617 1777
1617 1778
1618 1619
1618 1696
1618 1779
1618 1780
1619 1697
1619 1779
1619 1780
1620 1621
1620 1697
1620 1781
1620 1782
1621 1698
1621 1781
1621 1782
1622 1623
1622 1698
1622 1783
1622 1784
1623 1699
1623 1783
1623 1784
1624 1625
1624 1700
1624 1785
1624 1786
1625 1701
1625 1785
1625 1786
1626 1627
1626 1701
1626 1787
1626 1788
1627 1702
1627 1787
1627 1788
1628 1629
1628 1702
1628 1789
1628 1790
1629 1703
1629 1789
1629 1790
1630 1631
1630 1704
1630 1791
1630 1792
1631 1705
1631 1791
1631 1792
1632 1633
1632 1705
1632 1793
1632 1794
1633 1706
1633 1793
1633 1794
1634 1635
1634 1706
1634 1795
1634 1796
1635 1707
1635 1795
1635 1796
1636 1637
1636 1708
1636 1797
1636 1798
1637 1709
1637 1797
1637 1798
1638 1639
1638 1709
1638 1799
1638 1800
1639 1710
1639 1799
1639 1800
1640 1641
1640 1710
1640 1801
1640 1802
1641 1711
1641 1801
1641 1802
1642 1643
1642 1712
1642 1803
1642 1804
1643 1713
1643 1803
1643 1804
1644 1645
1644 1713
1644 1805
1644 1806
1645 1714
1645 1805
1645 1806
1646 1647
1646 1714
1646 1807
1646 1808
1647 1715
1647 1807
1647 1808
1648 1649
1648 1716
1648 1809
1648 1810
1649 1717
1649 1809
1649 1810
1650 1651
1650 1717
1650 1811
1650 1812
1651 1718
1651 1811
1651 1812
1652 1653
1652 1718
1652 1813
1652 1814
1653 1719
1653 1813
1653 1814
1654 1655
1654 1720
1654 1815
1654 1816
1655 1721
1655 1815
1655 1816
1656 1657
1656 1721
1656 1817
1656 1818
1657 1722
1657 1817
1657 1818
1658 1723
1659 1660
1659 1724
1660 1725
1661 1726
1661 1727
1662 1728
1662 1729
1663 1664
1663 1730
1664 1731
1665 1732
1665 1733
1666 1734
1666 1735
1667 1668
1667 1736
1668 1737
1669 1738
1669 1739
1670 1740
1670 1741
1671 1672
1671 1742
1672 1743
1673 1744
1673 1745
1674 1746
1674 1747
1675 1676
1675 1748
1676 1749
1677 1750
1677 1751
1678 1752
1678 1753
1679 1680
1679 1754
1680 1755
1681 1756
1681 1757
1682 1758
1682 1759
1683 1684
1683 1760
1684 1761
1685 1762
1685 1763
1686 1764
1686 1765
1687 1688
1687 1766
1688 1767
1689 1768
1689 1769
1690 1770
1690 1771
1691 1692
1691 1772
1692 1773
1693 1774
1693 1775
1694 1776
1694 1777
1695 1696
1695 1778
1696 1779
1697 1780
1697 1781
1698 1782
1698 1783
1699 1700
1699 1784
1700 1785
1701 1786
1701 1787
1702 1788
1702 1789
1703 1704
1703 1790
1704 1791
1705 1792
1705 1793
1706 1794
1706 1795
1707 1708
1707 1796
1708 1797
1709 1798
1709 1799
1710 1800
1710 1801
1711 1712
1711 1802
1712 1803
1713 1804
1713 1805
1714 1806
1714 1807
1715 1716
1715 1808
1716 1809
1717 1810
1717 1811
1718 1812
1718 1813
1719 1720
1719 1814
1720 1815
1721 1816
1721 1817
1722 1818
1723 1724
1723 1819
1724 1819
1725 1726
1725 1820
1726 1820
1727 1728
1727 1821
1728 1821
1729 1730
1729 1822
1730 1822
1731 1732
1731 1823
1732 1823
1733 1734
1733 1824
1734 1824
1735 1736
1735 1825
1736 1825
1737 1738
1737 1826
1738 1826
1739 1740
1739 1827
1740 1827
1741 1742
1741 1828
1742 1828
1743 1744
1743 1829
1744 1829
1745 1746
1745 1830
1746 1830
1747 1748
1747 1831
1748 1831
1749 1750
1749 1832
1750 1832
1751 1752
1751 1833
1752 1833
1753 1754
1753 1834
1754 1834
1755 1756
1755 1835
1756 1835
1757 1758
1757 1836
1758 1836
1759 1760
1759 1837
1760 1837
1761 1762
1761 1838
1762 1838
1763 1764
1763 1839
1764 1839
1765 1766
1765 1840
1766 1840
1767 1768
1767 1841
1768 1841
1769 1770
1769 1842
1770 1842
1771 1772
1771 1843
1772 1843
1773 1774
1773 1844
1774 1844
1775 1776
1775 1845
1776 1845
1777 1778
1777 1846
1778 1846
1779 1780
1779 1847
1780 1847
1781 1782
1781 1848
1782 1848
1783 1784
1783 1849
1784 1849
1785 1786
1785 1850
1786 1850
1787 1788
1787 1851
1788 1851
1789 1790
1789 1852
1790 1852
1791 1792
1791 1853
1792 1853
1793 1794
1793 1854
1794 1854
1795 1796
1795 1855
1796 1855
1797 1798
1797 1856
1798 1856
1799 1800
1799 1857
1800 1857
1801 1802
1801 1858
1802 1858
1803 1804
1803 1859
1804 1859
1805 1806
1805 1860
1806 1860
1807 1808
1807 1861
1808 1861
1809 1810
1809 1862
1810 1862
1811 1812
1811 1863
1812 1863
1813 1814
1813 1864
1814 1864
1815 1816
1815 1865
1816 1865
1817 1818
1819 1866
1819 1867
1820 1931
1820 1932
1821 1933
1822 1870
1822 1871
1823 1934
1823 1935
1824 1936
1825 1874
1825 1875
1826 1937
1826 1938
1827 1939
1828 1878
1828 1879
1829 1940
1829 1941
1830 1942
1831 1882
1831 1883
1832 1943
1832 1944
1833 1945
1834 1886
1834 1887
1835 1946
1835 1947
1836 1948
1837 1890
1837 1891
1838 1949
1838 1950
1839 1951
1840 1894
1840 1895
1841 1952
1841 1953
1842 1954
1843 1898
1843 1899
1844 1955
1844 1956
1845 1957
1846 1902
1846 1903
1847 1958
1847 1959
1848 1960
1849 1906
1849 1907
1850 1961
1850 1962
1851 1963
1852 1910
1852 1911
1853 1964
1853 1965
1854 1966
1855 1914
1855 1915
1856 1967
1856 1968
1857 1969
1858 1918
1858 1919
1859 1970
1859 1971
1860 1972
1861 1922
1861 1923
1862 1973
1862 1974
1863 1975
1864 1926
1864 1927
1865 1976
1865 1977
1866 1867
1866 1930
1866 1978
1866 1979
1867 1868
1867 1978
1867 1979
1868 1931
1868 1979
1868 1980
1869 1932
1869 1981
1869 1982
1870 1871
1870 1933
1870 1983
1870 1984
1871 1872
1871 1983
1871 1984
1872 1934
1872 1984
1872 1985
1873 1935
1873 1986
1873 1987
1874 1875
1874 1936
1874 1988
1874 1989
1875 1876
1875 1988
1875 1989
1876 1937
1876 1989
1876 1990
1877 1938
1877 1991
1877 1992
1878 1879
1878 1939
1878 1993
1878 1994
1879 1880
1879 1993
1879 1994
1880 1940
1880 1994
1880 1995
1881 1941
1881 1996
1881 1997
1882 1883
1882 1942
1882 1998
1882 1999
1883 1884
1883 1998
1883 1999
1884 1943
1884 1999
1884 2000
1885 1944
1885 2001
1885 2002
1886 1887
1886 1945
1886 2003
1886 2004
1887 1888
1887 2003
1887 2004
1888 1946
1888 2004
1888 2005
1889 1947
1889 2006
1889 2007
1890 1891
1890 1948
1890 2008
1890 2009
1891 1892
1891 2008
1891 2009
1892 1949
1892 2009
1892 2010
1893 1950
1893 2011
1893 2012
1894 1895
1894 1951
1894 2013
1894 2014
1895 1896
1895 2013
1895 2014
1896 1952
1896 2014
1896 2015
1897 1953
1897 2016
1897 2017
1898 1899
1898 1954
1898 2018
1898 2019
1899 1900
1899 2018
1899 2019
1900 1955
1900 2019
1900 2020
1901 1956
1901 2021
1901 2022
1902 1903
1902 1957
1902 2023
1902 2024
1903 1904
1903 2023
1903 2024
1904 1958
1904 2024
1904 2025
1905 1959
1905 2026
1905 2027
1906 1907
1906 1960
1906 2028
1906 2029
1907 1908
1907 2028
1907 2029
1908 1961
1908 2029
1908 2030
1909 1962
1909 2031
1909 2032
1910 1911
1910 1963
1910 2033
1910 2034
1911 1912
1911 2033
1911 2034
1912 1964
1912 2034
1912 2035
1913 1965
1913 2036
1913 2037
1914 1915
1914 1966
1914 2038
1914 2039
1915 1916
1915 2038
1915 2039
1916 1967
1916 2039
1916 2040
1917 1968
1917 2041
1917 2042
1918 1919
1918 1969
1918 2043
1918 2044
1919 1920
1919 2043
1919 2044
1920 1970
1920 2044
1920 2045
1921 1971
1921 2046
1921 2047
1922 1923
1922 1972
1922 2048
1922 2049
1923 1924
1923 2048
1923 2049
1924 1973
1924 2049
1924 2050
1925 1974
1925 2051
1925 2052
1926 1927
1926 1975
1926 2053
1926 2054
1927 1928
1927 2053
1927 2054
1928 1976
1928 2054
1928 2055
1929 1977
1929 2056
1929 2057
1930 1978
1931 1932
1931 1980
1931 2058
1931 2059
1932 1981
1932 2058
1932 2059
1933 1983
1934 1935
1934 1985
1934 2060
1934 2061
1935 1986
1935 2060
1935 2061
1936 1988
1937 1938
1937 1990
1937 2062
1937 2063
1938 1991
1938 2062
1938 2063
1939 1993
1940 1941
1940 1995
1940 2064
1940 2065
1941 1996
1941 2064
1941 2065
1942 1998
1943 1944
1943 2000
1943 2066
1943 2067
1944 2001
1944 2066
1944 2067
1945 2003
1946 1947
1946 2005
1946 2068
1946 2069
1947 2006
1947 2068
1947 2069
1948 2008
1949 1950
1949 2010
1949 2070
1949 2071
1950 2011
1950 2070
1950 2071
1951 2013
1952 1953
1952 2015
1952 2072
1952 2073
1953 2016
1953 2072
1953 2073
1954 2018
1955 1956
1955 2020
1955 2074
1955 2075
1956 2021
1956 2074
1956 2075
1957 2023
1958 1959
1958 2025
1958 2076
1958 2077
1959 2026
1959 2076
1959 2077
1960 2028
1961 1962
1961 2030
1961 2078
1961 2079
1962 2031
1962 2078
1962 2079
1963 2033
1964 1965
1964 2035
1964 2080
1964 2081
1965 2036
1965 2080
1965 2081
1966 2038
1967 1968
1967 2040
1967 2082
1967 2083
1968 2041
1968 2082
1968 2083
1969 2043
1970 1971
1970 2045
1970 2084
1970 2085
1971 2046
1971 2084
1971 2085
1972 2048
1973 1974
1973 2050
1973 2086
1973 2087
1974 2051
1974 2086
1974 2087
1975 2053
1976 1977
1976 2055
1976 2088
1976 2089
1977 2056
1977 2088
1977 2089
1978 1979
1978 2090
1979 2090
1980 2058
1980 2091
1981 2059
1981 2092
1982 2093
1983 1984
1983 2094
1984 2094
1985 2060
1985 2095
1986 2061
1986 2096
1987 2097
1988 1989
1988 2098
1989 2098
1990 2062
1990 2099
1991 2063
1991 2100
1992 2101
1993 1994
1993 2102
1994 2102
1995 2064
1995 2103
1996 2065
1996 2104
1997 2105
1998 1999
1998 2106
1999 2106
2000 2066
2000 2107
2001 2067
2001 2108
2002 2109
2003 2004
2003 2110
2004 2110
2005 2068
2005 2111
2006 2069
2006 2112
2007 2113
2008 2009
2008 2114
2009 2114
2010 2070
2010 2115
2011 2071
2011 2116
2012 2117
2013 2014
2013 2118
2014 2118
2015 2072
2015 2119
2016 2073
2016 2120
2017 2121
2018 2019
2018 2122
2019 2122
2020 2074
2020 2123
2021 2075
2021 2124
2022 2125
2023 2024
2023 2126
2024 2126
2025 2076
2025 2127
2026 2077
2026 2128
2027 2129
2028 2029
2028 2130
2029 2130
2030 2078
2030 2131
2031 2079
2031 2132
2032 2133
2033 2034
2033 2134
2034 2134
2035 2080
2035 2135
2036 2081
2036 2136
2037 2137
2038 2039
2038 2138
2039 2138
2040 2082
2040 2139
2041 2083
2041 2140
2042 2141
2043 2044
2043 2142
2044 2142
2045 2084
2045 2143
2046 2085
2046 2144
2047 2145
2048 2049
2048 2146
2049 2146
2050 2086
2050 2147
2051 2087
2051 2148
2052 2149
2053 2054
2053 2150
2054 2150
2055 2088
2055 2151
2056 2089
2056 2152
2057 2153
2058 2059
2058 2091
2059 2092
2060 2061
2060 2095
2061 2096
2062 2063
2062 2099
2063 2100
2064 2065
2064 2103
2065 2104
2066 2067
2066 2107
2067 2108
2068 2069
2068 2111
2069 2112
2070 2071
2070 2115
2071 2116
2072 2073
2072 2119
2073 2120
2074 2075
2074 2123
2075 2124
2076 2077
2076 2127
2077 2128
2078 2079
2078 2131
2079 2132
2080 2081
2080 2135
2081 2136
2082 2083
2082 2139
2083 2140
2084 2085
2084 2143
2085 2144
2086 2087
2086 2147
2087 2148
2088 2089
2088 2151
2089 2152
2090 2154
2090 2155
2091 2155
2092 2156
2092 2157
2093 2158
2093 2159
2094 2160
2094 2161
2095 2161
2096 2162
2096 2163
2097 2164
2097 2165
2098 2166
2098 2167
2099 2167
2100 2168
2100 2169
2101 2170
2101 2171
2102 2172
2102 2173
2103 2173
2104 2174
2104 2175
2105 2176
2105 2177
2106 2178
2106 2179
2107 2179
2108 2180
2108 2181
2109 2182
2109 2183
2110 2184
2110 2185
2111 2185
2112 2186
2112 2187
2113 2188
2113 2189
2114 2190
2114 2191
2115 2191
2116 2192
2116 2193
2117 2194
2117 2195
2118 2196
2118 2197
2119 2197
2120 2198
2120 2199
2121 2200
2121 2201
2122 2202
2122 2203
2123 2203
2124 2204
2124 2205
2125 2206
2125 2207
2126 2208
2126 2209
2127 2209
2128 2210
2128 2211
2129 2212
2129 2213
2130 2214
2130 2215
2131 2215
2132 2216
2132 2217
2133 2218
2133 2219
2134 2220
2134 2221
2135 2221
2136 2222
2136 2223
2137 2224
2137 2225
2138 2226
2138 2227
2139 2227
2140 2228
2140 2229
2141 2230
2141 2231
2142 2232
2142 2233
2143 2233
2144 2234
2144 2235
2145 2236
2145 2237
2146 2238
2146 2239
2147 2239
2148 2240
2148 2241
2149 2242
2149 2243
2150 2244
2150 2245
2151 2245
2152 2246
2152 2247
2153 2248
2153 2249
2154 2155
2154 2250
2154 2315
2154 2316
2155 2251
2155 2315
2155 2316
2156 2157
2156 2252
2156 2317
2156 2318
2157 2253
2157 2317
2157 2318
2158 2159
2158 2253
2158 2319
2158 2320
2159 2254
2159 2319
2159 2320
2160 2161
2160 2254
2160 2321
2160 2322
2161 2255
2161 2321
2161 2322
2162 2163
2162 2256
2162 2323
2162 2324
2163 2257
2163 2323
2163 2324
2164 2165
2164 2257
2164 2325
2164 2326
2165 2258
2165 2325
2165 2326
2166 2167
2166 2258
2166 2327
2166 2328
2167 2259
2167 2327
2167 2328
2168 2169
2168 2260
2168 2329
2168 2330
2169 2261
2169 2329
2169 2330
2170 2171
2170 2261
2170 2331
2170 2332
2171 2262
2171 2331
2171 2332
2172 2173
2172 2262
2172 2333
2172 2334
2173 2263
2173 2333
2173 2334
2174 2175
2174 2264
2174 2335
2174 2336
2175 2265
2175 2335
2175 2336
2176 2177
2176 2265
2176 2337
2176 2338
2177 2266
2177 2337
2177 2338
2178 2179
2178 2266
2178 2339
2178 2340
2179 2267
2179 2339
2179 2340
2180 2181
2180 2268
2180 2341
2180 2342
2181 2269
2181 2341
2181 2342
2182 2183
2182 2269
2182 2343
2182 2344
2183 2270
2183 2343
2183 2344
2184 2185
2184 2270
2184 2345
2184 2346
2185 2271
2185 2345
2185 2346
2186 2187
2186 2272
2186 2347
2186 2348
2187 2273
2187 2347
2187 2348
2188 2189
2188 2273
2188 2349
2188 2350
2189 2274
2189 2349
2189 2350
2190 2191
2190 2274
2190 2351
2190 2352
2191 2275
2191 2351
2191 2352
2192 2193
2192 2276
2192 2353
2192 2354
2193 2277
2193 2353
2193 2354
2194 2195
2194 2277
2194 2355
2194 2356
2195 2278
2195 2355
2195 2356
2196 2197
2196 2278
2196 2357
2196 2358
2197 2279
2197 2357
2197 2358
2198 2199
2198 2280
2198 2359
2198 2360
2199 2281
2199 2359
2199 2360
2200 2201
2200 2281
2200 2361
2200 2362
2201 2282
2201 2361
2201 2362
2202 2203
2202 2282
2202 2363
2202 2364
2203 2283
2203 2363
2203 2364
2204 2205
2204 2284
2204 2365
2204 2366
2205 2285
2205 2365
2205 2366
2206 2207
2206 2285
2206 2367
2206 2368
2207 2286
2207 2367
2207 2368
2208 2209
2208 2286
2208 2369
2208 2370
2209 2287
2209 2369
2209 2370
2210 2211
2210 2288
2210 2371
2210 2372
2211 2289
2211 2371
2211 2372
2212 2213
2212 2289
2212 2373
2212 2374
2213 2290
2213 2373
2213 2374
2214 2215
2214 2290
2214 2375
2214 2376
2215 2291
2215 2375
2215 2376
2216 2217
2216 2292
2216 2377
2216 2378
2217 2293
2217 2377
2217 2378
2218 2219
2218 2293
2218 2379
2218 2380
2219 2294
2219 2379
2219 2380
2220 2221
2220 2294
2220 2381
2220 2382
2221 2295
2221 2381
2221 2382
2222 2223
2222 2296
2222 2383
2222 2384
2223 2297
2223 2383
2223 2384
2224 2225
2224 2297
2224 2385
2224 2386
2225 2298
2225 2385
2225 2386
2226 2227
2226 2298
2226 2387
2226 2388
2227 2299
2227 2387
2227 2388
2228 2229
2228 2300
2228 2389
2228 2390
2229 2301
2229 2389
2229 2390
2230 2231
2230 2301
2230 2391
2230 2392
2231 2302
2231 2391
2231 2392
2232 2233
2232 2302
2232 2393
2232 2394
2233 2303
2233 2393
2233 2394
2234 2235
2234 2304
2234 2395
2234 2396
2235 2305
2235 2395
2235 2396
2236 2237
2236 2305
2236 2397
2236 2398
2237 2306
2237 2397
2237 2398
2238 2239
2238 2306
2238 2399
2238 2400
2239 2307
2239 2399
2239 2400
2240 2241
2240 2308
2240 2401
2240 2402
2241 2309
2241 2401
2241 2402
2242 2243
2242 2309
2242 2403
2242 2404
2243 2310
2243 2403
2243 2404
2244 2245
2244 2310
2244 2405
2244 2406
2245 2311
2245 2405
2245 2406
2246 2247
2246 2312
2246 2407
2246 2408
2247 2313
2247 2407
2247 2408
2248 2249
2248 2313
2249 2314
2250 2315
2251 2252
2251 2316
2252 2317
2253 2318
2253 2319
2254 2320
2254 2321
2255 2256
2255 2322
2256 2323
2257 2324
2257 2325
2258 2326
2258 2327
2259 2260
2259 2328
2260 2329
2261 2330
2261 2331
2262 2332
2262 2333
2263 2264
2263 2334
2264 2335
2265 2336
2265 2337
2266 2338
2266 2339
2267 2268
2267 2340
2268 2341
2269 2342
2269 2343
2270 2344
2270 2345
2271 2272
2271 2346
2272 2347
2273 2348
2273 2349
2274 2350
2274 2351
2275 2276
2275 2352
2276 2353
2277 2354
2277 2355
2278 2356
2278 2357
2279 2280
2279 2358
2280 2359
2281 2360
2281 2361
2282 2362
2282 2363
2283 2284
2283 2364
2284 2365
2285 2366
2285 2367
2286 2368
2286 2369
2287 2288
2287 2370
2288 2371
2289 2372
2289 2373
2290 2374
2290 2375
2291 2292
2291 2376
2292 2377
2293 2378
2293 2379
2294 2380
2294 2381
2295 2296
2295 2382
2296 2383
2297 2384
2297 2385
2298 2386
2298 2387
2299 2300
2299 2388
2300 2389
2301 2390
2301 2391
2302 2392
2302 2393
2303 2304
2303 2394
2304 2395
2305 2396
2305 2397
2306 2398
2306 2399
2307 2308
2307 2400
2308 2401
2309 2402
2309 2403
2310 2404
2310 2405
2311 2312
2311 2406
2312 2407
2313 2408
2315 2316
2315 2409
2316 2409
2317 2318
2317 2410
2318 2410
2319 2320
2319 2411
2320 2411
2321 2322
2321 2412
2322 2412
2323 2324
2323 2413
2324 2413
2325 2326
2325 2414
2326 2414
2327 2328
2327 2415
2328 2415
2329 2330
2329 2416
2330 2416
2331 2332
2331 2417
2332 2417
2333 2334
2333 2418
2334 2418
2335 2336
2335 2419
2336 2419
2337 2338
2337 2420
2338 2420
2339 2340
2339 2421
2340 2421
2341 2342
2341 2422
2342 2422
2343 2344
2343 2423
2344 2423
2345 2346
2345 2424
2346 2424
2347 2348
2347 2425
2348 2425
2349 2350
2349 2426
2350 2426
2351 2352
2351 2427
2352 2427
2353 2354
2353 2428
2354 2428
2355 2356
2355 2429
2356 2429
2357 2358
2357 2430
2358 2430
2359 2360
2359 2431
2360 2431
2361 2362
2361 2432
2362 2432
2363 2364
2363 2433
2364 2433
2365 2366
2365 2434
2366 2434
2367 2368
2367 2435
2368 2435
2369 2370
2369 2436
2370 2436
2371 2372
2371 2437
2372 2437
2373 2374
2373 2438
2374 2438
2375 2376
2375 2439
2376 2439
2377 2378
2377 2440
2378 2440
2379 2380
2379 2441
2380 2441
2381 2382
2381 2442
2382 2442
2383 2384
2383 2443
2384 2443
2385 2386
2385 2444
2386 2444
2387 2388
2387 2445
2388 2445
2389 2390
2389 2446
2390 2446
2391 2392
2391 2447
2392 2447
2393 2394
2393 2448
2394 2448
2395 2396
2395 2449
2396 2449
2397 2398
2397 2450
2398 2450
2399 2400
2399 2451
2400 2451
2401 2402
2401 2452
2402 2452
2403 2404
2403 2453
2404 2453
2405 2406
2405 2454
2406 2454
2407 2408
2407 2455
2408 2455
2409 2456
2409 2457
2410 2521
2410 2522
2411 2523
2412 2460
2412 2461
2413 2524
2413 2525
2414 2526
2415 2464
2415 2465
2416 2527
2416 2528
2417 2529
2418 2468
2418 2469
2419 2530
2419 2531
2420 2532
2421 2472
2421 2473
2422 2533
2422 2534
2423 2535
2424 2476
2424 2477
2425 2536
2425 2537
2426 2538
2427 2480
2427 2481
2428 2539
2428 2540
2429 2541
2430 2484
2430 2485
2431 2542
2431 2543
2432 2544
2433 2488
2433 2489
2434 2545
2434 2546
2435 2547
2436 2492
2436 2493
2437 2548
2437 2549
2438 2550
2439 2496
2439 2497
2440 2551
2440 2552
2441 2553
2442 2500
2442 2501
2443 2554
2443 2555
2444 2556
2445 2504
2445 2505
2446 2557
2446 2558
2447 2559
2448 2508
2448 2509
2449 2560
2449 2561
2450 2562
2451 2512
2451 2513
2452 2563
2452 2564
2453 2565
2454 2516
2454 2517
2455 2566
2455 2567
2456 2457
2456 2520
2456 2568
2456 2569
2457 2458
2457 2568
2457 2569
2458 2521
2458 2569
2458 2570
2459 2522
2459 2571
2459 2572
2460 2461
2460 2523
2460 2573
2460 2574
2461 2462
2461 2573
2461 2574
2462 2524
2462 2574
2462 2575
2463 2525
2463 2576
2463 2577
2464 2465
2464 2526
2464 2578
2464 2579
2465 2466
2465 2578
2465 2579
2466 2527
2466 2579
2466 2580
2467 2528
2467 2581
2467 2582
2468 2469
2468 2529
2468 2583
2468 2584
2469 2470
2469 2583
2469 2584
2470 2530
2470 2584
2470 2585
2471 2531
2471 2586
2471 2587
2472 2473
2472 2532
2472 2588
2472 2589
2473 2474
2473 2588
2473 2589
2474 2533
2474 2589
2474 2590
2475 2534
2475 2591
2475 2592
2476 2477
2476 2535
2476 2593
2476 2594
2477 2478
2477 2593
2477 2594
2478 2536
2478 2594
2478 2595
2479 2537
2479 2596
2479 2597
2480 2481
2480 2538
2480 2598
2480 2599
2481 2482
2481 2598
2481 2599
2482 2539
2482 2599
2482 2600
2483 2540
2483 2601
2483 2602
2484 2485
2484 2541
2484 2603
2484 2604
2485 2486
2485 2603
2485 2604
2486 2542
2486 2604
2486 2605
2487 2543
2487 2606
2487 2607
2488 2489
2488 2544
2488 2608
2488 2609
2489 2490
2489 2608
2489 2609
2490 2545
2490 2609
2490 2610
2491 2546
2491 2611
2491 2612
2492 2493
2492 2547
2492 2613
2492 2614
2493 2494
2493 2613
2493 2614
2494 2548
2494 2614
2494 2615
2495 2549
2495 2616
2495 2617
2496 2497
2496 2550
2496 2618
2496 2619
2497 2498
2497 2618
2497 2619
2498 2551
2498 2619
2498 2620
2499 2552
2499 2621
2499 2622
2500 2501
2500 2553
2500 2623
2500 2624
2501 2502
2501 2623
2501 2624
2502 2554
2502 2624
2502 2625
2503 2555
2503 2626
2503 2627
2504 2505
2504 2556
2504 2628
2504 2629
2505 2506
2505 2628
2505 2629
2506 2557
2506 2629
2506 2630
2507 2558
2507 2631
2507 2632
2508 2509
2508 2559
2508 2633
2508 2634
2509 2510
2509 2633
2509 2634
2510 2560
2510 2634
2510 2635
2511 2561
2511 2636
2511 2637
2512 2513
2512 2562
2512 2638
2512 2639
2513 2514
2513 2638
2513 2639
2514 2563
2514 2639
2514 2640
2515 2564
2515 2641
2515 2642
2516 2517
2516 2565
2516 2643
2516 2644
2517 2518
2517 2643
2517 2644
2518 2566
2518 2644
2518 2645
2519 2567
2519 2646
2519 2647
2520 2568
2521 2522
2521 2570
2521 2648
2521 2649
2522 2571
2522 2648
2522 2649
2523 2573
2524 2525
2524 2575
2524 2650
2524 2651
2525 2576
2525 2650
2525 2651
2526 2578
2527 2528
2527 2580
2527 2652
2527 2653
2528 2581
2528 2652
2528 2653
2529 2583
2530 2531
2530 2585
2530 2654
2530 2655
2531 2586
2531 2654
2531 2655
2532 2588
2533 2534
2533 2590
2533 2656
2533 2657
2534 2591
2534 2656
2534 2657
2535 2593
2536 2537
2536 2595
2536 2658
2536 2659
2537 2596
2537 2658
2537 2659
2538 2598
2539 2540
2539 2600
2539 2660
2539 2661
2540 2601
2540 2660
2540 2661
2541 2603
2542 2543
2542 2605
2542 2662
2542 2663
2543 2606
2543 2662
2543 2663
2544 2608
2545 2546
2545 2610
2545 2664
2545 2665
2546 2611
2546 2664
2546 2665
2547 2613
2548 2549
2548 2615
2548 2666
2548 2667
2549 2616
2549 2666
2549 2667
2550 2618
2551 2552
2551 2620
2551 2668
2551 2669
2552 2621
2552 2668
2552 2669
2553 2623
2554 2555
2554 2625
2554 2670
2554 2671
2555 2626
2555 2670
2555 2671
2556 2628
2557 2558
2557 2630
2557 2672
2557 2673
2558 2631
2558 2672
2558 2673
2559 2633
2560 2561
2560 2635
2560 2674
2560 2675
2561 2636
2561 2674
2561 2675
2562 2638
2563 2564
2563 2640
2563 2676
2563 2677
2564 2641
2564 2676
2564 2677
2565 2643
2566 2567
2566 2645
2566 2678
2566 2679
2567 2646
2567 2678
2567 2679
2568 2569
2568 2680
2569 2680
2570 2648
2570 2681
2571 2649
2571 2682
2572 2683
2573 2574
2573 2684
2574 2684
2575 2650
2575 2685
2576 2651
2576 2686
2577 2687
2578 2579
2578 2688
2579 2688
2580 2652
2580 2689
2581 2653
2581 2690
2582 2691
2583 2584
2583 2692
2584 2692
2585 2654
2585 2693
2586 2655
2586 2694
2587 2695
2588 2589
2588 2696
2589 2696
2590 2656
2590 2697
2591 2657
2591 2698
2592 2699
2593 2594
2593 2700
2594 2700
2595 2658
2595 2701
2596 2659
2596 2702
2597 2703
2598 2599
2598 2704
2599 2704
2600 2660
2600 2705
2601 2661
2601 2706
2602 2707
2603 2604
2603 2708
2604 2708
2605 2662
2605 2709
2606 2663
2606 2710
2607 2711
2608 2609
2608 2712
2609 2712
2610 2664
2610 2713
2611 2665
2611 2714
2612 2715
2613 2614
2613 2716
2614 2716
2615 2666
2615 2717
2616 2667
2616 2718
2617 2719
2618 2619
2618 2720
2619 2720
2620 2668
2620 2721
2621 2669
2621 2722
2622 2723
2623 2624
2623 2724
2624 2724
2625 2670
2625 2725
2626 2671
2626 2726
2627 2727
2628 2629
2628 2728
2629 2728
2630 2672
2630 2729
2631 2673
2631 2730
2632 2731
2633 2634
2633 2732
2634 2732
2635 2674
2635 2733
2636 2675
2636 2734
2637 2735
2638 2639
2638 2736
2639 2736
2640 2676
2640 2737
2641 2677
2641 2738
2642 2739
2643 2644
2643 2740
2644 2740
2645 2678
2645 2741
2646 2679
2646 2742
2647 2743
2648 2649
2648 2681
2649 2682
2650 2651
2650 2685
2651 2686
2652 2653
2652 2689
2653 2690
2654 2655
2654 2693
2655 2694
2656 2657
2656 2697
2657 2698
2658 2659
2658 2701
2659 2702
2660 2661
2660 2705
2661 2706
2662 2663
2662 2709
2663 2710
2664 2665
2664 2713
2665 2714
2666 2667
2666 2717
2667 2718
2668 2669
2668 2721
2669 2722
2670 2671
2670 2725
2671 2726
2672 2673
2672 2729
2673 2730
2674 2675
2674 2733
2675 2734
2676 2677
2676 2737
2677 2738
2678 2679
2678 2741
2679 2742
2680 2744
2680 2745
2681 2745
2682 2746
2682 2747
2683 2748
2683 2749
2684 2750
2684 2751
2685 2751
2686 2752
2686 2753
2687 2754
2687 2755
2688 2756
2688 2757
2689 2757
2690 2758
2690 2759
2691 2760
2691 2761
2692 2762
2692 2763
2693 2763
2694 2764
2694 2765
2695 2766
2695 2767
2696 2768
2696 2769
2697 2769
2698 2770
2698 2771
2699 2772
2699 2773
2700 2774
2700 2775
2701 2775
2702 2776
2702 2777
2703 2778
2703 2779
2704 2780
2704 2781
2705 2781
2706 2782
2706 2783
2707 2784
2707 2785
2708 2786
2708 2787
2709 2787
2710 2788
2710 2789
2711 2790
2711 2791
2712 2792
2712 2793
2713 2793
2714 2794
2714 2795
2715 2796
2715 2797
2716 2798
2716 2799
2717 2799
2718 2800
2718 2801
2719 2802
2719 2803
2720 2804
2720 2805
2721 2805
2722 2806
2722 2807
2723 2808
2723 2809
2724 2810
2724 2811
2725 2811
2726 2812
2726 2813
2727 2814
2727 2815
2728 2816
2728 2817
2729 2817
2730 2818
2730 2819
2731 2820
2731 2821
2732 2822
2732 2823
2733 2823
2734 2824
2734 2825
2735 2826
2735 2827
2736 2828
2736 2829
2737 2829
2738 2830
2738 2831
2739 2832
2739 2833
2740 2834
2740 2835
2741 2835
2742 2836
2742 2837
2743 2838
2743 2839
2744 2745
2744 2840
2744 2905
2744 2906
2745 2841
2745 2905
2745 2906
2746 2747
2746 2842
2746 2907
2746 2908
2747 2843
2747 2907
2747 2908
2748 2749
2748 2843
2748 2909
2748 2910
2749 2844
2749 2909
2749 2910
2750 2751
2750 2844
2750 2911
2750 2912
2751 2845
2751 2911
2751 2912
2752 2753
2752 2846
2752 2913
2752 2914
2753 2847
2753 2913
2753 2914
2754 2755
2754 2847
2754 2915
2754 2916
2755 2848
2755 2915
2755 2916
2756 2757
2756 2848
2756 2917
2756 2918
2757 2849
2757 2917
2757 2918
2758 2759
2758 2850
2758 2919
2758 2920
2759 2851
2759 2919
2759 2920
2760 2761
2760 2851
2760 2921
2760 2922
2761 2852
2761 2921
2761 2922
2762 2763
2762 2852
2762 2923
2762 2924
2763 2853
2763 2923
2763 2924
2764 2765
2764 2854
2764 2925
2764 2926
2765 2855
2765 2925
2765 2926
2766 2767
2766 2855
2766 2927
2766 2928
2767 2856
2767 2927
2767 2928
2768 2769
2768 2856
2768 2929
2768 2930
2769 2857
2769 2929
2769 2930
2770 2771
2770 2858
2770 2931
2770 2932
2771 2859
2771 2931
2771 2932
2772 2773
2772 2859
2772 2933
2772 2934
2773 2860
2773 2933
2773 2934
2774 2775
2774 2860
2774 2935
2774 2936
2775 2861
2775 2935
2775 2936
2776 2777
2776 2862
2776 2937
2776 2938
2777 2863
2777 2937
2777 2938
2778 2779
2778 2863
2778 2939
2778 2940
2779 2864
2779 2939
2779 2940
2780 2781
2780 2864
2780 2941
2780 2942
2781 2865
2781 2941
2781 2942
2782 2783
2782 2866
2782 2943
2782 2944
2783 2867
2783 2943
2783 2944
2784 2785
2784 2867
2784 2945
2784 2946
2785 2868
2785 2945
2785 2946
2786 2787
2786 2868
2786 2947
2786 2948
2787 2869
2787 2947
2787 2948
2788 2789
2788 2870
2788 2949
2788 2950
2789 2871
2789 2949
2789 2950
2790 2791
2790 2871
2790 2951
2790 2952
2791 2872
2791 2951
2791 2952
2792 2793
2792 2872
2792 2953
2792 2954
2793 2873
2793 2953
2793 2954
2794 2795
2794 2874
2794 2955
2794 2956
2795 2875
2795 2955
2795 2956
2796 2797
2796 2875
2796 2957
2796 2958
2797 2876
2797 2957
2797 2958
2798 2799
2798 2876
2798 2959
2798 2960
2799 2877
2799 2959
2799 2960
2800 2801
2800 2878
2800 2961
2800 2962
2801 2879
2801 2961
2801 2962
2802 2803
2802 2879
2802 2963
2802 2964
2803 2880
2803 2963
2803 2964
2804 2805
2804 2880
2804 2965
2804 2966
2805 2881
2805 2965
2805 2966
2806 2807
2806 2882
2806 2967
2806 2968
2807 2883
2807 2967
2807 2968
2808 2809
2808 2883
2808 2969
2808 2970
2809 2884
2809 2969
2809 2970
2810 2811
2810 2884
2810 2971
2810 2972
2811 2885
2811 2971
2811 2972
2812 2813
2812 2886
2812 2973
2812 2974
2813 2887
2813 2973
2813 2974
2814 2815
2814 2887
2814 2975
2814 2976
2815 2888
2815 2975
2815 2976
2816 2817
2816 2888
2816 2977
2816 2978
2817 2889
2817 2977
2817 2978
2818 2819
2818 2890
2818 2979
2818 2980
2819 2891
2819 2979
2819 2980
2820 2821
2820 2891
2820 2981
2820 2982
2821 2892
2821 2981
2821 2982
2822 2823
2822 2892
2822 2983
2822 2984
2823 2893
2823 2983
2823 2984
2824 2825
2824 2894
2824 2985
2824 2986
2825 2895
2825 2985
2825 2986
2826 2827
2826 2895
2826 2987
2826 2988
2827 2896
2827 2987
2827 2988
2828 2829
2828 2896
2828 2989
2828 2990
2829 2897
2829 2989
2829 2990
2830 2831
2830 2898
2830 2991
2830 2992
2831 2899
2831 2991
2831 2992
2832 2833
2832 2899
2832 2993
2832 2994
2833 2900
2833 2993
2833 2994
2834 2835
2834 2900
2834 2995
2834 2996
2835 2901
2835 2995
2835 2996
2836 2837
2836 2902
2836 2997
2836 2998
2837 2903
2837 2997
2837 2998
2838 2839
2838 2903
2838 2999
2838 3000
2839 2904
2839 2999
2839 3000
2840 2905
2841 2842
2841 2906
2842 2907
2843 2908
2843 2909
2844 2910
2844 2911
2845 2846
2845 2912
2846 2913
2847 2914
2847 2915
2848 2916
2848 2917
2849 2850
2849 2918
2850 2919
2851 2920
2851 2921
2852 2922
2852 2923
2853 2854
2853 2924
2854 2925
2855 2926
2855 2927
2856 2928
2856 2929
2857 2858
2857 2930
2858 2931
2859 2932
2859 2933
2860 2934
2860 2935
2861 2862
2861 2936
2862 2937
2863 2938
2863 2939
2864 2940
2864 2941
2865 2866
2865 2942
2866 2943
2867 2944
2867 2945
2868 2946
2868 2947
2869 2870
2869 2948
2870 2949
2871 2950
2871 2951
2872 2952
2872 2953
2873 2874
2873 2954
2874 2955
2875 2956
2875 2957
2876 2958
2876 2959
2877 2878
2877 2960
2878 2961
2879 2962
2879 2963
2880 2964
2880 2965
2881 2882
2881 2966
2882 2967
2883 2968
2883 2969
2884 2970
2884 2971
2885 2886
2885 2972
2886 2973
2887 2974
2887 2975
2888 2976
2888 2977
2889 2890
2889 2978
2890 2979
2891 2980
2891 2981
2892 2982
2892 2983
2893 2894
2893 2984
2894 2985
2895 2986
2895 2987
2896 2988
2896 2989
2897 2898
2897 2990
2898 2991
2899 2992
2899 2993
2900 2994
2900 2995
2901 2902
2901 2996
2902 2997
2903 2998
2903 2999
2904 3000
2905 2906
2905 3001
2906 3001
2907 2908
2907 3002
2908 3002
2909 2910
2909 3003
2910 3003
2911 2912
2911 3004
2912 3004
2913 2914
2913 3005
2914 3005
2915 2916
2915 3006
2916 3006
2917 2918
2917 3007
2918 3007
2919 2920
2919 3008
2920 3008
2921 2922
2921 3009
2922 3009
2923 2924
2923 3010
2924 3010
2925 2926
2925 3011
2926 3011
2927 2928
2927 3012
2928 3012
2929 2930
2929 3013
2930 3013
2931 2932
2931 3014
2932 3014
2933 2934
2933 3015
2934 3015
2935 2936
2935 3016
2936 3016
2937 2938
2937 3017
2938 3017
2939 2940
2939 3018
2940 3018
2941 2942
2941 3019
2942 3019
2943 2944
2943 3020
2944 3020
2945 2946
2945 3021
2946 3021
2947 2948
2947 3022
2948 3022
2949 2950
2949 3023
2950 3023
2951 2952
2951 3024
2952 3024
2953 2954
2953 3025
2954 3025
2955 2956
2955 3026
2956 3026
2957 2958
2957 3027
2958 3027
2959 2960
2959 3028
2960 3028
2961 2962
2961 3029
2962 3029
2963 2964
2963 3030
2964 3030
2965 2966
2965 3031
2966 3031
2967 2968
2967 3032
2968 3032
2969 2970
2969 3033
2970 3033
2971 2972
2971 3034
2972 3034
2973 2974
2973 3035
2974 3035
2975 2976
2975 3036
2976 3036
2977 2978
2977 3037
2978 3037
2979 2980
2979 3038
2980 3038
2981 2982
2981 3039
2982 3039
2983 2984
2983 3040
2984 3040
2985 2986
2985 3041
2986 3041
2987 2988
2987 3042
2988 3042
2989 2990
2989 3043
2990 3043
2991 2992
2991 3044
2992 3044
2993 2994
2993 3045
2994 3045
2995 2996
2995 3046
2996 3046
2997 2998
2997 3047
2998 3047
2999 3000
3001 3048
3001 3049
3002 3113
3002 3114
3003 3115
3004 3052
3004 3053
3005 3116
3005 3117
3006 3118
3007 3056
3007 3057
3008 3119
3008 3120
3009 3121
3010 3060
3010 3061
3011 3122
3011 3123
3012 3124
3013 3064
3013 3065
3014 3125
3014 3126
3015 3127
3016 3068
3016 3069
3017 3128
3017 3129
3018 3130
3019 3072
3019 3073
3020 3131
3020 3132
3021 3133
3022 3076
3022 3077
3023 3134
3023 3135
3024 3136
3025 3080
3025 3081
3026 3137
3026 3138
3027 3139
3028 3084
3028 3085
3029 3140
3029 3141
3030 3142
3031 3088
3031 3089
3032 3143
3032 3144
3033 3145
3034 3092
3034 3093
3035 3146
3035 3147
3036 3148
3037 3096
3037 3097
3038 3149
3038 3150
3039 3151
3040 3100
3040 3101
3041 3152
3041 3153
3042 3154
3043 3104
3043 3105
3044 3155
3044 3156
3045 3157
3046 3108
3046 3109
3047 3158
3047 3159
3048 3049
3048 3112
3048 3160
3048 3161
3049 3050
3049 3160
3049 3161
3050 3113
3050 3161
3050 3162
3051 3114
3051 3163
3051 3164
3052 3053
3052 3115
3052 3165
3052 3166
3053 3054
3053 3165
3053 3166
3054 3116
3054 3166
3054 3167
3055 3117
3055 3168
3055 3169
3056 3057
3056 3118
3056 3170
3056 3171
3057 3058
3057 3170
3057 3171
3058 3119
3058 3171
3058 3172
3059 3120
3059 3173
3059 3174
3060 3061
3060 3121
3060 3175
3060 3176
3061 3062
3061 3175
3061 3176
3062 3122
3062 3176
3062 3177
3063 3123
3063 3178
3063 3179
3064 3065
3064 3124
3064 3180
3064 3181
3065 3066
3065 3180
3065 3181
3066 3125
3066 3181
3066 3182
3067 3126
3067 3183
3067 3184
3068 3069
3068 3127
3068 3185
3068 3186
3069 3070
3069 3185
3069 3186
3070 3128
3070 3186
3070 3187
3071 3129
3071 3188
3071 3189
3072 3073
3072 3130
3072 3190
3072 3191
3073 3074
3073 3190
3073 3191
3074 3131
3074 3191
3074 3192
3075 3132
3075 3193
3075 3194
3076 3077
3076 3133
3076 3195
3076 3196
3077 3078
3077 3195
3077 3196
3078 3134
3078 3196
3078 3197
3079 3135
3079 3198
3079 3199
3080 3081
3080 3136
3080 3200
3080 3201
3081 3082
3081 3200
3081 3201
3082 3137
3082 3201
3082 3202
3083 3138
3083 3203
3083 3204
3084 3085
3084 3139
3084 3205
3084 3206
3085 3086
3085 3205
3085 3206
3086 3140
3086 3206
3086 3207
3087 3141
3087 3208
3087 3209
3088 3089
3088 3142
3088 3210
3088 3211
3089 3090
3089 3210
3089 3211
3090 3143
3090 3211
3090 3212
3091 3144
3091 3213
3091 3214
3092 3093
3092 3145
3092 3215
3092 3216
3093 3094
3093 3215
3093 3216
3094 3146
3094 3216
3094 3217
3095 3147
3095 3218
3095 3219
3096 3097
3096 3148
3096 3220
3096 3221
3097 3098
3097 3220
3097 3221
3098 3149
3098 3221
3098 3222
3099 3150
3099 3223
3099 3224
3100 3101
3100 3151
3100 3225
3100 3226
3101 3102
3101 3225
3101 3226
3102 3152
3102 3226
3102 3227
3103 3153
3103 3228
3103 3229
3104 3105
3104 3154
3104 3230
3104 3231
3105 3106
3105 3230
3105 3231
3106 3155
3106 3231
3106 3232
3107 3156
3107 3233
3107 3234
3108 3109
3108 3157
3108 3235
3108 3236
3109 3110
3109 3235
3109 3236
3110 3158
3110 3236
3110 3237
3111 3159
3111 3238
3111 3239
3112 3160
3113 3114
3113 3162
3113 3240
3113 3241
3114 3163
3114 3240
3114 3241
3115 3165
3116 3117
3116 3167
3116 3242
3116 3243
3117 3168
3117 3242
3117 3243
3118 3170
3119 3120
3119 3172
3119 3244
3119 3245
3120 3173
3120 3244
3120 3245
3121 3175
3122 3123
3122 3177
3122 3246
3122 3247
3123 3178
3123 3246
3123 3247
3124 3180
3125 3126
3125 3182
3125 3248
3125 3249
3126 3183
3126 3248
3126 3249
3127 3185
3128 3129
3128 3187
3128 3250
3128 3251
3129 3188
3129 3250
3129 3251
3130 3190
3131 3132
3131 3192
3131 3252
3131 3253
3132 3193
3132 3252
3132 3253
3133 3195
3134 3135
3134 3197
3134 3254
3134 3255
3135 3198
3135 3254
3135 3255
3136 3200
3137 3138
3137 3202
3137 3256
3137 3257
3138 3203
3138 3256
3138 3257
3139 3205
3140 3141
3140 3207
3140 3258
3140 3259
3141 3208
3141 3258
3141 3259
3142 3210
3143 3144
3143 3212
3143 3260
3143 3261
3144 3213
3144 3260
3144 3261
3145 3215
3146 3147
3146 3217
3146 3262
3146 3263
3147 3218
3147 3262
3147 3263
3148 3220
3149 3150
3149 3222
3149 3264
3149 3265
3150 3223
3150 3264
3150 3265
3151 3225
3152 3153
3152 3227
3152 3266
3152 3267
3153 3228
3153 3266
3153 3267
3154 3230
3155 3156
3155 3232
3155 3268
3155 3269
3156 3233
3156 3268
3156 3269
3157 3235
3158 3159
3158 3237
3158 3270
3158 3271
3159 3238
3159 3270
3159 3271
3160 3161
3160 3272
3161 3272
3162 3240
3162 3273
3163 3241
3163 3274
3164 3275
3165 3166
3165 3276
3166 3276
3167 3242
3167 3277
3168 3243
3168 3278
3169 3279
3170 3171
3170 3280
3171 3280
3172 3244
3172 3281
3173 3245
3173 3282
3174 3283
3175 3176
3175 3284
3176 3284
3177 3246
3177 3285
3178 3247
3178 3286
3179 3287
3180 3181
3180 3288
3181 3288
3182 3248
3182 3289
3183 3249
3183 3290
3184 3291
3185 3186
3185 3292
3186 3292
3187 3250
3187 3293
3188 3251
3188 3294
3189 3295
3190 3191
3190 3296
3191 3296
3192 3252
3192 3297
3193 3253
3193 3298
3194 3299
3195 3196
3195 3300
3196 3300
3197 3254
3197 3301
3198 3255
3198 3302
3199 3303
3200 3201
3200 3304
3201 3304
3202 3256
3202 3305
3203 3257
3203 3306
3204 3307
3205 3206
3205 3308
3206 3308
3207 3258
3207 3309
3208 3259
3208 3310
3209 3311
3210 3211
3210 3312
3211 3312
3212 3260
3212 3313
3213 3261
3213 3314
3214 3315
3215 3216
3215 3316
3216 3316
3217 3262
3217 3317
3218 3263
3218 3318
3219 3319
3220 3221
3220 3320
3221 3320
3222 3264
3222 3321
3223 3265
3223 3322
3224 3323
3225 3226
3225 3324
3226 3324
3227 3266
3227 3325
3228 3267
3228 3326
3229 3327
3230 3231
3230 3328
3231 3328
3232 3268
3232 3329
3233 3269
3233 3330
3234 3331
3235 3236
3235 3332
3236 3332
3237 3270
3237 3333
3238 3271
3238 3334
3239 3335
3240 3241
3240 3273
3241 3274
3242 3243
3242 3277
3243 3278
3244 3245
3244 3281
3245 3282
3246 3247
3246 3285
3247 3286
3248 3249
3248 3289
3249 3290
3250 3251
3250 3293
3251 3294
3252 3253
3252 3297
3253 3298
3254 3255
3254 3301
3255 3302
3256 3257
3256 3305
3257 3306
3258 3259
3258 3309
3259 3310
3260 3261
3260 3313
3261 3314
3262 3263
3262 3317
3263 3318
3264 3265
3264 3321
3265 3322
3266 3267
3266 3325
3267 3326
3268 3269
3268 3329
3269 3330
3270 3271
3270 3333
3271 3334
3272 3336
3272 3337
3273 3337
3274 3338
3274 3339
3275 3340
3275 3341
3276 3342
3276 3343
3277 3343
3278 3344
3278 3345
3279 3346
3279 3347
3280 3348
3280 3349
3281 3349
3282 3350
3282 3351
3283 3352
3283 3353
3284 3354
3284 3355
3285 3355
3286 3356
3286 3357
3287 3358
3287 3359
3288 3360
3288 3361
3289 3361
3290 3362
3290 3363
3291 3364
3291 3365
3292 3366
3292 3367
3293 3367
3294 3368
3294 3369
3295 3370
3295 3371
3296 3372
3296 3373
3297 3373
3298 3374
3298 3375
3299 3376
3299 3377
3300 3378
3300 3379
3301 3379
3302 3380
3302 3381
3303 3382
3303 3383
3304 3384
3304 3385
3305 3385
3306 3386
3306 3387
3307 3388
3307 3389
3308 3390
3308 3391
3309 3391
3310 3392
3310 3393
3311 3394
3311 3395
3312 3396
3312 3397
3313 3397
3314 3398
3314 3399
3315 3400
3315 3401
3316 3402
3316 3403
3317 3403
3318 3404
3318 3405
3319 3406
3319 3407
3320 3408
3320 3409
3321 3409
3322 3410
3322 3411
3323 3412
3323 3413
3324 3414
3324 3415
3325 3415
3326 3416
3326 3417
3327 3418
3327 3419
3328 3420
3328 3421
3329 3421
3330 3422
3330 3423
3331 3424
3331 3425
3332 3426
3332 3427
3333 3427
3334 3428
3334 3429
3335 3430
3335 3431
3336 3337
3336 3432
3336 3497
3336 3498
3337 3433
3337 3497
3337 3498
3338 3339
3338 3434
3338 3499
3338 3500
3339 3435
3339 3499
3339 3500
3340 3341
3340 3435
3340 3501
3340 3502
3341 3436
3341 3501
3341 3502
3342 3343
3342 3436
3342 3503
3342 3504
3343 3437
3343 3503
3343 3504
3344 3345
3344 3438
3344 3505
3344 3506
3345 3439
3345 3505
3345 3506
3346 3347
3346 3439
3346 3507
3346 3508
3347 3440
3347 3507
3347 3508
3348 3349
3348 3440
3348 3509
3348 3510
3349 3441
3349 3509
3349 3510
3350 3351
3350 3442
3350 3511
3350 3512
3351 3443
3351 3511
3351 3512
3352 3353
3352 3443
3352 3513
3352 3514
3353 3444
3353 3513
3353 3514
3354 3355
3354 3444
3354 3515
3354 3516
3355 3445
3355 3515
3355 3516
3356 3357
3356 3446
3356 3517
3356 3518
3357 3447
3357 3517
3357 3518
3358 3359
3358 3447
3358 3519
3358 3520
3359 3448
3359 3519
3359 3520
3360 3361
3360 3448
3360 3521
3360 3522
3361 3449
3361 3521
3361 3522
3362 3363
3362 3450
3362 3523
3362 3524
3363 3451
3363 3523
3363 3524
3364 3365
3364 3451
3364 3525
3364 3526
3365 3452
3365 3525
3365 3526
3366 3367
3366 3452
3366 3527
3366 3528
3367 3453
3367 3527
3367 3528
3368 3369
3368 3454
3368 3529
3368 3530
3369 3455
3369 3529
3369 3530
3370 3371
3370 3455
3370 3531
3370 3532
3371 3456
3371 3531
3371 3532
3372 3373
3372 3456
3372 3533
3372 3534
3373 3457
3373 3533
3373 3534
3374 3375
3374 3458
3374 3535
3374 3536
3375 3459
3375 3535
3375 3536
3376 3377
3376 3459
3376 3537
3376 3538
3377 3460
3377 3537
3377 3538
3378 3379
3378 3460
3378 3539
3378 3540
3379 3461
3379 3539
3379 3540
3380 3381
3380 3462
3380 3541
3380 3542
3381 3463
3381 3541
3381 3542
3382 3383
3382 3463
3382 3543
3382 3544
3383 3464
3383 3543
3383 3544
3384 3385
3384 3464
3384 3545
3384 3546
3385 3465
3385 3545
3385 3546
3386 3387
3386 3466
3386 3547
3386 3548
3387 3467
3387 3547
3387 3548
3388 3389
3388 3467
3388 3549
3388 3550
3389 3468
3389 3549
3389 3550
3390 3391
3390 3468
3390 3551
3390 3552
3391 3469
3391 3551
3391 3552
3392 3393
3392 3470
3392 3553
3392 3554
3393 3471
3393 3553
3393 3554
3394 3395
3394 3471
3394 3555
3394 3556
3395 3472
3395 3555
3395 3556
3396 3397
3396 3472
3396 3557
3396 3558
3397 3473
3397 3557
3397 3558
3398 3399
3398 3474
3398 3559
3398 3560
3399 3475
3399 3559
3399 3560
3400 3401
3400 3475
3400 3561
3400 3562
3401 3476
3401 3561
3401 3562
3402 3403
3402 3476
3402 3563
3402 3564
3403 3477
3403 3563
3403 3564
3404 3405
3404 3478
3404 3565
3404 3566
3405 3479
3405 3565
3405 3566
3406 3407
3406 3479
3406 3567
3406 3568
3407 3480
3407 3567
3407 3568
3408 3409
3408 3480
3408 3569
3408 3570
3409 3481
3409 3569
3409 3570
3410 3411
3410 3482
3410 3571
3410 3572
3411 3483
3411 3571
3411 3572
3412 3413
3412 3483
3412 3573
3412 3574
3413 3484
3413 3573
3413 3574
3414 3415
3414 3484
3414 3575
3414 3576
3415 3485
3415 3575
3415 3576
3416 3417
3416 3486
3416 3577
3416 3578
3417 3487
3417 3577
3417 3578
3418 3419
3418 3487
3418 3579
3418 3580
3419 3488
3419 3579
3419 3580
3420 3421
3420 3488
3420 3581
3420 3582
3421 3489
3421 3581
3421 3582
3422 3423
3422 3490
3422 3583
3422 3584
3423 3491
3423 3583
3423 3584
3424 3425
3424 3491
3424 3585
3424 3586
3425 3492
3425 3585
3425 3586
3426 3427
3426 3492
3426 3587
3426 3588
3427 3493
3427 3587
3427 3588
3428 3429
3428 3494
3428 3589
3428 3590
3429 3495
3429 3589
3429 3590
3430 3431
3430 3495
3430 3591
3430 3592
3431 3496
3431 3591
3431 3592
3432 3497
3433 3434
3433 3498
3434 3499
3435 3500
3435 3501
3436 3502
3436 3503
3437 3438
3437 3504
3438 3505
3439 3506
3439 3507
3440 3508
3440 3509
3441 3442
3441 3510
3442 3511
3443 3512
3443 3513
3444 3514
3444 3515
3445 3446
3445 3516
3446 3517
3447 3518
3447 3519
3448 3520
3448 3521
3449 3450
3449 3522
3450 3523
3451 3524
3451 3525
3452 3526
3452 3527
3453 3454
3453 3528
3454 3529
3455 3530
3455 3531
3456 3532
3456 3533
3457 3458
3457 3534
3458 3535
3459 3536
3459 3537
3460 3538
3460 3539
3461 3462
3461 3540
3462 3541
3463 3542
3463 3543
3464 3544
3464 3545
3465 3466
3465 3546
3466 3547
3467 3548
3467 3549
3468 3550
3468 3551
3469 3470
3469 3552
3470 3553
3471 3554
3471 3555
3472 3556
3472 3557
3473 3474
3473 3558
3474 3559
3475 3560
3475 3561
3476 3562
3476 3563
3477 3478
3477 3564
3478 3565
3479 3566
3479 3567
3480 3568
3480 3569
3481 3482
3481 3570
3482 3571
3483 3572
3483 3573
3484 3574
3484 3575
3485 3486
3485 3576
3486 3577
3487 3578
3487 3579
3488 3580
3488 3581
3489 3490
3489 3582
3490 3583
3491 3584
3491 3585
3492 3586
3492 3587
3493 3494
3493 3588
3494 3589
3495 3590
3495 3591
3496 3592
3497 3498
3497 3593
3498 3593
3499 3500
3499 3594
3500 3594
3501 3502
3501 3595
3502 3595
3503 3504
3503 3596
3504 3596
3505 3506
3505 3597
3506 3597
3507 3508
3507 3598
3508 3598
3509 3510
3509 3599
3510 3599
3511 3512
3511 3600
3512 3600
3513 3514
3513 3601
3514 3601
3515 3516
3515 3602
3516 3602
3517 3518
3517 3603
3518 3603
3519 3520
3519 3604
3520 3604
3521 3522
3521 3605
3522 3605
3523 3524
3523 3606
3524 3606
3525 3526
3525 3607
3526 3607
3527 3528
3527 3608
3528 3608
3529 3530
3529 3609
3530 3609
3531 3532
3531 3610
3532 3610
3533 3534
3533 3611
3534 3611
3535 3536
3535 3612
3536 3612
3537 3538
3537 3613
3538 3613
3539 3540
3539 3614
3540 3614
3541 3542
3541 3615
3542 3615
3543 3544
3543 3616
3544 3616
3545 3546
3545 3617
3546 3617
3547 3548
3547 3618
3548 3618
3549 3550
3549 3619
3550 3619
3551 3552
3551 3620
3552 3620
3553 3554
3553 3621
3554 3621
3555 3556
3555 3622
3556 3622
3557 3558
3557 3623
3558 3623
3559 3560
3559 3624
3560 3624
3561 3562
3561 3625
3562 3625
3563 3564
3563 3626
3564 3626
3565 3566
3565 3627
3566 3627
3567 3568
3567 3628
3568 3628
3569 3570
3569 3629
3570 3629
3571 3572
3571 3630
3572 3630
3573 3574
3573 3631
3574 3631
3575 3576
3575 3632
3576 3632
3577 3578
3577 3633
3578 3633
3579 3580
3579 3634
3580 3634
3581 3582
3581 3635
3582 3635
3583 3584
3583 3636
3584 3636
3585 3586
3585 3637
3586 3637
3587 3588
3587 3638
3588 3638
3589 3590
3589 3639
3590 3639
3591 3592
3593 3640
3593 3641
3594 3705
3594 3706
3595 3707
3596 3644
3596 3645
3597 3708
3597 3709
3598 3710
3599 3648
3599 3649
3600 3711
3600 3712
3601 3713
3602 3652
3602 3653
3603 3714
3603 3715
3604 3716
3605 3656
3605 3657
3606 3717
3606 3718
3607 3719
3608 3660
3608 3661
3609 3720
3609 3721
3610 3722
3611 3664
3611 3665
3612 3723
3612 3724
3613 3725
3614 3668
3614 3669
3615 3726
3615 3727
3616 3728
3617 3672
3617 3673
3618 3729
3618 3730
3619 3731
3620 3676
3620 3677
3621 3732
3621 3733
3622 3734
3623 3680
3623 3681
3624 3735
3624 3736
3625 3737
3626 3684
3626 3685
3627 3738
3627 3739
3628 3740
3629 3688
3629 3689
3630 3741
3630 3742
3631 3743
3632 3692
3632 3693
3633 3744
3633 3745
3634 3746
3635 3696
3635 3697
3636 3747
3636 3748
3637 3749
3638 3700
3638 3701
3639 3750
3639 3751
3640 3641
3640 3704
3640 3752
3640 3753
3641 3642
3641 3752
3641 3753
3642 3705
3642 3753
3642 3754
3643 3706
3643 3755
3643 3756
3644 3645
3644 3707
3644 3757
3644 3758
3645 3646
3645 3757
3645 3758
3646 3708
3646 3758
3646 3759
3647 3709
3647 3760
3647 3761
3648 3649
3648 3710
3648 3762
3648 3763
3649 3650
3649 3762
3649 3763
3650 3711
3650 3763
3650 3764
3651 3712
3651 3765
3651 3766
3652 3653
3652 3713
3652 3767
3652 3768
3653 3654
3653 3767
3653 3768
3654 3714
3654 3768
3654 3769
3655 3715
3655 3770
3655 3771
3656 3657
3656 3716
3656 3772
3656 3773
3657 3658
3657 3772
3657 3773
3658 3717
3658 3773
3658 3774
3659 3718
3659 3775
3659 3776
3660 3661
3660 3719
3660 3777
3660 3778
3661 3662
3661 3777
3661 3778
3662 3720
3662 3778
3662 3779
3663 3721
3663 3780
3663 3781
3664 3665
3664 3722
3664 3782
3664 3783
3665 3666
3665 3782
3665 3783
3666 3723
3666 3783
3666 3784
3667 3724
3667 3785
3667 3786
3668 3669
3668 3725
3668 3787
3668 3788
3669 3670
3669 3787
3669 3788
3670 3726
3670 3788
3670 3789
3671 3727
3671 3790
3671 3791
3672 3673
3672 3728
3672 3792
3672 3793
3673 3674
3673 3792
3673 3793
3674 3729
3674 3793
3674 3794
3675 3730
3675 3795
3675 3796
3676 3677
3676 3731
3676 3797
3676 3798
3677 3678
3677 3797
3677 3798
3678 3732
3678 3798
3678 3799
3679 3733
3679 3800
3679 3801
3680 3681
3680 3734
3680 3802
3680 3803
3681 3682
3681 3802
3681 3803
3682 3735
3682 3803
3682 3804
3683 3736
3683 3805
3683 3806
3684 3685
3684 3737
3684 3807
3684 3808
3685 3686
3685 3807
3685 3808
3686 3738
3686 3808
3686 3809
3687 3739
3687 3810
3687 3811
3688 3689
3688 3740
3688 3812
3688 3813
3689 3690
3689 3812
3689 3813
3690 3741
3690 3813
3690 3814
3691 3742
3691 3815
3691 3816
3692 3693
3692 3743
3692 3817
3692 3818
3693 3694
3693 3817
3693 3818
3694 3744
3694 3818
3694 3819
3695 3745
3695 3820
3695 3821
3696 3697
3696 3746
3696 3822
3696 3823
3697 3698
3697 3822
3697 3823
3698 3747
3698 3823
3698 3824
3699 3748
3699 3825
3699 3826
3700 3701
3700 3749
3700 3827
3700 3828
3701 3702
3701 3827
3701 3828
3702 3750
3702 3828
3702 3829
3703 3751
3703 3830
3703 3831
3704 3752
3705 3706
3705 3754
3705 3832
3705 3833
3706 3755
3706 3832
3706 3833
3707 3757
3708 3709
3708 3759
3708 3834
3708 3835
3709 3760
3709 3834
3709 3835
3710 3762
3711 3712
3711 3764
3711 3836
3711 3837
3712 3765
3712 3836
3712 3837
3713 3767
3714 3715
3714 3769
3714 3838
3714 3839
3715 3770
3715 3838
3715 3839
3716 3772
3717 3718
3717 3774
3717 3840
3717 3841
3718 3775
3718 3840
3718 3841
3719 3777
3720 3721
3720 3779
3720 3842
3720 3843
3721 3780
3721 3842
3721 3843
3722 3782
3723 3724
3723 3784
3723 3844
3723 3845
3724 3785
3724 3844
3724 3845
3725 3787
3726 3727
3726 3789
3726 3846
3726 3847
3727 3790
3727 3846
3727 3847
3728 3792
3729 3730
3729 3794
3729 3848
3729 3849
3730 3795
3730 3848
3730 3849
3731 3797
3732 3733
3732 3799
3732 3850
3732 3851
3733 3800
3733 3850
3733 3851
3734 3802
3735 3736
3735 3804
3735 3852
3735 3853
3736 3805
3736 3852
3736 3853
3737 3807
3738 3739
3738 3809
3738 3854
3738 3855
3739 3810
3739 3854
3739 3855
3740 3812
3741 3742
3741 3814
3741 3856
3741 3857
3742 3815
3742 3856
3742 3857
3743 3817
3744 3745
3744 3819
3744 3858
3744 3859
3745 3820
3745 3858
3745 3859
3746 3822
3747 3748
3747 3824
3747 3860
3747 3861
3748 3825
3748 3860
3748 3861
3749 3827
3750 3751
3750 3829
3750 3862
3750 3863
3751 3830
3751 3862
3751 3863
3752 3753
3752 3864
3753 3864
3754 3832
3754 3865
3755 3833
3755 3866
3756 3867
3757 3758
3757 3868
3758 3868
3759 3834
3759 3869
3760 3835
3760 3870
3761 3871
3762 3763
3762 3872
3763 3872
3764 3836
3764 3873
3765 3837
3765 3874
3766 3875
3767 3768
3767 3876
3768 3876
3769 3838
3769 3877
3770 3839
3770 3878
3771 3879
3772 3773
3772 3880
3773 3880
3774 3840
3774 3881
3775 3841
3775 3882
3776 3883
3777 3778
3777 3884
3778 3884
3779 3842
3779 3885
3780 3843
3780 3886
3781 3887
3782 3783
3782 3888
3783 3888
3784 3844
3784 3889
3785 3845
3785 3890
3786 3891
3787 3788
3787 3892
3788 3892
3789 3846
3789 3893
3790 3847
3790 3894
3791 3895
3792 3793
3792 3896
3793 3896
3794 3848
3794 3897
3795 3849
3795 3898
3796 3899
3797 3798
3797 3900
3798 3900
3799 3850
3799 3901
3800 3851
3800 3902
3801 3903
3802 3803
3802 3904
3803 3904
3804 3852
3804 3905
3805 3853
3805 3906
3806 3907
3807 3808
3807 3908
3808 3908
3809 3854
3809 3909
3810 3855
3810 3910
3811 3911
3812 3813
3812 3912
3813 3912
3814 3856
3814 3913
3815 3857
3815 3914
3816 3915
3817 3818
3817 3916
3818 3916
3819 3858
3819 3917
3820 3859
3820 3918
3821 3919
3822 3823
3822 3920
3823 3920
3824 3860
3824 3921
3825 3861
3825 3922
3826 3923
3827 3828
3827 3924
3828 3924
3829 3862
3829 3925
3830 3863
3830 3926
3831 3927
3832 3833
3832 3865
3833 3866
3834 3835
3834 3869
3835 3870
3836 3837
3836 3873
3837 3874
3838 3839
3838 3877
3839 3878
3840 3841
3840 3881
3841 3882
3842 3843
3842 3885
3843 3886
3844 3845
3844 3889
3845 3890
3846 3847
3846 3893
3847 3894
3848 3849
3848 3897
3849 3898
3850 3851
3850 3901
3851 3902
3852 3853
3852 3905
3853 3906
3854 3855
3854 3909
3855 3910
3856 3857
3856 3913
3857 3914
3858 3859
3858 3917
3859 3918
3860 3861
3860 3921
3861 3922
3862 3863
3862 3925
3863 3926
3864 3928
3864 3929
3865 3929
3866 3930
3866 3931
3867 3932
3867 3933
3868 3934
3868 3935
3869 3935
3870 3936
3870 3937
3871 3938
3871 3939
3872 3940
3872 3941
3873 3941
3874 3942
3874 3943
3875 3944
3875 3945
3876 3946
3876 3947
3877 3947
3878 3948
3878 3949
3879 3950
3879 3951
3880 3952
3880 3953
3881 3953
3882 3954
3882 3955
3883 3956
3883 3957
3884 3958
3884 3959
3885 3959
3886 3960
3886 3961
3887 3962
3887 3963
3888 3964
3888 3965
3889 3965
3890 3966
3890 3967
3891 3968
3891 3969
3892 3970
3892 3971
3893 3971
3894 3972
3894 3973
3895 3974
3895 3975
3896 3976
3896 3977
3897 3977
3898 3978
3898 3979
3899 3980
3899 3981
3900 3982
3900 3983
3901 3983
3902 3984
3902 3985
3903 3986
3903 3987
3904 3988
3904 3989
3905 3989
3906 3990
3906 3991
3907 3992
3907 3993
3908 3994
3908 3995
3909 3995
3910 3996
3910 3997
3911 3998
3911 3999
3912 4000
3912 4001
3913 4001
3914 4002
3914 4003
3915 4004
3915 4005
3916 4006
3916 4007
3917 4007
3918 4008
3918 4009
3919 4010
3919 4011
3920 4012
3920 4013
3921 4013
3922 4014
3922 4015
3923 4016
3923 4017
3924 4018
3924 4019
3925 4019
3926 4020
3926 4021
3927 4022
3927 4023
3928 3929
3928 4024
3928 4089
3928 4090
3929 4025
3929 4089
3929 4090
3930 3931
3930 4026
3930 4091
3930 4092
3931 4027
3931 4091
3931 4092
3932 3933
3932 4027
3932 4093
3932 4094
3933 4028
3933 4093
3933 4094
3934 3935
3934 4028
3934 4095
3934 4096
3935 4029
3935 4095
3935 4096
3936 3937
3936 4030
3936 4097
3936 4098
3937 4031
3937 4097
3937 4098
3938 3939
3938 4031
3938 4099
3938 4100
3939 4032
3939 4099
3939 4100
3940 3941
3940 4032
3940 4101
3940 4102
3941 4033
3941 4101
3941 4102
3942 3943
3942 4034
3942 4103
3942 4104
3943 4035
3943 4103
3943 4104
3944 3945
3944 4035
3944 4105
3944 4106
3945 4036
3945 4105
3945 4106
3946 3947
3946 4036
3946 4107
3946 4108
3947 4037
3947 4107
3947 4108
3948 3949
3948 4038
3948 4109
3948 4110
3949 4039
3949 4109
3949 4110
3950 3951
3950 4039
3950 4111
3950 4112
3951 4040
3951 4111
3951 4112
3952 3953
3952 4040
3952 4113
3952 4114
3953 4041
3953 4113
3953 4114
3954 3955
3954 4042
3954 4115
3954 4116
3955 4043
3955 4115
3955 4116
3956 3957
3956 4043
3956 4117
3956 4118
3957 4044
3957 4117
3957 4118
3958 3959
3958 4044
3958 4119
3958 4120
3959 4045
3959 4119
3959 4120
3960 3961
3960 4046
3960 4121
3960 4122
3961 4047
3961 4121
3961 4122
3962 3963
3962 4047
3962 4123
3962 4124
3963 4048
3963 4123
3963 4124
3964 3965
3964 4048
3964 4125
3964 4126
3965 4049
3965 4125
3965 4126
3966 3967
3966 4050
3966 4127
3966 4128
3967 4051
3967 4127
3967 4128
3968 3969
3968 4051
3968 4129
3968 4130
3969 4052
3969 4129
3969 4130
3970 3971
3970 4052
3970 4131
3970 4132
3971 4053
3971 4131
3971 4132
3972 3973
3972 4054
3972 4133
3972 4134
3973 4055
3973 4133
3973 4134
3974 3975
3974 4055
3974 4135
3974 4136
3975 4056
3975 4135
3975 4136
3976 3977
3976 4056
3976 4137
3976 4138
3977 4057
3977 4137
3977 4138
3978 3979
3978 4058
3978 4139
3978 4140
3979 4059
3979 4139
3979 4140
3980 3981
3980 4059
3980 4141
3980 4142
3981 4060
3981 4141
3981 4142
3982 3983
3982 4060
3982 4143
3982 4144
3983 4061
3983 4143
3983 4144
3984 3985
3984 4062
3984 4145
3984 4146
3985 4063
3985 4145
3985 4146
3986 3987
3986 4063
3986 4147
3986 4148
3987 4064
3987 4147
3987 4148
3988 3989
3988 4064
3988 4149
3988 4150
3989 4065
3989 4149
3989 4150
3990 3991
3990 4066
3990 4151
3990 4152
3991 4067
3991 4151
3991 4152
3992 3993
3992 4067
3992 4153
3992 4154
3993 4068
3993 4153
3993 4154
3994 3995
3994 4068
3994 4155
3994 4156
3995 4069
3995 4155
3995 4156
3996 3997
3996 4070
3996 4157
3996 4158
3997 4071
3997 4157
3997 4158
3998 3999
3998 4071
3998 4159
3998 4160
3999 4072
3999 4159
3999 4160
4000 4001
4000 4072
4000 4161
4000 4162
4001 4073
4001 4161
4001 4162
4002 4003
4002 4074
4002 4163
4002 4164
4003 4075
4003 4163
4003 4164
4004 4005
4004 4075
4004 4165
4004 4166
4005 4076
4005 4165
4005 4166
4006 4007
4006 4076
4006 4167
4006 4168
4007 4077
4007 4167
4007 4168
4008 4009
4008 4078
4008 4169
4008 4170
4009 4079
4009 4169
4009 4170
4010 4011
4010 4079
4010 4171
4010 4172
4011 4080
4011 4171
4011 4172
4012 4013
4012 4080
4012 4173
4012 4174
4013 4081
4013 4173
4013 4174
4014 4015
4014 4082
4014 4175
4014 4176
4015 4083
4015 4175
4015 4176
4016 4017
4016 4083
4016 4177
4016 4178
4017 4084
4017 4177
4017 4178
4018 4019
4018 4084
4018 4179
4018 4180
4019 4085
4019 4179
4019 4180
4020 4021
4020 4086
4020 4181
4020 4182
4021 4087
4021 4181
4021 4182
4022 4023
4022 4087
4022 4183
4022 4184
4023 4088
4023 4183
4023 4184
4024 4089
4025 4026
4025 4090
4026 4091
4027 4092
4027 4093
4028 4094
4028 4095
4029 4030
4029 4096
4030 4097
4031 4098
4031 4099
4032 4100
4032 4101
4033 4034
4033 4102
4034 4103
4035 4104
4035 4105
4036 4106
4036 4107
4037 4038
4037 4108
4038 4109
4039 4110
4039 4111
4040 4112
4040 4113
4041 4042
4041 4114
4042 4115
4043 4116
4043 4117
4044 4118
4044 4119
4045 4046
4045 4120
4046 4121
4047 4122
4047 4123
4048 4124
4048 4125
4049 4050
4049 4126
4050 4127
4051 4128
4051 4129
4052 4130
4052 4131
4053 4054
4053 4132
4054 4133
4055 4134
4055 4135
4056 4136
4056 4137
4057 4058
4057 4138
4058 4139
4059 4140
4059 4141
4060 4142
4060 4143
4061 4062
4061 4144
4062 4145
4063 4146
4063 4147
4064 4148
4064 4149
4065 4066
4065 4150
4066 4151
4067 4152
4067 4153
4068 4154
4068 4155
4069 4070
4069 4156
4070 4157
4071 4158
4071 4159
4072 4160
4072 4161
4073 4074
4073 4162
4074 4163
4075 4164
4075 4165
4076 4166
4076 4167
4077 4078
4077 4168
4078 4169
4079 4170
4079 4171
4080 4172
4080 4173
4081 4082
4081 4174
4082 4175
4083 4176
4083 4177
4084 4178
4084 4179
4085 4086
4085 4180
4086 4181
4087 4182
4087 4183
4088 4184
4089 4090
4089 4185
4090 4185
4091 4092
4091 4186
4092 4186
4093 4094
4093 4187
4094 4187
4095 4096
4095 4188
4096 4188
4097 4098
4097 4189
4098 4189
4099 4100
4099 4190
4100 4190
4101 4102
4101 4191
4102 4191
4103 4104
4103 4192
4104 4192
4105 4106
4105 4193
4106 4193
4107 4108
4107 4194
4108 4194
4109 4110
4109 4195
4110 4195
4111 4112
4111 4196
4112 4196
4113 4114
4113 4197
4114 4197
4115 4116
4115 4198
4116 4198
4117 4118
4117 4199
4118 4199
4119 4120
4119 4200
4120 4200
4121 4122
4121 4201
4122 4201
4123 4124
4123 4202
4124 4202
4125 4126
4125 4203
4126 4203
4127 4128
4127 4204
4128 4204
4129 4130
4129 4205
4130 4205
4131 4132
4131 4206
4132 4206
4133 4134
4133 4207
4134 4207
4135 4136
4135 4208
4136 4208
4137 4138
4137 4209
4138 4209
4139 4140
4139 4210
4140 4210
4141 4142
4141 4211
4142 4211
4143 4144
4143 4212
4144 4212
4145 4146
4145 4213
4146 4213
4147 4148
4147 4214
4148 4214
4149 4150
4149 4215
4150 4215
4151 4152
4151 4216
4152 4216
4153 4154
4153 4217
4154 4217
4155 4156
4155 4218
4156 4218
4157 4158
4157 4219
4158 4219
4159 4160
4159 4220
4160 4220
4161 4162
4161 4221
4162 4221
4163 4164
4163 4222
4164 4222
4165 4166
4165 4223
4166 4223
4167 4168
4167 4224
4168 4224
4169 4170
4169 4225
4170 4225
4171 4172
4171 4226
4172 4226
4173 4174
4173 4227
4174 4227
4175 4176
4175 4228
4176 4228
4177 4178
4177 4229
4178 4229
4179 4180
4179 4230
4180 4230
4181 4182
4181 4231
4182 4231
4183 4184
4185 4232
4185 4233
4186 4297
4186 4298
4187 4299
4188 4236
4188 4237
4189 4300
4189 4301
4190 4302
4191 4240
4191 4241
4192 4303
4192 4304
4193 4305
4194 4244
4194 4245
4195 4306
4195 4307
4196 4308
4197 4248
4197 4249
4198 4309
4198 4310
4199 4311
4200 4252
4200 4253
4201 4312
4201 4313
4202 4314
4203 4256
4203 4257
4204 4315
4204 4316
4205 4317
4206 4260
4206 4261
4207 4318
4207 4319
4208 4320
4209 4264
4209 4265
4210 4321
4210 4322
4211 4323
4212 4268
4212 4269
4213 4324
4213 4325
4214 4326
4215 4272
4215 4273
4216 4327
4216 4328
4217 4329
4218 4276
4218 4277
4219 4330
4219 4331
4220 4332
4221 4280
4221 4281
4222 4333
4222 4334
4223 4335
4224 4284
4224 4285
4225 4336
4225 4337
4226 4338
4227 4288
4227 4289
4228 4339
4228 4340
4229 4341
4230 4292
4230 4293
4231 4342
4231 4343
4232 4233
4232 4296
4232 4344
4232 4345
4233 4234
4233 4344
4233 4345
4234 4297
4234 4345
4234 4346
4235 4298
4235 4347
4235 4348
4236 4237
4236 4299
4236 4349
4236 4350
4237 4238
4237 4349
4237 4350
4238 4300
4238 4350
4238 4351
4239 4301
4239 4352
4239 4353
4240 4241
4240 4302
4240 4354
4240 4355
4241 4242
4241 4354
4241 4355
4242 4303
4242 4355
4242 4356
4243 4304
4243 4357
4243 4358
4244 4245
4244 4305
4244 4359
4244 4360
4245 4246
4245 4359
4245 4360
4246 4306
4246 4360
4246 4361
4247 4307
4247 4362
4247 4363
4248 4249
4248 4308
4248 4364
4248 4365
4249 4250
4249 4364
4249 4365
4250 4309
4250 4365
4250 4366
4251 4310
4251 4367
4251 4368
4252 4253
4252 4311
4252 4369
4252 4370
4253 4254
4253 4369
4253 4370
4254 4312
4254 4370
4254 4371
4255 4313
4255 4372
4255 4373
4256 4257
4256 4314
4256 4374
4256 4375
4257 4258
4257 4374
4257 4375
4258 4315
4258 4375
4258 4376
4259 4316
4259 4377
4259 4378
4260 4261
4260 4317
4260 4379
4260 4380
4261 4262
4261 4379
4261 4380
4262 4318
4262 4380
4262 4381
4263 4319
4263 4382
4263 4383
4264 4265
4264 4320
4264 4384
4264 4385
4265 4266
4265 4384
4265 4385
4266 4321
4266 4385
4266 4386
4267 4322
4267 4387
4267 4388
4268 4269
4268 4323
4268 4389
4268 4390
4269 4270
4269 4389
4269 4390
4270 4324
4270 4390
4270 4391
4271 4325
4271 4392
4271 4393
4272 4273
4272 4326
4272 4394
4272 4395
4273 4274
4273 4394
4273 4395
4274 4327
4274 4395
4274 4396
4275 4328
4275 4397
4275 4398
4276 4277
4276 4329
4276 4399
4276 4400
4277 4278
4277 4399
4277 4400
4278 4330
4278 4400
4278 4401
4279 4331
4279 4402
4279 4403
4280 4281
4280 4332
4280 4404
4280 4405
4281 4282
4281 4404
4281 4405
4282 4333
4282 4405
4282 4406
4283 4334
4283 4407
4283 4408
4284 4285
4284 4335
4284 4409
4284 4410
4285 4286
4285 4409
4285 4410
4286 4336
4286 4410
4286 4411
4287 4337
4287 4412
4287 4413
4288 4289
4288 4338
4288 4414
4288 4415
4289 4290
4289 4414
4289 4415
4290 4339
4290 4415
4290 4416
4291 4340
4291 4417
4291 4418
4292 4293
4292 4341
4292 4419
4292 4420
4293 4294
4293 4419
4293 4420
4294 4342
4294 4420
4294 4421
4295 4343
4295 4422
4295 4423
4296 4344
4297 4298
4297 4346
4297 4424
4297 4425
4298 4347
4298 4424
4298 4425
4299 4349
4300 4301
4300 4351
4300 4426
4300 4427
4301 4352
4301 4426
4301 4427
4302 4354
4303 4304
4303 4356
4303 4428
4303 4429
4304 4357
4304 4428
4304 4429
4305 4359
4306 4307
4306 4361
4306 4430
4306 4431
4307 4362
4307 4430
4307 4431
4308 4364
4309 4310
4309 4366
4309 4432
4309 4433
4310 4367
4310 4432
4310 4433
4311 4369
4312 4313
4312 4371
4312 4434
4312 4435
4313 4372
4313 4434
4313 4435
4314 4374
4315 4316
4315 4376
4315 4436
4315 4437
4316 4377
4316 4436
4316 4437
4317 4379
4318 4319
4318 4381
4318 4438
4318 4439
4319 4382
4319 4438
4319 4439
4320 4384
4321 4322
4321 4386
4321 4440
4321 4441
4322 4387
4322 4440
4322 4441
4323 4389
4324 4325
4324 4391
4324 4442
4324 4443
4325 4392
4325 4442
4325 4443
4326 4394
4327 4328
4327 4396
4327 4444
4327 4445
4328 4397
4328 4444
4328 4445
4329 4399
4330 4331
4330 4401
4330 4446
4330 4447
4331 4402
4331 4446
4331 4447
4332 4404
4333 4334
4333 4406
4333 4448
4333 4449
4334 4407
4334 4448
4334 4449
4335 4409
4336 4337
4336 4411
4336 4450
4336 4451
4337 4412
4337 4450
4337 4451
4338 4414
4339 4340
4339 4416
4339 4452
4339 4453
4340 4417
4340 4452
4340 4453
4341 4419
4342 4343
4342 4421
4342 4454
4342 4455
4343 4422
4343 4454
4343 4455
4344 4345
4344 4456
4345 4456
4346 4424
4346 4457
4347 4425
4347 4458
4348 4459
4349 4350
4349 4460
4350 4460
4351 4426
4351 4461
4352 4427
4352 4462
4353 4463
4354 4355
4354 4464
4355 4464
4356 4428
4356 4465
4357 4429
4357 4466
4358 4467
4359 4360
4359 4468
4360 4468
4361 4430
4361 4469
4362 4431
4362 4470
4363 4471
4364 4365
4364 4472
4365 4472
4366 4432
4366 4473
4367 4433
4367 4474
4368 4475
4369 4370
4369 4476
4370 4476
4371 4434
4371 4477
4372 4435
4372 4478
4373 4479
4374 4375
4374 4480
4375 4480
4376 4436
4376 4481
4377 4437
4377 4482
4378 4483
4379 4380
4379 4484
4380 4484
4381 4438
4381 4485
4382 4439
4382 4486
4383 4487
4384 4385
4384 4488
4385 4488
4386 4440
4386 4489
4387 4441
4387 4490
4388 4491
4389 4390
4389 4492
4390 4492
4391 4442
4391 4493
4392 4443
4392 4494
4393 4495
4394 4395
4394 4496
4395 4496
4396 4444
4396 4497
4397 4445
4397 4498
4398 4499
4399 4400
4399 4500
4400 4500
4401 4446
4401 4501
4402 4447
4402 4502
4403 4503
4404 4405
4404 4504
4405 4504
4406 4448
4406 4505
4407 4449
4407 4506
4408 4507
4409 4410
4409 4508
4410 4508
4411 4450
4411 4509
4412 4451
4412 4510
4413 4511
4414 4415
4414 4512
4415 4512
4416 4452
4416 4513
4417 4453
4417 4514
4418 4515
4419 4420
4419 4516
4420 4516
4421 4454
4421 4517
4422 4455
4422 4518
4423 4519
4424 4425
4424 4457
4425 4458
4426 4427
4426 4461
4427 4462
4428 4429
4428 4465
4429 4466
4430 4431
4430 4469
4431 4470
4432 4433
4432 4473
4433 4474
4434 4435
4434 4477
4435 4478
4436 4437
4436 4481
4437 4482
4438 4439
4438 4485
4439 4486
4440 4441
4440 4489
4441 4490
4442 4443
4442 4493
4443 4494
4444 4445
4444 4497
4445 4498
4446 4447
4446 4501
4447 4502
4448 4449
4448 4505
4449 4506
4450 4451
4450 4509
4451 4510
4452 4453
4452 4513
4453 4514
4454 4455
4454 4517
4455 4518
4456 4520
4456 4521
4457 4521
4458 4522
4458 4523
4459 4524
4459 4525
4460 4526
4460 4527
4461 4527
4462 4528
4462 4529
4463 4530
4463 4531
4464 4532
4464 4533
4465 4533
4466 4534
4466 4535
4467 4536
4467 4537
4468 4538
4468 4539
4469 4539
4470 4540
4470 4541
4471 4542
4471 4543
4472 4544
4472 4545
4473 4545
4474 4546
4474 4547
4475 4548
4475 4549
4476 4550
4476 4551
4477 4551
4478 4552
4478 4553
4479 4554
4479 4555
4480 4556
4480 4557
4481 4557
4482 4558
4482 4559
4483 4560
4483 4561
4484 4562
4484 4563
4485 4563
4486 4564
4486 4565
4487 4566
4487 4567
4488 4568
4488 4569
4489 4569
4490 4570
4490 4571
4491 4572
4491 4573
4492 4574
4492 4575
4493 4575
4494 4576
4494 4577
4495 4578
4495 4579
4496 4580
4496 4581
4497 4581
4498 4582
4498 4583
4499 4584
4499 4585
4500 4586
4500 4587
4501 4587
4502 4588
4502 4589
4503 4590
4503 4591
4504 4592
4504 4593
4505 4593
4506 4594
4506 4595
4507 4596
4507 4597
4508 4598
4508 4599
4509 4599
4510 4600
4510 4601
4511 4602
4511 4603
4512 4604
4512 4605
4513 4605
4514 4606
4514 4607
4515 4608
4515 4609
4516 4610
4516 4611
4517 4611
4518 4612
4518 4613
4519 4614
4519 4615
4520 4521
4520 4616
4520 4681
4520 4682
4521 4617
4521 4681
4521 4682
4522 4523
4522 4618
4522 4683
4522 4684
4523 4619
4523 4683
4523 4684
4524 4525
4524 4619
4524 4685
4524 4686
4525 4620
4525 4685
4525 4686
4526 4527
4526 4620
4526 4687
4526 4688
4527 4621
4527 4687
4527 4688
4528 4529
4528 4622
4528 4689
4528 4690
4529 4623
4529 4689
4529 4690
4530 4531
4530 4623
4530 4691
4530 4692
4531 4624
4531 4691
4531 4692
4532 4533
4532 4624
4532 4693
4532 4694
4533 4625
4533 4693
4533 4694
4534 4535
4534 4626
4534 4695
4534 4696
4535 4627
4535 4695
4535 4696
4536 4537
4536 4627
4536 4697
4536 4698
4537 4628
4537 4697
4537 4698
4538 4539
4538 4628
4538 4699
4538 4700
4539 4629
4539 4699
4539 4700
4540 4541
4540 4630
4540 4701
4540 4702
4541 4631
4541 4701
4541 4702
4542 4543
4542 4631
4542 4703
4542 4704
4543 4632
4543 4703
4543 4704
4544 4545
4544 4632
4544 4705
4544 4706
4545 4633
4545 4705
4545 4706
4546 4547
4546 4634
4546 4707
4546 4708
4547 4635
4547 4707
4547 4708
4548 4549
4548 4635
4548 4709
4548 4710
4549 4636
4549 4709
4549 4710
4550 4551
4550 4636
4550 4711
4550 4712
4551 4637
4551 4711
4551 4712
4552 4553
4552 4638
4552 4713
4552 4714
4553 4639
4553 4713
4553 4714
4554 4555
4554 4639
4554 4715
4554 4716
4555 4640
4555 4715
4555 4716
4556 4557
4556 4640
4556 4717
4556 4718
4557 4641
4557 4717
4557 4718
4558 4559
4558 4642
4558 4719
4558 4720
4559 4643
4559 4719
4559 4720
4560 4561
4560 4643
4560 4721
4560 4722
4561 4644
4561 4721
4561 4722
4562 4563
4562 4644
4562 4723
4562 4724
4563 4645
4563 4723
4563 4724
4564 4565
4564 4646
4564 4725
4564 4726
4565 4647
4565 4725
4565 4726
4566 4567
4566 4647
4566 4727
4566 4728
4567 4648
4567 4727
4567 4728
4568 4569
4568 4648
4568 4729
4568 4730
4569 4649
4569 4729
4569 4730
4570 4571
4570 4650
4570 4731
4570 4732
4571 4651
4571 4731
4571 4732
4572 4573
4572 4651
4572 4733
4572 4734
4573 4652
4573 4733
4573 4734
4574 4575
4574 4652
4574 4735
4574 4736
4575 4653
4575 4735
4575 4736
4576 4577
4576 4654
4576 4737
4576 4738
4577 4655
4577 4737
4577 4738
4578 4579
4578 4655
4578 4739
4578 4740
4579 4656
4579 4739
4579 4740
4580 4581
4580 4656
4580 4741
4580 4742
4581 4657
4581 4741
4581 4742
4582 4583
4582 4658
4582 4743
4582 4744
4583 4659
4583 4743
4583 4744
4584 4585
4584 4659
4584 4745
4584 4746
4585 4660
4585 4745
4585 4746
4586 4587
4586 4660
4586 4747
4586 4748
4587 4661
4587 4747
4587 4748
4588 4589
4588 4662
4588 4749
4588 4750
4589 4663
4589 4749
4589 4750
4590 4591
4590 4663
4590 4751
4590 4752
4591 4664
4591 4751
4591 4752
4592 4593
4592 4664
4592 4753
4592 4754
4593 4665
4593 4753
4593 4754
4594 4595
4594 4666
4594 4755
4594 4756
4595 4667
4595 4755
4595 4756
4596 4597
4596 4667
4596 4757
4596 4758
4597 4668
4597 4757
4597 4758
4598 4599
4598 4668
4598 4759
4598 4760
4599 4669
4599 4759
4599 4760
4600 4601
4600 4670
4600 4761
4600 4762
4601 4671
4601 4761
4601 4762
4602 4603
4602 4671
4602 4763
4602 4764
4603 4672
4603 4763
4603 4764
4604 4605
4604 4672
4604 4765
4604 4766
4605 4673
4605 4765
4605 4766
4606 4607
4606 4674
4606 4767
4606 4768
4607 4675
4607 4767
4607 4768
4608 4609
4608 4675
4608 4769
4608 4770
4609 4676
4609 4769
4609 4770
4610 4611
4610 4676
4610 4771
4610 4772
4611 4677
4611 4771
4611 4772
4612 4613
4612 4678
4612 4773
4612 4774
4613 4679
4613 4773
4613 4774
4614 4615
4614 4679
4615 4680
4616 4681
4617 4618
4617 4682
4618 4683
4619 4684
4619 4685
4620 4686
4620 4687
4621 4622
4621 4688
4622 4689
4623 4690
4623 4691
4624 4692
4624 4693
4625 4626
4625 4694
4626 4695
4627 4696
4627 4697
4628 4698
4628 4699
4629 4630
4629 4700
4630 4701
4631 4702
4631 4703
4632 4704
4632 4705
4633 4634
4633 4706
4634 4707
4635 4708
4635 4709
4636 4710
4636 4711
4637 4638
4637 4712
4638 4713
4639 4714
4639 4715
4640 4716
4640 4717
4641 4642
4641 4718
4642 4719
4643 4720
4643 4721
4644 4722
4644 4723
4645 4646
4645 4724
4646 4725
4647 4726
4647 4727
4648 4728
4648 4729
4649 4650
4649 4730
4650 4731
4651 4732
4651 4733
4652 4734
4652 4735
4653 4654
4653 4736
4654 4737
4655 4738
4655 4739
4656 4740
4656 4741
4657 4658
4657 4742
4658 4743
4659 4744
4659 4745
4660 4746
4660 4747
4661 4662
4661 4748
4662 4749
4663 4750
4663 4751
4664 4752
4664 4753
4665 4666
4665 4754
4666 4755
4667 4756
4667 4757
4668 4758
4668 4759
4669 4670
4669 4760
4670 4761
4671 4762
4671 4763
4672 4764
4672 4765
4673 4674
4673 4766
4674 4767
4675 4768
4675 4769
4676 4770
4676 4771
4677 4678
4677 4772
4678 4773
4679 4774
4681 4682
4681 4775
4682 4775
4683 4684
4683 4776
4684 4776
4685 4686
4685 4777
4686 4777
4687 4688
4687 4778
4688 4778
4689 4690
4689 4779
4690 4779
4691 4692
4691 4780
4692 4780
4693 4694
4693 4781
4694 4781
4695 4696
4695 4782
4696 4782
4697 4698
4697 4783
4698 4783
4699 4700
4699 4784
4700 4784
4701 4702
4701 4785
4702 4785
4703 4704
4703 4786
4704 4786
4705 4706
4705 4787
4706 4787
4707 4708
4707 4788
4708 4788
4709 4710
4709 4789
4710 4789
4711 4712
4711 4790
4712 4790
4713 4714
4713 4791
4714 4791
4715 4716
4715 4792
4716 4792
4717 4718
4717 4793
4718 4793
4719 4720
4719 4794
4720 4794
4721 4722
4721 4795
4722 4795
4723 4724
4723 4796
4724 4796
4725 4726
4725 4797
4726 4797
4727 4728
4727 4798
4728 4798
4729 4730
4729 4799
4730 4799
4731 4732
4731 4800
4732 4800
4733 4734
4733 4801
4734 4801
4735 4736
4735 4802
4736 4802
4737 4738
4737 4803
4738 4803
4739 4740
4739 4804
4740 4804
4741 4742
4741 4805
4742 4805
4743 4744
4743 4806
4744 4806
4745 4746
4745 4807
4746 4807
4747 4748
4747 4808
4748 4808
4749 4750
4749 4809
4750 4809
4751 4752
4751 4810
4752 4810
4753 4754
4753 4811
4754 4811
4755 4756
4755 4812
4756 4812
4757 4758
4757 4813
4758 4813
4759 4760
4759 4814
4760 4814
4761 4762
4761 4815
4762 4815
4763 4764
4763 4816
4764 4816
4765 4766
4765 4817
4766 4817
4767 4768
4767 4818
4768 4818
4769 4770
4769 4819
4770 4819
4771 4772
4771 4820
4772 4820
4773 4774
4773 4821
4774 4821
4775 4822
4775 4823
4776 4887
4776 4888
4777 4889
4778 4826
4778 4827
4779 4890
4779 4891
4780 4892
4781 4830
4781 4831
4782 4893
4782 4894
4783 4895
4784 4834
4784 4835
4785 4896
4785 4897
4786 4898
4787 4838
4787 4839
4788 4899
4788 4900
4789 4901
4790 4842
4790 4843
4791 4902
4791 4903
4792 4904
4793 4846
4793 4847
4794 4905
4794 4906
4795 4907
4796 4850
4796 4851
4797 4908
4797 4909
4798 4910
4799 4854
4799 4855
4800 4911
4800 4912
4801 4913
4802 4858
4802 4859
4803 4914
4803 4915
4804 4916
4805 4862
4805 4863
4806 4917
4806 4918
4807 4919
4808 4866
4808 4867
4809 4920
4809 4921
4810 4922
4811 4870
4811 4871
4812 4923
4812 4924
4813 4925
4814 4874
4814 4875
4815 4926
4815 4927
4816 4928
4817 4878
4817 4879
4818 4929
4818 4930
4819 4931
4820 4882
4820 4883
4821 4932
4821 4933
4822 4823
4822 4886
4822 4934
4822 4935
4823 4824
4823 4934
4823 4935
4824 4887
4824 4935
4824 4936
4825 4888
4825 4937
4825 4938
4826 4827
4826 4889
4826 4939
4826 4940
4827 4828
4827 4939
4827 4940
4828 4890
4828 4940
4828 4941
4829 4891
4829 4942
4829 4943
4830 4831
4830 4892
4830 4944
4830 4945
4831 4832
4831 4944
4831 4945
4832 4893
4832 4945
4832 4946
4833 4894
4833 4947
4833 4948
4834 4835
4834 4895
4834 4949
4834 4950
4835 4836
4835 4949
4835 4950
4836 4896
4836 4950
4836 4951
4837 4897
4837 4952
4837 4953
4838 4839
4838 4898
4838 4954
4838 4955
4839 4840
4839 4954
4839 4955
4840 4899
4840 4955
4840 4956
4841 4900
4841 4957
4841 4958
4842 4843
4842 4901
4842 4959
4842 4960
4843 4844
4843 4959
4843 4960
4844 4902
4844 4960
4844 4961
4845 4903
4845 4962
4845 4963
4846 4847
4846 4904
4846 4964
4846 4965
4847 4848
4847 4964
4847 4965
4848 4905
4848 4965
4848 4966
4849 4906
4849 4967
4849 4968
4850 4851
4850 4907
4850 4969
4850 4970
4851 4852
4851 4969
4851 4970
4852 4908
4852 4970
4852 4971
4853 4909
4853 4972
4853 4973
4854 4855
4854 4910
4854 4974
4854 4975
4855 4856
4855 4974
4855 4975
4856 4911
4856 4975
4856 4976
4857 4912
4857 4977
4857 4978
4858 4859
4858 4913
4858 4979
4858 4980
4859 4860
4859 4979
4859 4980
4860 4914
4860 4980
4860 4981
4861 4915
4861 4982
4861 4983
4862 4863
4862 4916
4862 4984
4862 4985
4863 4864
4863 4984
4863 4985
4864 4917
4864 4985
4864 4986
4865 4918
4865 4987
4865 4988
4866 4867
4866 4919
4866 4989
4866 4990
4867 4868
4867 4989
4867 4990
4868 4920
4868 4990
4868 4991
4869 4921
4869 4992
4869 4993
4870 4871
4870 4922
4870 4994
4870 4995
4871 4872
4871 4994
4871 4995
4872 4923
4872 4995
4872 4996
4873 4924
4873 4997
4873 4998
4874 4875
4874 4925
4874 4999
4874 5000
4875 4876
4875 4999
4875 5000
4876 4926
4876 5000
4876 5001
4877 4927
4877 5002
4877 5003
4878 4879
4878 4928
4878 5004
4878 5005
4879 4880
4879 5004
4879 5005
4880 4929
4880 5005
4880 5006
4881 4930
4881 5007
4881 5008
4882 4883
4882 4931
4882 5009
4882 5010
4883 4884
4883 5009
4883 5010
4884 4932
4884 5010
4884 5011
4885 4933
4885 5012
4885 5013
4886 4934
4887 4888
4887 4936
4887 5014
4887 5015
4888 4937
4888 5014
4888 5015
4889 4939
4890 4891
4890 4941
4890 5016
4890 5017
4891 4942
4891 5016
4891 5017
4892 4944
4893 4894
4893 4946
4893 5018
4893 5019
4894 4947
4894 5018
4894 5019
4895 4949
4896 4897
4896 4951
4896 5020
4896 5021
4897 4952
4897 5020
4897 5021
4898 4954
4899 4900
4899 4956
4899 5022
4899 5023
4900 4957
4900 5022
4900 5023
4901 4959
4902 4903
4902 4961
4902 5024
4902 5025
4903 4962
4903 5024
4903 5025
4904 4964
4905 4906
4905 4966
4905 5026
4905 5027
4906 4967
4906 5026
4906 5027
4907 4969
4908 4909
4908 4971
4908 5028
4908 5029
4909 4972
4909 5028
4909 5029
4910 4974
4911 4912
4911 4976
4911 5030
4911 5031
4912 4977
4912 5030
4912 5031
4913 4979
4914 4915
4914 4981
4914 5032
4914 5033
4915 4982
4915 5032
4915 5033
4916 4984
4917 4918
4917 4986
4917 5034
4917 5035
4918 4987
4918 5034
4918 5035
4919 4989
4920 4921
4920 4991
4920 5036
4920 5037
4921 4992
4921 5036
4921 5037
4922 4994
4923 4924
4923 4996
4923 5038
4923 5039
4924 4997
4924 5038
4924 5039
4925 4999
4926 4927
4926 5001
4926 5040
4926 5041
4927 5002
4927 5040
4927 5041
4928 5004
4929 4930
4929 5006
4929 5042
4929 5043
4930 5007
4930 5042
4930 5043
4931 5009
4932 4933
4932 5011
4932 5044
4932 5045
4933 5012
4933 5044
4933 5045
4934 4935
4934 5046
4935 5046
4936 5014
4936 5047
4937 5015
4937 5048
4938 5049
4939 4940
4939 5050
4940 5050
4941 5016
4941 5051
4942 5017
4942 5052
4943 5053
4944 4945
4944 5054
4945 5054
4946 5018
4946 5055
4947 5019
4947 5056
4948 5057
4949 4950
4949 5058
4950 5058
4951 5020
4951 5059
4952 5021
4952 5060
4953 5061
4954 4955
4954 5062
4955 5062
4956 5022
4956 5063
4957 5023
4957 5064
4958 5065
4959 4960
4959 5066
4960 5066
4961 5024
4961 5067
4962 5025
4962 5068
4963 5069
4964 4965
4964 5070
4965 5070
4966 5026
4966 5071
4967 5027
4967 5072
4968 5073
4969 4970
4969 5074
4970 5074
4971 5028
4971 5075
4972 5029
4972 5076
4973 5077
4974 4975
4974 5078
4975 5078
4976 5030
4976 5079
4977 5031
4977 5080
4978 5081
4979 4980
4979 5082
4980 5082
4981 5032
4981 5083
4982 5033
4982 5084
4983 5085
4984 4985
4984 5086
4985 5086
4986 5034
4986 5087
4987 5035
4987 5088
4988 5089
4989 4990
4989 5090
4990 5090
4991 5036
4991 5091
4992 5037
4992 5092
4993 5093
4994 4995
4994 5094
4995 5094
4996 5038
4996 5095
4997 5039
4997 5096
4998 5097
4999 5000
4999 5098
5000 5098
5001 5040
5001 5099
5002 5041
5002 5100
5003 5101
5004 5005
5004 5102
5005 5102
5006 5042
5006 5103
5007 5043
5007 5104
5008 5105
5009 5010
5009 5106
5010 5106
5011 5044
5011 5107
5012 5045
5012 5108
5013 5109
5014 5015
5014 5047
5015 5048
5016 5017
5016 5051
5017 5052
5018 5019
5018 5055
5019 5056
5020 5021
5020 5059
5021 5060
5022 5023
5022 5063
5023 5064
5024 5025
5024 5067
5025 5068
5026 5027
5026 5071
5027 5072
5028 5029
5028 5075
5029 5076
5030 5031
5030 5079
5031 5080
5032 5033
5032 5083
5033 5084
5034 5035
5034 5087
5035 5088
5036 5037
5036 5091
5037 5092
5038 5039
5038 5095
5039 5096
5040 5041
5040 5099
5041 5100
5042 5043
5042 5103
5043 5104
5044 5045
5044 5107
5045 5108
5046 5110
5046 5111
5047 5111
5048 5112
5048 5113
5049 5114
5049 5115
5050 5116
5050 5117
5051 5117
5052 5118
5052 5119
5053 5120
5053 5121
5054 5122
5054 5123
5055 5123
5056 5124
5056 5125
5057 5126
5057 5127
5058 5128
5058 5129
5059 5129
5060 5130
5060 5131
5061 5132
5061 5133
5062 5134
5062 5135
5063 5135
5064 5136
5064 5137
5065 5138
5065 5139
5066 5140
5066 5141
5067 5141
5068 5142
5068 5143
5069 5144
5069 5145
5070 5146
5070 5147
5071 5147
5072 5148
5072 5149
5073 5150
5073 5151
5074 5152
5074 5153
5075 5153
5076 5154
5076 5155
5077 5156
5077 5157
5078 5158
5078 5159
5079 5159
5080 5160
5080 5161
5081 5162
5081 5163
5082 5164
5082 5165
5083 5165
5084 5166
5084 5167
5085 5168
5085 5169
5086 5170
5086 5171
5087 5171
5088 5172
5088 5173
5089 5174
5089 5175
5090 5176
5090 5177
5091 5177
5092 5178
5092 5179
5093 5180
5093 5181
5094 5182
5094 5183
5095 5183
5096 5184
5096 5185
5097 5186
5097 5187
5098 5188
5098 5189
5099 5189
5100 5190
5100 5191
5101 5192
5101 5193
5102 5194
5102 5195
5103 5195
5104 5196
5104 5197
5105 5198
5105 5199
5106 5200
5106 5201
5107 5201
5108 5202
5108 5203
5109 5204
5109 5205
5110 5111
5110 5206
5110 5271
5110 5272
5111 5207
5111 5271
5111 5272
5112 5113
5112 5208
5112 5273
5112 5274
5113 5209
5113 5273
5113 5274
5114 5115
5114 5209
5114 5275
5114 5276
5115 5210
5115 5275
5115 5276
5116 5117
5116 5210
5116 5277
5116 5278
5117 5211
5117 5277
5117 5278
5118 5119
5118 5212
5118 5279
5118 5280
5119 5213
5119 5279
5119 5280
5120 5121
5120 5213
5120 5281
5120 5282
5121 5214
5121 5281
5121 5282
5122 5123
5122 5214
5122 5283
5122 5284
5123 5215
5123 5283
5123 5284
5124 5125
5124 5216
5124 5285
5124 5286
5125 5217
5125 5285
5125 5286
5126 5127
5126 5217
5126 5287
5126 5288
5127 5218
5127 5287
5127 5288
5128 5129
5128 5218
5128 5289
5128 5290
5129 5219
5129 5289
5129 5290
5130 5131
5130 5220
5130 5291
5130 5292
5131 5221
5131 5291
5131 5292
5132 5133
5132 5221
5132 5293
5132 5294
5133 5222
5133 5293
5133 5294
5134 5135
5134 5222
5134 5295
5134 5296
5135 5223
5135 5295
5135 5296
5136 5137
5136 5224
5136 5297
5136 5298
5137 5225
5137 5297
5137 5298
5138 5139
5138 5225
5138 5299
5138 5300
5139 5226
5139 5299
5139 5300
5140 5141
5140 5226
5140 5301
5140 5302
5141 5227
5141 5301
5141 5302
5142 5143
5142 5228
5142 5303
5142 5304
5143 5229
5143 5303
5143 5304
5144 5145
5144 5229
5144 5305
5144 5306
5145 5230
5145 5305
5145 5306
5146 5147
5146 5230
5146 5307
5146 5308
5147 5231
5147 5307
5147 5308
5148 5149
5148 5232
5148 5309
5148 5310
5149 5233
5149 5309
5149 5310
5150 5151
5150 5233
5150 5311
5150 5312
5151 5234
5151 5311
5151 5312
5152 5153
5152 5234
5152 5313
5152 5314
5153 5235
5153 5313
5153 5314
5154 5155
5154 5236
5154 5315
5154 5316
5155 5237
5155 5315
5155 5316
5156 5157
5156 5237
5156 5317
5156 5318
5157 5238
5157 5317
5157 5318
5158 5159
5158 5238
5158 5319
5158 5320
5159 5239
5159 5319
5159 5320
5160 5161
5160 5240
5160 5321
5160 5322
5161 5241
5161 5321
5161 5322
5162 5163
5162 5241
5162 5323
5162 5324
5163 5242
5163 5323
5163 5324
5164 5165
5164 5242
5164 5325
5164 5326
5165 5243
5165 5325
5165 5326
5166 5167
5166 5244
5166 5327
5166 5328
5167 5245
5167 5327
5167 5328
5168 5169
5168 5245
5168 5329
5168 5330
5169 5246
5169 5329
5169 5330
5170 5171
5170 5246
5170 5331
5170 5332
5171 5247
5171 5331
5171 5332
5172 5173
5172 5248
5172 5333
5172 5334
5173 5249
5173 5333
5173 5334
5174 5175
5174 5249
5174 5335
5174 5336
5175 5250
5175 5335
5175 5336
5176 5177
5176 5250
5176 5337
5176 5338
5177 5251
5177 5337
5177 5338
5178 5179
5178 5252
5178 5339
5178 5340
5179 5253
5179 5339
5179 5340
5180 5181
5180 5253
5180 5341
5180 5342
5181 5254
5181 5341
5181 5342
5182 5183
5182 5254
5182 5343
5182 5344
5183 5255
5183 5343
5183 5344
5184 5185
5184 5256
5184 5345
5184 5346
5185 5257
5185 5345
5185 5346
5186 5187
5186 5257
5186 5347
5186 5348
5187 5258
5187 5347
5187 5348
5188 5189
5188 5258
5188 5349
5188 5350
5189 5259
5189 5349
5189 5350
5190 5191
5190 5260
5190 5351
5190 5352
5191 5261
5191 5351
5191 5352
5192 5193
5192 5261
5192 5353
5192 5354
5193 5262
5193 5353
5193 5354
5194 5195
5194 5262
5194 5355
5194 5356
5195 5263
5195 5355
5195 5356
5196 5197
5196 5264
5196 5357
5196 5358
5197 5265
5197 5357
5197 5358
5198 5199
5198 5265
5198 5359
5198 5360
5199 5266
5199 5359
5199 5360
5200 5201
5200 5266
5200 5361
5200 5362
5201 5267
5201 5361
5201 5362
5202 5203
5202 5268
5202 5363
5202 5364
5203 5269
5203 5363
5203 5364
5204 5205
5204 5269
5205 5270
5206 5271
5207 5208
5207 5272
5208 5273
5209 5274
5209 5275
5210 5276
5210 5277
5211 5212
5211 5278
5212 5279
5213 5280
5213 5281
5214 5282
5214 5283
5215 5216
5215 5284
5216 5285
5217 5286
5217 5287
5218 5288
5218 5289
5219 5220
5219 5290
5220 5291
5221 5292
5221 5293
5222 5294
5222 5295
5223 5224
5223 5296
5224 5297
5225 5298
5225 5299
5226 5300
5226 5301
5227 5228
5227 5302
5228 5303
5229 5304
5229 5305
5230 5306
5230 5307
5231 5232
5231 5308
5232 5309
5233 5310
5233 5311
5234 5312
5234 5313
5235 5236
5235 5314
5236 5315
5237 5316
5237 5317
5238 5318
5238 5319
5239 5240
5239 5320
5240 5321
5241 5322
5241 5323
5242 5324
5242 5325
5243 5244
5243 5326
5244 5327
5245 5328
5245 5329
5246 5330
5246 5331
5247 5248
5247 5332
5248 5333
5249 5334
5249 5335
5250 5336
5250 5337
5251 5252
5251 5338
5252 5339
5253 5340
5253 5341
5254 5342
5254 5343
5255 5256
5255 5344
5256 5345
5257 5346
5257 5347
5258 5348
5258 5349
5259 5260
5259 5350
5260 5351
5261 5352
5261 5353
5262 5354
5262 5355
5263 5264
5263 5356
5264 5357
5265 5358
5265 5359
5266 5360
5266 5361
5267 5268
5267 5362
5268 5363
5269 5364
5271 5272
5271 5365
5272 5365
5273 5274
5273 5366
5274 5366
5275 5276
5275 5367
5276 5367
5277 5278
5277 5368
5278 5368
5279 5280
5279 5369
5280 5369
5281 5282
5281 5370
5282 5370
5283 5284
5283 5371
5284 5371
5285 5286
5285 5372
5286 5372
5287 5288
5287 5373
5288 5373
5289 5290
5289 5374
5290 5374
5291 5292
5291 5375
5292 5375
5293 5294
5293 5376
5294 5376
5295 5296
5295 5377
5296 5377
5297 5298
5297 5378
5298 5378
5299 5300
5299 5379
5300 5379
5301 5302
5301 5380
5302 5380
5303 5304
5303 5381
5304 5381
5305 5306
5305 5382
5306 5382
5307 5308
5307 5383
5308 5383
5309 5310
5309 5384
5310 5384
5311 5312
5311 5385
5312 5385
5313 5314
5313 5386
5314 5386
5315 5316
5315 5387
5316 5387
5317 5318
5317 5388
5318 5388
5319 5320
5319 5389
5320 5389
5321 5322
5321 5390
5322 5390
5323 5324
5323 5391
5324 5391
5325 5326
5325 5392
5326 5392
5327 5328
5327 5393
5328 5393
5329 5330
5329 5394
5330 5394
5331 5332
5331 5395
5332 5395
5333 5334
5333 5396
5334 5396
5335 5336
5335 5397
5336 5397
5337 5338
5337 5398
5338 5398
5339 5340
5339 5399
5340 5399
5341 5342
5341 5400
5342 5400
5343 5344
5343 5401
5344 5401
5345 5346
5345 5402
5346 5402
5347 5348
5347 5403
5348 5403
5349 5350
5349 5404
5350 5404
5351 5352
5351 5405
5352 5405
5353 5354
5353 5406
5354 5406
5355 5356
5355 5407
5356 5407
5357 5358
5357 5408
5358 5408
5359 5360
5359 5409
5360 5409
5361 5362
5361 5410
5362 5410
5363 5364
5363 5411
5364 5411
5365 5412
5365 5413
5366 5477
5366 5478
5367 5479
5368 5416
5368 5417
5369 5480
5369 5481
5370 5482
5371 5420
5371 5421
5372 5483
5372 5484
5373 5485
5374 5424
5374 5425
5375 5486
5375 5487
5376 5488
5377 5428
5377 5429
5378 5489
5378 5490
5379 5491
5380 5432
5380 5433
5381 5492
5381 5493
5382 5494
5383 5436
5383 5437
5384 5495
5384 5496
5385 5497
5386 5440
5386 5441
5387 5498
5387 5499
5388 5500
5389 5444
5389 5445
5390 5501
5390 5502
5391 5503
5392 5448
5392 5449
5393 5504
5393 5505
5394 5506
5395 5452
5395 5453
5396 5507
5396 5508
5397 5509
5398 5456
5398 5457
5399 5510
5399 5511
5400 5512
5401 5460
5401 5461
5402 5513
5402 5514
5403 5515
5404 5464
5404 5465
5405 5516
5405 5517
5406 5518
5407 5468
5407 5469
5408 5519
5408 5520
5409 5521
5410 5472
5410 5473
5411 5522
5411 5523
5412 5413
5412 5476
5412 5524
5412 5525
5413 5414
5413 5524
5413 5525
5414 5477
5414 5525
5414 5526
5415 5478
5415 5527
5415 5528
5416 5417
5416 5479
5416 5529
5416 5530
5417 5418
5417 5529
5417 5530
5418 5480
5418 5530
5418 5531
5419 5481
5419 5532
5419 5533
5420 5421
5420 5482
5420 5534
5420 5535
5421 5422
5421 5534
5421 5535
5422 5483
5422 5535
5422 5536
5423 5484
5423 5537
5423 5538
5424 5425
5424 5485
5424 5539
5424 5540
5425 5426
5425 5539
5425 5540
5426 5486
5426 5540
5426 5541
5427 5487
5427 5542
5427 5543
5428 5429
5428 5488
5428 5544
5428 5545
5429 5430
5429 5544
5429 5545
5430 5489
5430 5545
5430 5546
5431 5490
5431 5547
5431 5548
5432 5433
5432 5491
5432 5549
5432 5550
5433 5434
5433 5549
5433 5550
5434 5492
5434 5550
5434 5551
5435 5493
5435 5552
5435 5553
5436 5437
5436 5494
5436 5554
5436 5555
5437 5438
5437 5554
5437 5555
5438 5495
5438 5555
5438 5556
5439 5496
5439 5557
5439 5558
5440 5441
5440 5497
5440 5559
5440 5560
5441 5442
5441 5559
5441 5560
5442 5498
5442 5560
5442 5561
5443 5499
5443 5562
5443 5563
5444 5445
5444 5500
5444 5564
5444 5565
5445 5446
5445 5564
5445 5565
5446 5501
5446 5565
5446 5566
5447 5502
5447 5567
5447 5568
5448 5449
5448 5503
5448 5569
5448 5570
5449 5450
5449 5569
5449 5570
5450 5504
5450 5570
5450 5571
5451 5505
5451 5572
5451 5573
5452 5453
5452 5506
5452 5574
5452 5575
5453 5454
5453 5574
5453 5575
5454 5507
5454 5575
5454 5576
5455 5508
5455 5577
5455 5578
5456 5457
5456 5509
5456 5579
5456 5580
5457 5458
5457 5579
5457 5580
5458 5510
5458 5580
5458 5581
5459 5511
5459 5582
5459 5583
5460 5461
5460 5512
5460 5584
5460 5585
5461 5462
5461 5584
5461 5585
5462 5513
5462 5585
5462 5586
5463 5514
5463 5587
5463 5588
5464 5465
5464 5515
5464 5589
5464 5590
5465 5466
5465 5589
5465 5590
5466 5516
5466 5590
5466 5591
5467 5517
5467 5592
5467 5593
5468 5469
5468 5518
5468 5594
5468 5595
5469 5470
5469 5594
5469 5595
5470 5519
5470 5595
5470 5596
5471 5520
5471 5597
5471 5598
5472 5473
5472 5521
5472 5599
5472 5600
5473 5474
5473 5599
5473 5600
5474 5522
5474 5600
5474 5601
5475 5523
5475 5602
5475 5603
5476 5524
5477 5478
5477 5526
5477 5604
5477 5605
5478 5527
5478 5604
5478 5605
5479 5529
5480 5481
5480 5531
5480 5606
5480 5607
5481 5532
5481 5606
5481 5607
5482 5534
5483 5484
5483 5536
5483 5608
5483 5609
5484 5537
5484 5608
5484 5609
5485 5539
5486 5487
5486 5541
5486 5610
5486 5611
5487 5542
5487 5610
5487 5611
5488 5544
5489 5490
5489 5546
5489 5612
5489 5613
5490 5547
5490 5612
5490 5613
5491 5549
5492 5493
5492 5551
5492 5614
5492 5615
5493 5552
5493 5614
5493 5615
5494 5554
5495 5496
5495 5556
5495 5616
5495 5617
5496 5557
5496 5616
5496 5617
5497 5559
5498 5499
5498 5561
5498 5618
5498 5619
5499 5562
5499 5618
5499 5619
5500 5564
5501 5502
5501 5566
5501 5620
5501 5621
5502 5567
5502 5620
5502 5621
5503 5569
5504 5505
5504 5571
5504 5622
5504 5623
5505 5572
5505 5622
5505 5623
5506 5574
5507 5508
5507 5576
5507 5624
5507 5625
5508 5577
5508 5624
5508 5625
5509 5579
5510 5511
5510 5581
5510 5626
5510 5627
5511 5582
5511 5626
5511 5627
5512 5584
5513 5514
5513 5586
5513 5628
5513 5629
5514 5587
5514 5628
5514 5629
5515 5589
5516 5517
5516 5591
5516 5630
5516 5631
5517 5592
5517 5630
5517 5631
5518 5594
5519 5520
5519 5596
5519 5632
5519 5633
5520 5597
5520 5632
5520 5633
5521 5599
5522 5523
5522 5601
5522 5634
5522 5635
5523 5602
5523 5634
5523 5635
5524 5525
5524 5636
5525 5636
5526 5604
5526 5637
5527 5605
5527 5638
5528 5639
5529 5530
5529 5640
5530 5640
5531 5606
5531 5641
5532 5607
5532 5642
5533 5643
5534 5535
5534 5644
5535 5644
5536 5608
5536 5645
5537 5609
5537 5646
5538 5647
5539 5540
5539 5648
5540 5648
5541 5610
5541 5649
5542 5611
5542 5650
5543 5651
5544 5545
5544 5652
5545 5652
5546 5612
5546 5653
5547 5613
5547 5654
5548 5655
5549 5550
5549 5656
5550 5656
5551 5614
5551 5657
5552 5615
5552 5658
5553 5659
5554 5555
5554 5660
5555 5660
5556 5616
5556 5661
5557 5617
5557 5662
5558 5663
5559 5560
5559 5664
5560 5664
5561 5618
5561 5665
5562 5619
5562 5666
5563 5667
5564 5565
5564 5668
5565 5668
5566 5620
5566 5669
5567 5621
5567 5670
5568 5671
5569 5570
5569 5672
5570 5672
5571 5622
5571 5673
5572 5623
5572 5674
5573 5675
5574 5575
5574 5676
5575 5676
5576 5624
5576 5677
5577 5625
5577 5678
5578 5679
5579 5580
5579 5680
5580 5680
5581 5626
5581 5681
5582 5627
5582 5682
5583 5683
5584 5585
5584 5684
5585 5684
5586 5628
5586 5685
5587 5629
5587 5686
5588 5687
5589 5590
5589 5688
5590 5688
5591 5630
5591 5689
5592 5631
5592 5690
5593 5691
5594 5595
5594 5692
5595 5692
5596 5632
5596 5693
5597 5633
5597 5694
5598 5695
5599 5600
5599 5696
5600 5696
5601 5634
5601 5697
5602 5635
5602 5698
5603 5699
5604 5605
5604 5637
5605 5638
5606 5607
5606 5641
5607 5642
5608 5609
5608 5645
5609 5646
5610 5611
5610 5649
5611 5650
5612 5613
5612 5653
5613 5654
5614 5615
5614 5657
5615 5658
5616 5617
5616 5661
5617 5662
5618 5619
5618 5665
5619 5666
5620 5621
5620 5669
5621 5670
5622 5623
5622 5673
5623 5674
5624 5625
5624 5677
5625 5678
5626 5627
5626 5681
5627 5682
5628 5629
5628 5685
5629 5686
5630 5631
5630 5689
5631 5690
5632 5633
5632 5693
5633 5694
5634 5635
5634 5697
5635 5698
5636 5700
5636 5701
5637 5701
5638 5702
5638 5703
5639 5704
5639 5705
5640 5706
5640 5707
5641 5707
5642 5708
5642 5709
5643 5710
5643 5711
5644 5712
5644 5713
5645 5713
5646 5714
5646 5715
5647 5716
5647 5717
5648 5718
5648 5719
5649 5719
5650 5720
5650 5721
5651 5722
5651 5723
5652 5724
5652 5725
5653 5725
5654 5726
5654 5727
5655 5728
5655 5729
5656 5730
5656 5731
5657 5731
5658 5732
5658 5733
5659 5734
5659 5735
5660 5736
5660 5737
5661 5737
5662 5738
5662 5739
5663 5740
5663 5741
5664 5742
5664 5743
5665 5743
5666 5744
5666 5745
5667 5746
5667 5747
5668 5748
5668 5749
5669 5749
5670 5750
5670 5751
5671 5752
5671 5753
5672 5754
5672 5755
5673 5755
5674 5756
5674 5757
5675 5758
5675 5759
5676 5760
5676 5761
5677 5761
5678 5762
5678 5763
5679 5764
5679 5765
5680 5766
5680 5767
5681 5767
5682 5768
5682 5769
5683 5770
5683 5771
5684 5772
5684 5773
5685 5773
5686 5774
5686 5775
5687 5776
5687 5777
5688 5778
5688 5779
5689 5779
5690 5780
5690 5781
5691 5782
5691 5783
5692 5784
5692 5785
5693 5785
5694 5786
5694 5787
5695 5788
5695 5789
5696 5790
5696 5791
5697 5791
5698 5792
5698 5793
5699 5794
5699 5795
5700 5701
5700 5796
5700 5861
5700 5862
5701 5797
5701 5861
5701 5862
5702 5703
5702 5798
5702 5863
5702 5864
5703 5799
5703 5863
5703 5864
5704 5705
5704 5799
5704 5865
5704 5866
5705 5800
5705 5865
5705 5866
5706 5707
5706 5800
5706 5867
5706 5868
5707 5801
5707 5867
5707 5868
5708 5709
5708 5802
5708 5869
5708 5870
5709 5803
5709 5869
5709 5870
5710 5711
5710 5803
5710 5871
5710 5872
5711 5804
5711 5871
5711 5872
5712 5713
5712 5804
5712 5873
5712 5874
5713 5805
5713 5873
5713 5874
5714 5715
5714 5806
5714 5875
5714 5876
5715 5807
5715 5875
5715 5876
5716 5717
5716 5807
5716 5877
5716 5878
5717 5808
5717 5877
5717 5878
5718 5719
5718 5808
5718 5879
5718 5880
5719 5809
5719 5879
5719 5880
5720 5721
5720 5810
5720 5881
5720 5882
5721 5811
5721 5881
5721 5882
5722 5723
5722 5811
5722 5883
5722 5884
5723 5812
5723 5883
5723 5884
5724 5725
5724 5812
5724 5885
5724 5886
5725 5813
5725 5885
5725 5886
5726 5727
5726 5814
5726 5887
5726 5888
5727 5815
5727 5887
5727 5888
5728 5729
5728 5815
5728 5889
5728 5890
5729 5816
5729 5889
5729 5890
5730 5731
5730 5816
5730 5891
5730 5892
5731 5817
5731 5891
5731 5892
5732 5733
5732 5818
5732 5893
5732 5894
5733 5819
5733 5893
5733 5894
5734 5735
5734 5819
5734 5895
5734 5896
5735 5820
5735 5895
5735 5896
5736 5737
5736 5820
5736 5897
5736 5898
5737 5821
5737 5897
5737 5898
5738 5739
5738 5822
5738 5899
5738 5900
5739 5823
5739 5899
5739 5900
5740 5741
5740 5823
5740 5901
5740 5902
5741 5824
5741 5901
5741 5902
5742 5743
5742 5824
5742 5903
5742 5904
5743 5825
5743 5903
5743 5904
5744 5745
5744 5826
5744 5905
5744 5906
5745 5827
5745 5905
5745 5906
5746 5747
5746 5827
5746 5907
5746 5908
5747 5828
5747 5907
5747 5908
5748 5749
5748 5828
5748 5909
5748 5910
5749 5829
5749 5909
5749 5910
5750 5751
5750 5830
5750 5911
5750 5912
5751 5831
5751 5911
5751 5912
5752 5753
5752 5831
5752 5913
5752 5914
5753 5832
5753 5913
5753 5914
5754 5755
5754 5832
5754 5915
5754 5916
5755 5833
5755 5915
5755 5916
5756 5757
5756 5834
5756 5917
5756 5918
5757 5835
5757 5917
5757 5918
5758 5759
5758 5835
5758 5919
5758 5920
5759 5836
5759 5919
5759 5920
5760 5761
5760 5836
5760 5921
5760 5922
5761 5837
5761 5921
5761 5922
5762 5763
5762 5838
5762 5923
5762 5924
5763 5839
5763 5923
5763 5924
5764 5765
5764 5839
5764 5925
5764 5926
5765 5840
5765 5925
5765 5926
5766 5767
5766 5840
5766 5927
5766 5928
5767 5841
5767 5927
5767 5928
5768 5769
5768 5842
5768 5929
5768 5930
5769 5843
5769 5929
5769 5930
5770 5771
5770 5843
5770 5931
5770 5932
5771 5844
5771 5931
5771 5932
5772 5773
5772 5844
5772 5933
5772 5934
5773 5845
5773 5933
5773 5934
5774 5775
5774 5846
5774 5935
5774 5936
5775 5847
5775 5935
5775 5936
5776 5777
5776 5847
5776 5937
5776 5938
5777 5848
5777 5937
5777 5938
5778 5779
5778 5848
5778 5939
5778 5940
5779 5849
5779 5939
5779 5940
5780 5781
5780 5850
5780 5941
5780 5942
5781 5851
5781 5941
5781 5942
5782 5783
5782 5851
5782 5943
5782 5944
5783 5852
5783 5943
5783 5944
5784 5785
5784 5852
5784 5945
5784 5946
5785 5853
5785 5945
5785 5946
5786 5787
5786 5854
5786 5947
5786 5948
5787 5855
5787 5947
5787 5948
5788 5789
5788 5855
5788 5949
5788 5950
5789 5856
5789 5949
5789 5950
5790 5791
5790 5856
5790 5951
5790 5952
5791 5857
5791 5951
5791 5952
5792 5793
5792 5858
5792 5953
5792 5954
5793 5859
5793 5953
5793 5954
5794 5795
5794 5859
5794 5955
5794 5956
5795 5860
5795 5955
5795 5956
5796 5861
5797 5798
5797 5862
5798 5863
5799 5864
5799 5865
5800 5866
5800 5867
5801 5802
5801 5868
5802 5869
5803 5870
5803 5871
5804 5872
5804 5873
5805 5806
5805 5874
5806 5875
5807 5876
5807 5877
5808 5878
5808 5879
5809 5810
5809 5880
5810 5881
5811 5882
5811 5883
5812 5884
5812 5885
5813 5814
5813 5886
5814 5887
5815 5888
5815 5889
5816 5890
5816 5891
5817 5818
5817 5892
5818 5893
5819 5894
5819 5895
5820 5896
5820 5897
5821 5822
5821 5898
5822 5899
5823 5900
5823 5901
5824 5902
5824 5903
5825 5826
5825 5904
5826 5905
5827 5906
5827 5907
5828 5908
5828 5909
5829 5830
5829 5910
5830 5911
5831 5912
5831 5913
5832 5914
5832 5915
5833 5834
5833 5916
5834 5917
5835 5918
5835 5919
5836 5920
5836 5921
5837 5838
5837 5922
5838 5923
5839 5924
5839 5925
5840 5926
5840 5927
5841 5842
5841 5928
5842 5929
5843 5930
5843 5931
5844 5932
5844 5933
5845 5846
5845 5934
5846 5935
5847 5936
5847 5937
5848 5938
5848 5939
5849 5850
5849 5940
5850 5941
5851 5942
5851 5943
5852 5944
5852 5945
5853 5854
5853 5946
5854 5947
5855 5948
5855 5949
5856 5950
5856 5951
5857 5858
5857 5952
5858 5953
5859 5954
5859 5955
5860 5956
5861 5862
5861 5957
5862 5957
5863 5864
5863 5958
5864 5958
5865 5866
5865 5959
5866 5959
5867 5868
5867 5960
5868 5960
5869 5870
5869 5961
5870 5961
5871 5872
5871 5962
5872 5962
5873 5874
5873 5963
5874 5963
5875 5876
5875 5964
5876 5964
5877 5878
5877 5965
5878 5965
5879 5880
5879 5966
5880 5966
5881 5882
5881 5967
5882 5967
5883 5884
5883 5968
5884 5968
5885 5886
5885 5969
5886 5969
5887 5888
5887 5970
5888 5970
5889 5890
5889 5971
5890 5971
5891 5892
5891 5972
5892 5972
5893 5894
5893 5973
5894 5973
5895 5896
5895 5974
5896 5974
5897 5898
5897 5975
5898 5975
5899 5900
5899 5976
5900 5976
5901 5902
5901 5977
5902 5977
5903 5904
5903 5978
5904 5978
5905 5906
5905 5979
5906 5979
5907 5908
5907 5980
5908 5980
5909 5910
5909 5981
5910 5981
5911 5912
5911 5982
5912 5982
5913 5914
5913 5983
5914 5983
5915 5916
5915 5984
5916 5984
5917 5918
5917 5985
5918 5985
5919 5920
5919 5986
5920 5986
5921 5922
5921 5987
5922 5987
5923 5924
5923 5988
5924 5988
5925 5926
5925 5989
5926 5989
5927 5928
5927 5990
5928 5990
5929 5930
5929 5991
5930 5991
5931 5932
5931 5992
5932 5992
5933 5934
5933 5993
5934 5993
5935 5936
5935 5994
5936 5994
5937 5938
5937 5995
5938 5995
5939 5940
5939 5996
5940 5996
5941 5942
5941 5997
5942 5997
5943 5944
5943 5998
5944 5998
5945 5946
5945 5999
5946 5999
5947 5948
5947 6000
5948 6000
5949 5950
5949 6001
5950 6001
5951 5952
5951 6002
5952 6002
5953 5954
5953 6003
5954 6003
5955 5956
5957 6004
5957 6005
5958 6069
5958 6070
5959 6071
5960 6008
5960 6009
5961 6072
5961 6073
5962 6074
5963 6012
5963 6013
5964 6075
5964 6076
5965 6077
5966 6016
5966 6017
5967 6078
5967 6079
5968 6080
5969 6020
5969 6021
5970 6081
5970 6082
5971 6083
5972 6024
5972 6025
5973 6084
5973 6085
5974 6086
5975 6028
5975 6029
5976 6087
5976 6088
5977 6089
5978 6032
5978 6033
5979 6090
5979 6091
5980 6092
5981 6036
5981 6037
5982 6093
5982 6094
5983 6095
5984 6040
5984 6041
5985 6096
5985 6097
5986 6098
5987 6044
5987 6045
5988 6099
5988 6100
5989 6101
5990 6048
5990 6049
5991 6102
5991 6103
5992 6104
5993 6052
5993 6053
5994 6105
5994 6106
5995 6107
5996 6056
5996 6057
5997 6108
5997 6109
5998 6110
5999 6060
5999 6061
6000 6111
6000 6112
6001 6113
6002 6064
6002 6065
6003 6114
6003 6115
6004 6005
6004 6068
6004 6116
6004 6117
6005 6006
6005 6116
6005 6117
6006 6069
6006 6117
6006 6118
6007 6070
6007 6119
6007 6120
6008 6009
6008 6071
6008 6121
6008 6122
6009 6010
6009 6121
6009 6122
6010 6072
6010 6122
6010 6123
6011 6073
6011 6124
6011 6125
6012 6013
6012 6074
6012 6126
6012 6127
6013 6014
6013 6126
6013 6127
6014 6075
6014 6127
6014 6128
6015 6076
6015 6129
6015 6130
6016 6017
6016 6077
6016 6131
6016 6132
6017 6018
6017 6131
6017 6132
6018 6078
6018 6132
6018 6133
6019 6079
6019 6134
6019 6135
6020 6021
6020 6080
6020 6136
6020 6137
6021 6022
6021 6136
6021 6137
6022 6081
6022 6137
6022 6138
6023 6082
6023 6139
6023 6140
6024 6025
6024 6083
6024 6141
6024 6142
6025 6026
6025 6141
6025 6142
6026 6084
6026 6142
6026 6143
6027 6085
6027 6144
6027 6145
6028 6029
6028 6086
6028 6146
6028 6147
6029 6030
6029 6146
6029 6147
6030 6087
6030 6147
6030 6148
6031 6088
6031 6149
6031 6150
6032 6033
6032 6089
6032 6151
6032 6152
6033 6034
6033 6151
6033 6152
6034 6090
6034 6152
6034 6153
6035 6091
6035 6154
6035 6155
6036 6037
6036 6092
6036 6156
6036 6157
6037 6038
6037 6156
6037 6157
6038 6093
6038 6157
6038 6158
6039 6094
6039 6159
6039 6160
6040 6041
6040 6095
6040 6161
6040 6162
6041 6042
6041 6161
6041 6162
6042 6096
6042 6162
6042 6163
6043 6097
6043 6164
6043 6165
6044 6045
6044 6098
6044 6166
6044 6167
6045 6046
6045 6166
6045 6167
6046 6099
6046 6167
6046 6168
6047 6100
6047 6169
6047 6170
6048 6049
6048 6101
6048 6171
6048 6172
6049 6050
6049 6171
6049 6172
6050 6102
6050 6172
6050 6173
6051 6103
6051 6174
6051 6175
6052 6053
6052 6104
6052 6176
6052 6177
6053 6054
6053 6176
6053 6177
6054 6105
6054 6177
6054 6178
6055 6106
6055 6179
6055 6180
6056 6057
6056 6107
6056 6181
6056 6182
6057 6058
6057 6181
6057 6182
6058 6108
6058 6182
6058 6183
6059 6109
6059 6184
6059 6185
6060 6061
6060 6110
6060 6186
6060 6187
6061 6062
6061 6186
6061 6187
6062 6111
6062 6187
6062 6188
6063 6112
6063 6189
6063 6190
6064 6065
6064 6113
6064 6191
6064 6192
6065 6066
6065 6191
6065 6192
6066 6114
6066 6192
6066 6193
6067 6115
6067 6194
6067 6195
6068 6116
6069 6070
6069 6118
6069 6196
6069 6197
6070 6119
6070 6196
6070 6197
6071 6121
6072 6073
6072 6123
6072 6198
6072 6199
6073 6124
6073 6198
6073 6199
6074 6126
6075 6076
6075 6128
6075 6200
6075 6201
6076 6129
6076 6200
6076 6201
6077 6131
6078 6079
6078 6133
6078 6202
6078 6203
6079 6134
6079 6202
6079 6203
6080 6136
6081 6082
6081 6138
6081 6204
6081 6205
6082 6139
6082 6204
6082 6205
6083 6141
6084 6085
6084 6143
6084 6206
6084 6207
6085 6144
6085 6206
6085 6207
6086 6146
6087 6088
6087 6148
6087 6208
6087 6209
6088 6149
6088 6208
6088 6209
6089 6151
6090 6091
6090 6153
6090 6210
6090 6211
6091 6154
6091 6210
6091 6211
6092 6156
6093 6094
6093 6158
6093 6212
6093 6213
6094 6159
6094 6212
6094 6213
6095 6161
6096 6097
6096 6163
6096 6214
6096 6215
6097 6164
6097 6214
6097 6215
6098 6166
6099 6100
6099 6168
6099 6216
6099 6217
6100 6169
6100 6216
6100 6217
6101 6171
6102 6103
6102 6173
6102 6218
6102 6219
6103 6174
6103 6218
6103 6219
6104 6176
6105 6106
6105 6178
6105 6220
6105 6221
6106 6179
6106 6220
6106 6221
6107 6181
6108 6109
6108 6183
6108 6222
6108 6223
6109 6184
6109 6222
6109 6223
6110 6186
6111 6112
6111 6188
6111 6224
6111 6225
6112 6189
6112 6224
6112 6225
6113 6191
6114 6115
6114 6193
6114 6226
6114 6227
6115 6194
6115 6226
6115 6227
6116 6117
6116 6228
6117 6228
6118 6196
6118 6229
6119 6197
6119 6230
6120 6231
6121 6122
6121 6232
6122 6232
6123 6198
6123 6233
6124 6199
6124 6234
6125 6235
6126 6127
6126 6236
6127 6236
6128 6200
6128 6237
6129 6201
6129 6238
6130 6239
6131 6132
6131 6240
6132 6240
6133 6202
6133 6241
6134 6203
6134 6242
6135 6243
6136 6137
6136 6244
6137 6244
6138 6204
6138 6245
6139 6205
6139 6246
6140 6247
6141 6142
6141 6248
6142 6248
6143 6206
6143 6249
6144 6207
6144 6250
6145 6251
6146 6147
6146 6252
6147 6252
6148 6208
6148 6253
6149 6209
6149 6254
6150 6255
6151 6152
6151 6256
6152 6256
6153 6210
6153 6257
6154 6211
6154 6258
6155 6259
6156 6157
6156 6260
6157 6260
6158 6212
6158 6261
6159 6213
6159 6262
6160 6263
6161 6162
6161 6264
6162 6264
6163 6214
6163 6265
6164 6215
6164 6266
6165 6267
6166 6167
6166 6268
6167 6268
6168 6216
6168 6269
6169 6217
6169 6270
6170 6271
6171 6172
6171 6272
6172 6272
6173 6218
6173 6273
6174 6219
6174 6274
6175 6275
6176 6177
6176 6276
6177 6276
6178 6220
6178 6277
6179 6221
6179 6278
6180 6279
6181 6182
6181 6280
6182 6280
6183 6222
6183 6281
6184 6223
6184 6282
6185 6283
6186 6187
6186 6284
6187 6284
6188 6224
6188 6285
6189 6225
6189 6286
6190 6287
6191 6192
6191 6288
6192 6288
6193 6226
6193 6289
6194 6227
6194 6290
6195 6291
6196 6197
6196 6229
6197 6230
6198 6199
6198 6233
6199 6234
6200 6201
6200 6237
6201 6238
6202 6203
6202 6241
6203 6242
6204 6205
6204 6245
6205 6246
6206 6207
6206 6249
6207 6250
6208 6209
6208 6253
6209 6254
6210 6211
6210 6257
6211 6258
6212 6213
6212 6261
6213 6262
6214 6215
6214 6265
6215 6266
6216 6217
6216 6269
6217 6270
6218 6219
6218 6273
6219 6274
6220 6221
6220 6277
6221 6278
6222 6223
6222 6281
6223 6282
6224 6225
6224 6285
6225 6286
6226 6227
6226 6289
6227 6290
6228 6292
6228 6293
6229 6293
6230 6294
6230 6295
6231 6296
6231 6297
6232 6298
6232 6299
6233 6299
6234 6300
6234 6301
6235 6302
6235 6303
6236 6304
6236 6305
6237 6305
6238 6306
6238 6307
6239 6308
6239 6309
6240 6310
6240 6311
6241 6311
6242 6312
6242 6313
6243 6314
6243 6315
6244 6316
6244 6317
6245 6317
6246 6318
6246 6319
6247 6320
6247 6321
6248 6322
6248 6323
6249 6323
6250 6324
6250 6325
6251 6326
6251 6327
6252 6328
6252 6329
6253 6329
6254 6330
6254 6331
6255 6332
6255 6333
6256 6334
6256 6335
6257 6335
6258 6336
6258 6337
6259 6338
6259 6339
6260 6340
6260 6341
6261 6341
6262 6342
6262 6343
6263 6344
6263 6345
6264 6346
6264 6347
6265 6347
6266 6348
6266 6349
6267 6350
6267 6351
6268 6352
6268 6353
6269 6353
6270 6354
6270 6355
6271 6356
6271 6357
6272 6358
6272 6359
6273 6359
6274 6360
6274 6361
6275 6362
6275 6363
6276 6364
6276 6365
6277 6365
6278 6366
6278 6367
6279 6368
6279 6369
6280 6370
6280 6371
6281 6371
6282 6372
6282 6373
6283 6374
6283 6375
6284 6376
6284 6377
6285 6377
6286 6378
6286 6379
6287 6380
6287 6381
6288 6382
6288 6383
6289 6383
6290 6384
6290 6385
6291 6386
6291 6387
6292 6293
6292 6388
6292 6453
6292 6454
6293 6389
6293 6453
6293 6454
6294 6295
6294 6390
6294 6455
6294 6456
6295 6391
6295 6455
6295 6456
6296 6297
6296 6391
6296 6457
6296 6458
6297 6392
6297 6457
6297 6458
6298 6299
6298 6392
6298 6459
6298 6460
6299 6393
6299 6459
6299 6460
6300 6301
6300 6394
6300 6461
6300 6462
6301 6395
6301 6461
6301 6462
6302 6303
6302 6395
6302 6463
6302 6464
6303 6396
6303 6463
6303 6464
6304 6305
6304 6396
6304 6465
6304 6466
6305 6397
6305 6465
6305 6466
6306 6307
6306 6398
6306 6467
6306 6468
6307 6399
6307 6467
6307 6468
6308 6309
6308 6399
6308 6469
6308 6470
6309 6400
6309 6469
6309 6470
6310 6311
6310 6400
6310 6471
6310 6472
6311 6401
6311 6471
6311 6472
6312 6313
6312 6402
6312 6473
6312 6474
6313 6403
6313 6473
6313 6474
6314 6315
6314 6403
6314 6475
6314 6476
6315 6404
6315 6475
6315 6476
6316 6317
6316 6404
6316 6477
6316 6478
6317 6405
6317 6477
6317 6478
6318 6319
6318 6406
6318 6479
6318 6480
6319 6407
6319 6479
6319 6480
6320 6321
6320 6407
6320 6481
6320 6482
6321 6408
6321 6481
6321 6482
6322 6323
6322 6408
6322 6483
6322 6484
6323 6409
6323 6483
6323 6484
6324 6325
6324 6410
6324 6485
6324 6486
6325 6411
6325 6485
6325 6486
6326 6327
6326 6411
6326 6487
6326 6488
6327 6412
6327 6487
6327 6488
6328 6329
6328 6412
6328 6489
6328 6490
6329 6413
6329 6489
6329 6490
6330 6331
6330 6414
6330 6491
6330 6492
6331 6415
6331 6491
6331 6492
6332 6333
6332 6415
6332 6493
6332 6494
6333 6416
6333 6493
6333 6494
6334 6335
6334 6416
6334 6495
6334 6496
6335 6417
6335 6495
6335 6496
6336 6337
6336 6418
6336 6497
6336 6498
6337 6419
6337 6497
6337 6498
6338 6339
6338 6419
6338 6499
6338 6500
6339 6420
6339 6499
6339 6500
6340 6341
6340 6420
6340 6501
6340 6502
6341 6421
6341 6501
6341 6502
6342 6343
6342 6422
6342 6503
6342 6504
6343 6423
6343 6503
6343 6504
6344 6345
6344 6423
6344 6505
6344 6506
6345 6424
6345 6505
6345 6506
6346 6347
6346 6424
6346 6507
6346 6508
6347 6425
6347 6507
6347 6508
6348 6349
6348 6426
6348 6509
6348 6510
6349 6427
6349 6509
6349 6510
6350 6351
6350 6427
6350 6511
6350 6512
6351 6428
6351 6511
6351 6512
6352 6353
6352 6428
6352 6513
6352 6514
6353 6429
6353 6513
6353 6514
6354 6355
6354 6430
6354 6515
6354 6516
6355 6431
6355 6515
6355 6516
6356 6357
6356 6431
6356 6517
6356 6518
6357 6432
6357 6517
6357 6518
6358 6359
6358 6432
6358 6519
6358 6520
6359 6433
6359 6519
6359 6520
6360 6361
6360 6434
6360 6521
6360 6522
6361 6435
6361 6521
6361 6522
6362 6363
6362 6435
6362 6523
6362 6524
6363 6436
6363 6523
6363 6524
6364 6365
6364 6436
6364 6525
6364 6526
6365 6437
6365 6525
6365 6526
6366 6367
6366 6438
6366 6527
6366 6528
6367 6439
6367 6527
6367 6528
6368 6369
6368 6439
6368 6529
6368 6530
6369 6440
6369 6529
6369 6530
6370 6371
6370 6440
6370 6531
6370 6532
6371 6441
6371 6531
6371 6532
6372 6373
6372 6442
6372 6533
6372 6534
6373 6443
6373 6533
6373 6534
6374 6375
6374 6443
6374 6535
6374 6536
6375 6444
6375 6535
6375 6536
6376 6377
6376 6444
6376 6537
6376 6538
6377 6445
6377 6537
6377 6538
6378 6379
6378 6446
6378 6539
6378 6540
6379 6447
6379 6539
6379 6540
6380 6381
6380 6447
6380 6541
6380 6542
6381 6448
6381 6541
6381 6542
6382 6383
6382 6448
6382 6543
6382 6544
6383 6449
6383 6543
6383 6544
6384 6385
6384 6450
6384 6545
6384 6546
6385 6451
6385 6545
6385 6546
6386 6387
6386 6451
6387 6452
6388 6453
6389 6390
6389 6454
6390 6455
6391 6456
6391 6457
6392 6458
6392 6459
6393 6394
6393 6460
6394 6461
6395 6462
6395 6463
6396 6464
6396 6465
6397 6398
6397 6466
6398 6467
6399 6468
6399 6469
6400 6470
6400 6471
6401 6402
6401 6472
6402 6473
6403 6474
6403 6475
6404 6476
6404 6477
6405 6406
6405 6478
6406 6479
6407 6480
6407 6481
6408 6482
6408 6483
6409 6410
6409 6484
6410 6485
6411 6486
6411 6487
6412 6488
6412 6489
6413 6414
6413 6490
6414 6491
6415 6492
6415 6493
6416 6494
6416 6495
6417 6418
6417 6496
6418 6497
6419 6498
6419 6499
6420 6500
6420 6501
6421 6422
6421 6502
6422 6503
6423 6504
6423 6505
6424 6506
6424 6507
6425 6426
6425 6508
6426 6509
6427 6510
6427 6511
6428 6512
6428 6513
6429 6430
6429 6514
6430 6515
6431 6516
6431 6517
6432 6518
6432 6519
6433 6434
6433 6520
6434 6521
6435 6522
6435 6523
6436 6524
6436 6525
6437 6438
6437 6526
6438 6527
6439 6528
6439 6529
6440 6530
6440 6531
6441 6442
6441 6532
6442 6533
6443 6534
6443 6535
6444 6536
6444 6537
6445 6446
6445 6538
6446 6539
6447 6540
6447 6541
6448 6542
6448 6543
6449 6450
6449 6544
6450 6545
6451 6546
6453 6454
6453 6547
6454 6547
6455 6456
6455 6548
6456 6548
6457 6458
6457 6549
6458 6549
6459 6460
6459 6550
6460 6550
6461 6462
6461 6551
6462 6551
6463 6464
6463 6552
6464 6552
6465 6466
6465 6553
6466 6553
6467 6468
6467 6554
6468 6554
6469 6470
6469 6555
6470 6555
6471 6472
6471 6556
6472 6556
6473 6474
6473 6557
6474 6557
6475 6476
6475 6558
6476 6558
6477 6478
6477 6559
6478 6559
6479 6480
6479 6560
6480 6560
6481 6482
6481 6561
6482 6561
6483 6484
6483 6562
6484 6562
6485 6486
6485 6563
6486 6563
6487 6488
6487 6564
6488 6564
6489 6490
6489 6565
6490 6565
6491 6492
6491 6566
6492 6566
6493 6494
6493 6567
6494 6567
6495 6496
6495 6568
6496 6568
6497 6498
6497 6569
6498 6569
6499 6500
6499 6570
6500 6570
6501 6502
6501 6571
6502 6571
6503 6504
6503 6572
6504 6572
6505 6506
6505 6573
6506 6573
6507 6508
6507 6574
6508 6574
6509 6510
6509 6575
6510 6575
6511 6512
6511 6576
6512 6576
6513 6514
6513 6577
6514 6577
6515 6516
6515 6578
6516 6578
6517 6518
6517 6579
6518 6579
6519 6520
6519 6580
6520 6580
6521 6522
6521 6581
6522 6581
6523 6524
6523 6582
6524 6582
6525 6526
6525 6583
6526 6583
6527 6528
6527 6584
6528 6584
6529 6530
6529 6585
6530 6585
6531 6532
6531 6586
6532 6586
6533 6534
6533 6587
6534 6587
6535 6536
6535 6588
6536 6588
6537 6538
6537 6589
6538 6589
6539 6540
6539 6590
6540 6590
6541 6542
6541 6591
6542 6591
6543 6544
6543 6592
6544 6592
6545 6546
6545 6593
6546 6593
6547 6594
6547 6595
6548 6659
6548 6660
6549 6661
6550 6598
6550 6599
6551 6662
6551 6663
6552 6664
6553 6602
6553 6603
6554 6665
6554 6666
6555 6667
6556 6606
6556 6607
6557 6668
6557 6669
6558 6670
6559 6610
6559 6611
6560 6671
6560 6672
6561 6673
6562 6614
6562 6615
6563 6674
6563 6675
6564 6676
6565 6618
6565 6619
6566 6677
6566 6678
6567 6679
6568 6622
6568 6623
6569 6680
6569 6681
6570 6682
6571 6626
6571 6627
6572 6683
6572 6684
6573 6685
6574 6630
6574 6631
6575 6686
6575 6687
6576 6688
6577 6634
6577 6635
6578 6689
6578 6690
6579 6691
6580 6638
6580 6639
6581 6692
6581 6693
6582 6694
6583 6642
6583 6643
6584 6695
6584 6696
6585 6697
6586 6646
6586 6647
6587 6698
6587 6699
6588 6700
6589 6650
6589 6651
6590 6701
6590 6702
6591 6703
6592 6654
6592 6655
6593 6704
6593 6705
6594 6595
6594 6658
6594 6706
6594 6707
6595 6596
6595 6706
6595 6707
6596 6659
6596 6707
6596 6708
6597 6660
6597 6709
6597 6710
6598 6599
6598 6661
6598 6711
6598 6712
6599 6600
6599 6711
6599 6712
6600 6662
6600 6712
6600 6713
6601 6663
6601 6714
6601 6715
6602 6603
6602 6664
6602 6716
6602 6717
6603 6604
6603 6716
6603 6717
6604 6665
6604 6717
6604 6718
6605 6666
6605 6719
6605 6720
6606 6607
6606 6667
6606 6721
6606 6722
6607 6608
6607 6721
6607 6722
6608 6668
6608 6722
6608 6723
6609 6669
6609 6724
6609 6725
6610 6611
6610 6670
6610 6726
6610 6727
6611 6612
6611 6726
6611 6727
6612 6671
6612 6727
6612 6728
6613 6672
6613 6729
6613 6730
6614 6615
6614 6673
6614 6731
6614 6732
6615 6616
6615 6731
6615 6732
6616 6674
6616 6732
6616 6733
6617 6675
6617 6734
6617 6735
6618 6619
6618 6676
6618 6736
6618 6737
6619 6620
6619 6736
6619 6737
6620 6677
6620 6737
6620 6738
6621 6678
6621 6739
6621 6740
6622 6623
6622 6679
6622 6741
6622 6742
6623 6624
6623 6741
6623 6742
6624 6680
6624 6742
6624 6743
6625 6681
6625 6744
6625 6745
6626 6627
6626 6682
6626 6746
6626 6747
6627 6628
6627 6746
6627 6747
6628 6683
6628 6747
6628 6748
6629 6684
6629 6749
6629 6750
6630 6631
6630 6685
6630 6751
6630 6752
6631 6632
6631 6751
6631 6752
6632 6686
6632 6752
6632 6753
6633 6687
6633 6754
6633 6755
6634 6635
6634 6688
6634 6756
6634 6757
6635 6636
6635 6756
6635 6757
6636 6689
6636 6757
6636 6758
6637 6690
6637 6759
6637 6760
6638 6639
6638 6691
6638 6761
6638 6762
6639 6640
6639 6761
6639 6762
6640 6692
6640 6762
6640 6763
6641 6693
6641 6764
6641 6765
6642 6643
6642 6694
6642 6766
6642 6767
6643 6644
6643 6766
6643 6767
6644 6695
6644 6767
6644 6768
6645 6696
6645 6769
6645 6770
6646 6647
6646 6697
6646 6771
6646 6772
6647 6648
6647 6771
6647 6772
6648 6698
6648 6772
6648 6773
6649 6699
6649 6774
6649 6775
6650 6651
6650 6700
6650 6776
6650 6777
6651 6652
6651 6776
6651 6777
6652 6701
6652 6777
6652 6778
6653 6702
6653 6779
6653 6780
6654 6655
6654 6703
6654 6781
6654 6782
6655 6656
6655 6781
6655 6782
6656 6704
6656 6782
6656 6783
6657 6705
6657 6784
6657 6785
6658 6706
6659 6660
6659 6708
6659 6786
6659 6787
6660 6709
6660 6786
6660 6787
6661 6711
6662 6663
6662 6713
6662 6788
6662 6789
6663 6714
6663 6788
6663 6789
6664 6716
6665 6666
6665 6718
6665 6790
6665 6791
6666 6719
6666 6790
6666 6791
6667 6721
6668 6669
6668 6723
6668 6792
6668 6793
6669 6724
6669 6792
6669 6793
6670 6726
6671 6672
6671 6728
6671 6794
6671 6795
6672 6729
6672 6794
6672 6795
6673 6731
6674 6675
6674 6733
6674 6796
6674 6797
6675 6734
6675 6796
6675 6797
6676 6736
6677 6678
6677 6738
6677 6798
6677 6799
6678 6739
6678 6798
6678 6799
6679 6741
6680 6681
6680 6743
6680 6800
6680 6801
6681 6744
6681 6800
6681 6801
6682 6746
6683 6684
6683 6748
6683 6802
6683 6803
6684 6749
6684 6802
6684 6803
6685 6751
6686 6687
6686 6753
6686 6804
6686 6805
6687 6754
6687 6804
6687 6805
6688 6756
6689 6690
6689 6758
6689 6806
6689 6807
6690 6759
6690 6806
6690 6807
6691 6761
6692 6693
6692 6763
6692 6808
6692 6809
6693 6764
6693 6808
6693 6809
6694 6766
6695 6696
6695 6768
6695 6810
6695 6811
6696 6769
6696 6810
6696 6811
6697 6771
6698 6699
6698 6773
6698 6812
6698 6813
6699 6774
6699 6812
6699 6813
6700 6776
6701 6702
6701 6778
6701 6814
6701 6815
6702 6779
6702 6814
6702 6815
6703 6781
6704 6705
6704 6783
6704 6816
6704 6817
6705 6784
6705 6816
6705 6817
6706 6707
6706 6818
6707 6818
6708 6786
6708 6819
6709 6787
6709 6820
6710 6821
6711 6712
6711 6822
6712 6822
6713 6788
6713 6823
6714 6789
6714 6824
6715 6825
6716 6717
6716 6826
6717 6826
6718 6790
6718 6827
6719 6791
6719 6828
6720 6829
6721 6722
6721 6830
6722 6830
6723 6792
6723 6831
6724 6793
6724 6832
6725 6833
6726 6727
6726 6834
6727 6834
6728 6794
6728 6835
6729 6795
6729 6836
6730 6837
6731 6732
6731 6838
6732 6838
6733 6796
6733 6839
6734 6797
6734 6840
6735 6841
6736 6737
6736 6842
6737 6842
6738 6798
6738 6843
6739 6799
6739 6844
6740 6845
6741 6742
6741 6846
6742 6846
6743 6800
6743 6847
6744 6801
6744 6848
6745 6849
6746 6747
6746 6850
6747 6850
6748 6802
6748 6851
6749 6803
6749 6852
6750 6853
6751 6752
6751 6854
6752 6854
6753 6804
6753 6855
6754 6805
6754 6856
6755 6857
6756 6757
6756 6858
6757 6858
6758 6806
6758 6859
6759 6807
6759 6860
6760 6861
6761 6762
6761 6862
6762 6862
6763 6808
6763 6863
6764 6809
6764 6864
6765 6865
6766 6767
6766 6866
6767 6866
6768 6810
6768 6867
6769 6811
6769 6868
6770 6869
6771 6772
6771 6870
6772 6870
6773 6812
6773 6871
6774 6813
6774 6872
6775 6873
6776 6777
6776 6874
6777 6874
6778 6814
6778 6875
6779 6815
6779 6876
6780 6877
6781 6782
6781 6878
6782 6878
6783 6816
6783 6879
6784 6817
6784 6880
6785 6881
6786 6787
6786 6819
6787 6820
6788 6789
6788 6823
6789 6824
6790 6791
6790 6827
6791 6828
6792 6793
6792 6831
6793 6832
6794 6795
6794 6835
6795 6836
6796 6797
6796 6839
6797 6840
6798 6799
6798 6843
6799 6844
6800 6801
6800 6847
6801 6848
6802 6803
6802 6851
6803 6852
6804 6805
6804 6855
6805 6856
6806 6807
6806 6859
6807 6860
6808 6809
6808 6863
6809 6864
6810 6811
6810 6867
6811 6868
6812 6813
6812 6871
6813 6872
6814 6815
6814 6875
6815 6876
6816 6817
6816 6879
6817 6880
6818 6882
6818 6883
6819 6883
6820 6884
6820 6885
6821 6886
6821 6887
6822 6888
6822 6889
6823 6889
6824 6890
6824 6891
6825 6892
6825 6893
6826 6894
6826 6895
6827 6895
6828 6896
6828 6897
6829 6898
6829 6899
6830 6900
6830 6901
6831 6901
6832 6902
6832 6903
6833 6904
6833 6905
6834 6906
6834 6907
6835 6907
6836 6908
6836 6909
6837 6910
6837 6911
6838 6912
6838 6913
6839 6913
6840 6914
6840 6915
6841 6916
6841 6917
6842 6918
6842 6919
6843 6919
6844 6920
6844 6921
6845 6922
6845 6923
6846 6924
6846 6925
6847 6925
6848 6926
6848 6927
6849 6928
6849 6929
6850 6930
6850 6931
6851 6931
6852 6932
6852 6933
6853 6934
6853 6935
6854 6936
6854 6937
6855 6937
6856 6938
6856 6939
6857 6940
6857 6941
6858 6942
6858 6943
6859 6943
6860 6944
6860 6945
6861 6946
6861 6947
6862 6948
6862 6949
6863 6949
6864 6950
6864 6951
6865 6952
6865 6953
6866 6954
6866 6955
6867 6955
6868 6956
6868 6957
6869 6958
6869 6959
6870 6960
6870 6961
6871 6961
6872 6962
6872 6963
6873 6964
6873 6965
6874 6966
6874 6967
6875 6967
6876 6968
6876 6969
6877 6970
6877 6971
6878 6972
6878 6973
6879 6973
6880 6974
6880 6975
6881 6976
6881 6977
6882 6883
6882 6978
6882 7043
6882 7044
6883 6979
6883 7043
6883 7044
6884 6885
6884 6980
6884 7045
6884 7046
6885 6981
6885 7045
6885 7046
6886 6887
6886 6981
6886 7047
6886 7048
6887 6982
6887 7047
6887 7048
6888 6889
6888 6982
6888 7049
6888 7050
6889 6983
6889 7049
6889 7050
6890 6891
6890 6984
6890 7051
6890 7052
6891 6985
6891 7051
6891 7052
6892 6893
6892 6985
6892 7053
6892 7054
6893 6986
6893 7053
6893 7054
6894 6895
6894 6986
6894 7055
6894 7056
6895 6987
6895 7055
6895 7056
6896 6897
6896 6988
6896 7057
6896 7058
6897 6989
6897 7057
6897 7058
6898 6899
6898 6989
6898 7059
6898 7060
6899 6990
6899 7059
6899 7060
6900 6901
6900 6990
6900 7061
6900 7062
6901 6991
6901 7061
6901 7062
6902 6903
6902 6992
6902 7063
6902 7064
6903 6993
6903 7063
6903 7064
6904 6905
6904 6993
6904 7065
6904 7066
6905 6994
6905 7065
6905 7066
6906 6907
6906 6994
6906 7067
6906 7068
6907 6995
6907 7067
6907 7068
6908 6909
6908 6996
6908 7069
6908 7070
6909 6997
6909 7069
6909 7070
6910 6911
6910 6997
6910 7071
6910 7072
6911 6998
6911 7071
6911 7072
6912 6913
6912 6998
6912 7073
6912 7074
6913 6999
6913 7073
6913 7074
6914 6915
6914 7000
6914 7075
6914 7076
6915 7001
6915 7075
6915 7076
6916 6917
6916 7001
6916 7077
6916 7078
6917 7002
6917 7077
6917 7078
6918 6919
6918 7002
6918 7079
6918 7080
6919 7003
6919 7079
6919 7080
6920 6921
6920 7004
6920 7081
6920 7082
6921 7005
6921 7081
6921 7082
6922 6923
6922 7005
6922 7083
6922 7084
6923 7006
6923 7083
6923 7084
6924 6925
6924 7006
6924 7085
6924 7086
6925 7007
6925 7085
6925 7086
6926 6927
6926 7008
6926 7087
6926 7088
6927 7009
6927 7087
6927 7088
6928 6929
6928 7009
6928 7089
6928 7090
6929 7010
6929 7089
6929 7090
6930 6931
6930 7010
6930 7091
6930 7092
6931 7011
6931 7091
6931 7092
6932 6933
6932 7012
6932 7093
6932 7094
6933 7013
6933 7093
6933 7094
6934 6935
6934 7013
6934 7095
6934 7096
6935 7014
6935 7095
6935 7096
6936 6937
6936 7014
6936 7097
6936 7098
6937 7015
6937 7097
6937 7098
6938 6939
6938 7016
6938 7099
6938 7100
6939 7017
6939 7099
6939 7100
6940 6941
6940 7017
6940 7101
6940 7102
6941 7018
6941 7101
6941 7102
6942 6943
6942 7018
6942 7103
6942 7104
6943 7019
6943 7103
6943 7104
6944 6945
6944 7020
6944 7105
6944 7106
6945 7021
6945 7105
6945 7106
6946 6947
6946 7021
6946 7107
6946 7108
6947 7022
6947 7107
6947 7108
6948 6949
6948 7022
6948 7109
6948 7110
6949 7023
6949 7109
6949 7110
6950 6951
6950 7024
6950 7111
6950 7112
6951 7025
6951 7111
6951 7112
6952 6953
6952 7025
6952 7113
6952 7114
6953 7026
6953 7113
6953 7114
6954 6955
6954 7026
6954 7115
6954 7116
6955 7027
6955 7115
6955 7116
6956 6957
6956 7028
6956 7117
6956 7118
6957 7029
6957 7117
6957 7118
6958 6959
6958 7029
6958 7119
6958 7120
6959 7030
6959 7119
6959 7120
6960 6961
6960 7030
6960 7121
6960 7122
6961 7031
6961 7121
6961 7122
6962 6963
6962 7032
6962 7123
6962 7124
6963 7033
6963 7123
6963 7124
6964 6965
6964 7033
6964 7125
6964 7126
6965 7034
6965 7125
6965 7126
6966 6967
6966 7034
6966 7127
6966 7128
6967 7035
6967 7127
6967 7128
6968 6969
6968 7036
6968 7129
6968 7130
6969 7037
6969 7129
6969 7130
6970 6971
6970 7037
6970 7131
6970 7132
6971 7038
6971 7131
6971 7132
6972 6973
6972 7038
6972 7133
6972 7134
6973 7039
6973 7133
6973 7134
6974 6975
6974 7040
6974 7135
6974 7136
6975 7041
6975 7135
6975 7136
6976 6977
6976 7041
6976 7137
6976 7138
6977 7042
6977 7137
6977 7138
6978 7043
6979 6980
6979 7044
6980 7045
6981 7046
6981 7047
6982 7048
6982 7049
6983 6984
6983 7050
6984 7051
6985 7052
6985 7053
6986 7054
6986 7055
6987 6988
6987 7056
6988 7057
6989 7058
6989 7059
6990 7060
6990 7061
6991 6992
6991 7062
6992 7063
6993 7064
6993 7065
6994 7066
6994 7067
6995 6996
6995 7068
6996 7069
6997 7070
6997 7071
6998 7072
6998 7073
6999 7000
6999 7074
7000 7075
7001 7076
7001 7077
7002 7078
7002 7079
7003 7004
7003 7080
7004 7081
7005 7082
7005 7083
7006 7084
7006 7085
7007 7008
7007 7086
7008 7087
7009 7088
7009 7089
7010 7090
7010 7091
7011 7012
7011 7092
7012 7093
7013 7094
7013 7095
7014 7096
7014 7097
7015 7016
7015 7098
7016 7099
7017 7100
7017 7101
7018 7102
7018 7103
7019 7020
7019 7104
7020 7105
7021 7106
7021 7107
7022 7108
7022 7109
7023 7024
7023 7110
7024 7111
7025 7112
7025 7113
7026 7114
7026 7115
7027 7028
7027 7116
7028 7117
7029 7118
7029 7119
7030 7120
7030 7121
7031 7032
7031 7122
7032 7123
7033 7124
7033 7125
7034 7126
7034 7127
7035 7036
7035 7128
7036 7129
7037 7130
7037 7131
7038 7132
7038 7133
7039 7040
7039 7134
7040 7135
7041 7136
7041 7137
7042 7138
7043 7044
7043 7139
7044 7139
7045 7046
7045 7140
7046 7140
7047 7048
7047 7141
7048 7141
7049 7050
7049 7142
7050 7142
7051 7052
7051 7143
7052 7143
7053 7054
7053 7144
7054 7144
7055 7056
7055 7145
7056 7145
7057 7058
7057 7146
7058 7146
7059 7060
7059 7147
7060 7147
7061 7062
7061 7148
7062 7148
7063 7064
7063 7149
7064 7149
7065 7066
7065 7150
7066 7150
7067 7068
7067 7151
7068 7151
7069 7070
7069 7152
7070 7152
7071 7072
7071 7153
7072 7153
7073 7074
7073 7154
7074 7154
7075 7076
7075 7155
7076 7155
7077 7078
7077 7156
7078 7156
7079 7080
7079 7157
7080 7157
7081 7082
7081 7158
7082 7158
7083 7084
7083 7159
7084 7159
7085 7086
7085 7160
7086 7160
7087 7088
7087 7161
7088 7161
7089 7090
7089 7162
7090 7162
7091 7092
7091 7163
7092 7163
7093 7094
7093 7164
7094 7164
7095 7096
7095 7165
7096 7165
7097 7098
7097 7166
7098 7166
7099 7100
7099 7167
7100 7167
7101 7102
7101 7168
7102 7168
7103 7104
7103 7169
7104 7169
7105 7106
7105 7170
7106 7170
7107 7108
7107 7171
7108 7171
7109 7110
7109 7172
7110 7172
7111 7112
7111 7173
7112 7173
7113 7114
7113 7174
7114 7174
7115 7116
7115 7175
7116 7175
7117 7118
7117 7176
7118 7176
7119 7120
7119 7177
7120 7177
7121 7122
7121 7178
7122 7178
7123 7124
7123 7179
7124 7179
7125 7126
7125 7180
7126 7180
7127 7128
7127 7181
7128 7181
7129 7130
7129 7182
7130 7182
7131 7132
7131 7183
7132 7183
7133 7134
7133 7184
7134 7184
7135 7136
7135 7185
7136 7185
7137 7138
7139 7186
7139 7187
7140 7251
7140 7252
7141 7253
7142 7190
7142 7191
7143 7254
7143 7255
7144 7256
7145 7194
7145 7195
7146 7257
7146 7258
7147 7259
7148 7198
7148 7199
7149 7260
7149 7261
7150 7262
7151 7202
7151 7203
7152 7263
7152 7264
7153 7265
7154 7206
7154 7207
7155 7266
7155 7267
7156 7268
7157 7210
7157 7211
7158 7269
7158 7270
7159 7271
7160 7214
7160 7215
7161 7272
7161 7273
7162 7274
7163 7218
7163 7219
7164 7275
7164 7276
7165 7277
7166 7222
7166 7223
7167 7278
7167 7279
7168 7280
7169 7226
7169 7227
7170 7281
7170 7282
7171 7283
7172 7230
7172 7231
7173 7284
7173 7285
7174 7286
7175 7234
7175 7235
7176 7287
7176 7288
7177 7289
7178 7238
7178 7239
7179 7290
7179 7291
7180 7292
7181 7242
7181 7243
7182 7293
7182 7294
7183 7295
7184 7246
7184 7247
7185 7296
7185 7297
7186 7187
7186 7250
7186 7298
7186 7299
7187 7188
7187 7298
7187 7299
7188 7251
7188 7299
7188 7300
7189 7252
7189 7301
7189 7302
7190 7191
7190 7253
7190 7303
7190 7304
7191 7192
7191 7303
7191 7304
7192 7254
7192 7304
7192 7305
7193 7255
7193 7306
7193 7307
7194 7195
7194 7256
7194 7308
7194 7309
7195 7196
7195 7308
7195 7309
7196 7257
7196 7309
7196 7310
7197 7258
7197 7311
7197 7312
7198 7199
7198 7259
7198 7313
7198 7314
7199 7200
7199 7313
7199 7314
7200 7260
7200 7314
7200 7315
7201 7261
7201 7316
7201 7317
7202 7203
7202 7262
7202 7318
7202 7319
7203 7204
7203 7318
7203 7319
7204 7263
7204 7319
7204 7320
7205 7264
7205 7321
7205 7322
7206 7207
7206 7265
7206 7323
7206 7324
7207 7208
7207 7323
7207 7324
7208 7266
7208 7324
7208 7325
7209 7267
7209 7326
7209 7327
7210 7211
7210 7268
7210 7328
7210 7329
7211 7212
7211 7328
7211 7329
7212 7269
7212 7329
7212 7330
7213 7270
7213 7331
7213 7332
7214 7215
7214 7271
7214 7333
7214 7334
7215 7216
7215 7333
7215 7334
7216 7272
7216 7334
7216 7335
7217 7273
7217 7336
7217 7337
7218 7219
7218 7274
7218 7338
7218 7339
7219 7220
7219 7338
7219 7339
7220 7275
7220 7339
7220 7340
7221 7276
7221 7341
7221 7342
7222 7223
7222 7277
7222 7343
7222 7344
7223 7224
7223 7343
7223 7344
7224 7278
7224 7344
7224 7345
7225 7279
7225 7346
7225 7347
7226 7227
7226 7280
7226 7348
7226 7349
7227 7228
7227 7348
7227 7349
7228 7281
7228 7349
7228 7350
7229 7282
7229 7351
7229 7352
7230 7231
7230 7283
7230 7353
7230 7354
7231 7232
7231 7353
7231 7354
7232 7284
7232 7354
7232 7355
7233 7285
7233 7356
7233 7357
7234 7235
7234 7286
7234 7358
7234 7359
7235 7236
7235 7358
7235 7359
7236 7287
7236 7359
7236 7360
7237 7288
7237 7361
7237 7362
7238 7239
7238 7289
7238 7363
7238 7364
7239 7240
7239 7363
7239 7364
7240 7290
7240 7364
7240 7365
7241 7291
7241 7366
7241 7367
7242 7243
7242 7292
7242 7368
7242 7369
7243 7244
7243 7368
7243 7369
7244 7293
7244 7369
7244 7370
7245 7294
7245 7371
7245 7372
7246 7247
7246 7295
7246 7373
7246 7374
7247 7248
7247 7373
7247 7374
7248 7296
7248 7374
7248 7375
7249 7297
7249 7376
7249 7377
7250 7298
7251 7252
7251 7300
7251 7378
7251 7379
7252 7301
7252 7378
7252 7379
7253 7303
7254 7255
7254 7305
7254 7380
7254 7381
7255 7306
7255 7380
7255 7381
7256 7308
7257 7258
7257 7310
7257 7382
7257 7383
7258 7311
7258 7382
7258 7383
7259 7313
7260 7261
7260 7315
7260 7384
7260 7385
7261 7316
7261 7384
7261 7385
7262 7318
7263 7264
7263 7320
7263 7386
7263 7387
7264 7321
7264 7386
7264 7387
7265 7323
7266 7267
7266 7325
7266 7388
7266 7389
7267 7326
7267 7388
7267 7389
7268 7328
7269 7270
7269 7330
7269 7390
7269 7391
7270 7331
7270 7390
7270 7391
7271 7333
7272 7273
7272 7335
7272 7392
7272 7393
7273 7336
7273 7392
7273 7393
7274 7338
7275 7276
7275 7340
7275 7394
7275 7395
7276 7341
7276 7394
7276 7395
7277 7343
7278 7279
7278 7345
7278 7396
7278 7397
7279 7346
7279 7396
7279 7397
7280 7348
7281 7282
7281 7350
7281 7398
7281 7399
7282 7351
7282 7398
7282 7399
7283 7353
7284 7285
7284 7355
7284 7400
7284 7401
7285 7356
7285 7400
7285 7401
7286 7358
7287 7288
7287 7360
7287 7402
7287 7403
7288 7361
7288 7402
7288 7403
7289 7363
7290 7291
7290 7365
7290 7404
7290 7405
7291 7366
7291 7404
7291 7405
7292 7368
7293 7294
7293 7370
7293 7406
7293 7407
7294 7371
7294 7406
7294 7407
7295 7373
7296 7297
7296 7375
7296 7408
7296 7409
7297 7376
7297 7408
7297 7409
7298 7299
7298 7410
7299 7410
7300 7378
7300 7411
7301 7379
7301 7412
7302 7413
7303 7304
7303 7414
7304 7414
7305 7380
7305 7415
7306 7381
7306 7416
7307 7417
7308 7309
7308 7418
7309 7418
7310 7382
7310 7419
7311 7383
7311 7420
7312 7421
7313 7314
7313 7422
7314 7422
7315 7384
7315 7423
7316 7385
7316 7424
7317 7425
7318 7319
7318 7426
7319 7426
7320 7386
7320 7427
7321 7387
7321 7428
7322 7429
7323 7324
7323 7430
7324 7430
7325 7388
7325 7431
7326 7389
7326 7432
7327 7433
7328 7329
7328 7434
7329 7434
7330 7390
7330 7435
7331 7391
7331 7436
7332 7437
7333 7334
7333 7438
7334 7438
7335 7392
7335 7439
7336 7393
7336 7440
7337 7441
7338 7339
7338 7442
7339 7442
7340 7394
7340 7443
7341 7395
7341 7444
7342 7445
7343 7344
7343 7446
7344 7446
7345 7396
7345 7447
7346 7397
7346 7448
7347 7449
7348 7349
7348 7450
7349 7450
7350 7398
7350 7451
7351 7399
7351 7452
7352 7453
7353 7354
7353 7454
7354 7454
7355 7400
7355 7455
7356 7401
7356 7456
7357 7457
7358 7359
7358 7458
7359 7458
7360 7402
7360 7459
7361 7403
7361 7460
7362 7461
7363 7364
7363 7462
7364 7462
7365 7404
7365 7463
7366 7405
7366 7464
7367 7465
7368 7369
7368 7466
7369 7466
7370 7406
7370 7467
7371 7407
7371 7468
7372 7469
7373 7374
7373 7470
7374 7470
7375 7408
7375 7471
7376 7409
7376 7472
7377 7473
7378 7379
7378 7411
7379 7412
7380 7381
7380 7415
7381 7416
7382 7383
7382 7419
7383 7420
7384 7385
7384 7423
7385 7424
7386 7387
7386 7427
7387 7428
7388 7389
7388 7431
7389 7432
7390 7391
7390 7435
7391 7436
7392 7393
7392 7439
7393 7440
7394 7395
7394 7443
7395 7444
7396 7397
7396 7447
7397 7448
7398 7399
7398 7451
7399 7452
7400 7401
7400 7455
7401 7456
7402 7403
7402 7459
7403 7460
7404 7405
7404 7463
7405 7464
7406 7407
7406 7467
7407 7468
7408 7409
7408 7471
7409 7472
7410 7474
7410 7475
7411 7475
7412 7476
7412 7477
7413 7478
7413 7479
7414 7480
7414 7481
7415 7481
7416 7482
7416 7483
7417 7484
7417 7485
7418 7486
7418 7487
7419 7487
7420 7488
7420 7489
7421 7490
7421 7491
7422 7492
7422 7493
7423 7493
7424 7494
7424 7495
7425 7496
7425 7497
7426 7498
7426 7499
7427 7499
7428 7500
7428 7501
7429 7502
7429 7503
7430 7504
7430 7505
7431 7505
7432 7506
7432 7507
7433 7508
7433 7509
7434 7510
7434 7511
7435 7511
7436 7512
7436 7513
7437 7514
7437 7515
7438 7516
7438 7517
7439 7517
7440 7518
7440 7519
7441 7520
7441 7521
7442 7522
7442 7523
7443 7523
7444 7524
7444 7525
7445 7526
7445 7527
7446 7528
7446 7529
7447 7529
7448 7530
7448 7531
7449 7532
7449 7533
7450 7534
7450 7535
7451 7535
7452 7536
7452 7537
7453 7538
7453 7539
7454 7540
7454 7541
7455 7541
7456 7542
7456 7543
7457 7544
7457 7545
7458 7546
7458 7547
7459 7547
7460 7548
7460 7549
7461 7550
7461 7551
7462 7552
7462 7553
7463 7553
7464 7554
7464 7555
7465 7556
7465 7557
7466 7558
7466 7559
7467 7559
7468 7560
7468 7561
7469 7562
7469 7563
7470 7564
7470 7565
7471 7565
7472 7566
7472 7567
7473 7568
7473 7569
7474 7475
7474 7570
7474 7635
7474 7636
7475 7571
7475 7635
7475 7636
7476 7477
7476 7572
7476 7637
7476 7638
7477 7573
7477 7637
7477 7638
7478 7479
7478 7573
7478 7639
7478 7640
7479 7574
7479 7639
7479 7640
7480 7481
7480 7574
7480 7641
7480 7642
7481 7575
7481 7641
7481 7642
7482 7483
7482 7576
7482 7643
7482 7644
7483 7577
7483 7643
7483 7644
7484 7485
7484 7577
7484 7645
7484 7646
7485 7578
7485 7645
7485 7646
7486 7487
7486 7578
7486 7647
7486 7648
7487 7579
7487 7647
7487 7648
7488 7489
7488 7580
7488 7649
7488 7650
7489 7581
7489 7649
7489 7650
7490 7491
7490 7581
7490 7651
7490 7652
7491 7582
7491 7651
7491 7652
7492 7493
7492 7582
7492 7653
7492 7654
7493 7583
7493 7653
7493 7654
7494 7495
7494 7584
7494 7655
7494 7656
7495 7585
7495 7655
7495 7656
7496 7497
7496 7585
7496 7657
7496 7658
7497 7586
7497 7657
7497 7658
7498 7499
7498 7586
7498 7659
7498 7660
7499 7587
7499 7659
7499 7660
7500 7501
7500 7588
7500 7661
7500 7662
7501 7589
7501 7661
7501 7662
7502 7503
7502 7589
7502 7663
7502 7664
7503 7590
7503 7663
7503 7664
7504 7505
7504 7590
7504 7665
7504 7666
7505 7591
7505 7665
7505 7666
7506 7507
7506 7592
7506 7667
7506 7668
7507 7593
7507 7667
7507 7668
7508 7509
7508 7593
7508 7669
7508 7670
7509 7594
7509 7669
7509 7670
7510 7511
7510 7594
7510 7671
7510 7672
7511 7595
7511 7671
7511 7672
7512 7513
7512 7596
7512 7673
7512 7674
7513 7597
7513 7673
7513 7674
7514 7515
7514 7597
7514 7675
7514 7676
7515 7598
7515 7675
7515 7676
7516 7517
7516 7598
7516 7677
7516 7678
7517 7599
7517 7677
7517 7678
7518 7519
7518 7600
7518 7679
7518 7680
7519 7601
7519 7679
7519 7680
7520 7521
7520 7601
7520 7681
7520 7682
7521 7602
7521 7681
7521 7682
7522 7523
7522 7602
7522 7683
7522 7684
7523 7603
7523 7683
7523 7684
7524 7525
7524 7604
7524 7685
7524 7686
7525 7605
7525 7685
7525 7686
7526 7527
7526 7605
7526 7687
7526 7688
7527 7606
7527 7687
7527 7688
7528 7529
7528 7606
7528 7689
7528 7690
7529 7607
7529 7689
7529 7690
7530 7531
7530 7608
7530 7691
7530 7692
7531 7609
7531 7691
7531 7692
7532 7533
7532 7609
7532 7693
7532 7694
7533 7610
7533 7693
7533 7694
7534 7535
7534 7610
7534 7695
7534 7696
7535 7611
7535 7695
7535 7696
7536 7537
7536 7612
7536 7697
7536 7698
7537 7613
7537 7697
7537 7698
7538 7539
7538 7613
7538 7699
7538 7700
7539 7614
7539 7699
7539 7700
7540 7541
7540 7614
7540 7701
7540 7702
7541 7615
7541 7701
7541 7702
7542 7543
7542 7616
7542 7703
7542 7704
7543 7617
7543 7703
7543 7704
7544 7545
7544 7617
7544 7705
7544 7706
7545 7618
7545 7705
7545 7706
7546 7547
7546 7618
7546 7707
7546 7708
7547 7619
7547 7707
7547 7708
7548 7549
7548 7620
7548 7709
7548 7710
7549 7621
7549 7709
7549 7710
7550 7551
7550 7621
7550 7711
7550 7712
7551 7622
7551 7711
7551 7712
7552 7553
7552 7622
7552 7713
7552 7714
7553 7623
7553 7713
7553 7714
7554 7555
7554 7624
7554 7715
7554 7716
7555 7625
7555 7715
7555 7716
7556 7557
7556 7625
7556 7717
7556 7718
7557 7626
7557 7717
7557 7718
7558 7559
7558 7626
7558 7719
7558 7720
7559 7627
7559 7719
7559 7720
7560 7561
7560 7628
7560 7721
7560 7722
7561 7629
7561 7721
7561 7722
7562 7563
7562 7629
7562 7723
7562 7724
7563 7630
7563 7723
7563 7724
7564 7565
7564 7630
7564 7725
7564 7726
7565 7631
7565 7725
7565 7726
7566 7567
7566 7632
7566 7727
7566 7728
7567 7633
7567 7727
7567 7728
7568 7569
7568 7633
7569 7634
7570 7635
7571 7572
7571 7636
7572 7637
7573 7638
7573 7639
7574 7640
7574 7641
7575 7576
7575 7642
7576 7643
7577 7644
7577 7645
7578 7646
7578 7647
7579 7580
7579 7648
7580 7649
7581 7650
7581 7651
7582 7652
7582 7653
7583 7584
7583 7654
7584 7655
7585 7656
7585 7657
7586 7658
7586 7659
7587 7588
7587 7660
7588 7661
7589 7662
7589 7663
7590 7664
7590 7665
7591 7592
7591 7666
7592 7667
7593 7668
7593 7669
7594 7670
7594 7671
7595 7596
7595 7672
7596 7673
7597 7674
7597 7675
7598 7676
7598 7677
7599 7600
7599 7678
7600 7679
7601 7680
7601 7681
7602 7682
7602 7683
7603 7604
7603 7684
7604 7685
7605 7686
7605 7687
7606 7688
7606 7689
7607 7608
7607 7690
7608 7691
7609 7692
7609 7693
7610 7694
7610 7695
7611 7612
7611 7696
7612 7697
7613 7698
7613 7699
7614 7700
7614 7701
7615 7616
7615 7702
7616 7703
7617 7704
7617 7705
7618 7706
7618 7707
7619 7620
7619 7708
7620 7709
7621 7710
7621 7711
7622 7712
7622 7713
7623 7624
7623 7714
7624 7715
7625 7716
7625 7717
7626 7718
7626 7719
7627 7628
7627 7720
7628 7721
7629 7722
7629 7723
7630 7724
7630 7725
7631 7632
7631 7726
7632 7727
7633 7728
7635 7636
7635 7729
7636 7729
7637 7638
7637 7730
7638 7730
7639 7640
7639 7731
7640 7731
7641 7642
7641 7732
7642 7732
7643 7644
7643 7733
7644 7733
7645 7646
7645 7734
7646 7734
7647 7648
7647 7735
7648 7735
7649 7650
7649 7736
7650 7736
7651 7652
7651 7737
7652 7737
7653 7654
7653 7738
7654 7738
7655 7656
7655 7739
7656 7739
7657 7658
7657 7740
7658 7740
7659 7660
7659 7741
7660 7741
7661 7662
7661 7742
7662 7742
7663 7664
7663 7743
7664 7743
7665 7666
7665 7744
7666 7744
7667 7668
7667 7745
7668 7745
7669 7670
7669 7746
7670 7746
7671 7672
7671 7747
7672 7747
7673 7674
7673 7748
7674 7748
7675 7676
7675 7749
7676 7749
7677 7678
7677 7750
7678 7750
7679 7680
7679 7751
7680 7751
7681 7682
7681 7752
7682 7752
7683 7684
7683 7753
7684 7753
7685 7686
7685 7754
7686 7754
7687 7688
7687 7755
7688 7755
7689 7690
7689 7756
7690 7756
7691 7692
7691 7757
7692 7757
7693 7694
7693 7758
7694 7758
7695 7696
7695 7759
7696 7759
7697 7698
7697 7760
7698 7760
7699 7700
7699 7761
7700 7761
7701 7702
7701 7762
7702 7762
7703 7704
7703 7763
7704 7763
7705 7706
7705 7764
7706 7764
7707 7708
7707 7765
7708 7765
7709 7710
7709 7766
7710 7766
7711 7712
7711 7767
7712 7767
7713 7714
7713 7768
7714 7768
7715 7716
7715 7769
7716 7769
7717 7718
7717 7770
7718 7770
7719 7720
7719 7771
7720 7771
7721 7722
7721 7772
7722 7772
7723 7724
7723 7773
7724 7773
7725 7726
7725 7774
7726 7774
7727 7728
7727 7775
7728 7775
7729 7776
7729 7777
7730 7841
7730 7842
7731 7843
7732 7780
7732 7781
7733 7844
7733 7845
7734 7846
7735 7784
7735 7785
7736 7847
7736 7848
7737 7849
7738 7788
7738 7789
7739 7850
7739 7851
7740 7852
7741 7792
7741 7793
7742 7853
7742 7854
7743 7855
7744 7796
7744 7797
7745 7856
7745 7857
7746 7858
7747 7800
7747 7801
7748 7859
7748 7860
7749 7861
7750 7804
7750 7805
7751 7862
7751 7863
7752 7864
7753 7808
7753 7809
7754 7865
7754 7866
7755 7867
7756 7812
7756 7813
7757 7868
7757 7869
7758 7870
7759 7816
7759 7817
7760 7871
7760 7872
7761 7873
7762 7820
7762 7821
7763 7874
7763 7875
7764 7876
7765 7824
7765 7825
7766 7877
7766 7878
7767 7879
7768 7828
7768 7829
7769 7880
7769 7881
7770 7882
7771 7832
7771 7833
7772 7883
7772 7884
7773 7885
7774 7836
7774 7837
7775 7886
7775 7887
7776 7777
7776 7840
7776 7888
7776 7889
7777 7778
7777 7888
7777 7889
7778 7841
7778 7889
7778 7890
7779 7842
7779 7891
7779 7892
7780 7781
7780 7843
7780 7893
7780 7894
7781 7782
7781 7893
7781 7894
7782 7844
7782 7894
7782 7895
7783 7845
7783 7896
7783 7897
7784 7785
7784 7846
7784 7898
7784 7899
7785 7786
7785 7898
7785 7899
7786 7847
7786 7899
7786 7900
7787 7848
7787 7901
7787 7902
7788 7789
7788 7849
7788 7903
7788 7904
7789 7790
7789 7903
7789 7904
7790 7850
7790 7904
7790 7905
7791 7851
7791 7906
7791 7907
7792 7793
7792 7852
7792 7908
7792 7909
7793 7794
7793 7908
7793 7909
7794 7853
7794 7909
7794 7910
7795 7854
7795 7911
7795 7912
7796 7797
7796 7855
7796 7913
7796 7914
7797 7798
7797 7913
7797 7914
7798 7856
7798 7914
7798 7915
7799 7857
7799 7916
7799 7917
7800 7801
7800 7858
7800 7918
7800 7919
7801 7802
7801 7918
7801 7919
7802 7859
7802 7919
7802 7920
7803 7860
7803 7921
7803 7922
7804 7805
7804 7861
7804 7923
7804 7924
7805 7806
7805 7923
7805 7924
7806 7862
7806 7924
7806 7925
7807 7863
7807 7926
7807 7927
7808 7809
7808 7864
7808 7928
7808 7929
7809 7810
7809 7928
7809 7929
7810 7865
7810 7929
7810 7930
7811 7866
7811 7931
7811 7932
7812 7813
7812 7867
7812 7933
7812 7934
7813 7814
7813 7933
7813 7934
7814 7868
7814 7934
7814 7935
7815 7869
7815 7936
7815 7937
7816 7817
7816 7870
7816 7938
7816 7939
7817 7818
7817 7938
7817 7939
7818 7871
7818 7939
7818 7940
7819 7872
7819 7941
7819 7942
7820 7821
7820 7873
7820 7943
7820 7944
7821 7822
7821 7943
7821 7944
7822 7874
7822 7944
7822 7945
7823 7875
7823 7946
7823 7947
7824 7825
7824 7876
7824 7948
7824 7949
7825 7826
7825 7948
7825 7949
7826 7877
7826 7949
7826 7950
7827 7878
7827 7951
7827 7952
7828 7829
7828 7879
7828 7953
7828 7954
7829 7830
7829 7953
7829 7954
7830 7880
7830 7954
7830 7955
7831 7881
7831 7956
7831 7957
7832 7833
7832 7882
7832 7958
7832 7959
7833 7834
7833 7958
7833 7959
7834 7883
7834 7959
7834 7960
7835 7884
7835 7961
7835 7962
7836 7837
7836 7885
7836 7963
7836 7964
7837 7838
7837 7963
7837 7964
7838 7886
7838 7964
7838 7965
7839 7887
7839 7966
7839 7967
7840 7888
7841 7842
7841 7890
7841 7968
7841 7969
7842 7891
7842 7968
7842 7969
7843 7893
7844 7845
7844 7895
7844 7970
7844 7971
7845 7896
7845 7970
7845 7971
7846 7898
7847 7848
7847 7900
7847 7972
7847 7973
7848 7901
7848 7972
7848 7973
7849 7903
7850 7851
7850 7905
7850 7974
7850 7975
7851 7906
7851 7974
7851 7975
7852 7908
7853 7854
7853 7910
7853 7976
7853 7977
7854 7911
7854 7976
7854 7977
7855 7913
7856 7857
7856 7915
7856 7978
7856 7979
7857 7916
7857 7978
7857 7979
7858 7918
7859 7860
7859 7920
7859 7980
7859 7981
7860 7921
7860 7980
7860 7981
7861 7923
7862 7863
7862 7925
7862 7982
7862 7983
7863 7926
7863 7982
7863 7983
7864 7928
7865 7866
7865 7930
7865 7984
7865 7985
7866 7931
7866 7984
7866 7985
7867 7933
7868 7869
7868 7935
7868 7986
7868 7987
7869 7936
7869 7986
7869 7987
7870 7938
7871 7872
7871 7940
7871 7988
7871 7989
7872 7941
7872 7988
7872 7989
7873 7943
7874 7875
7874 7945
7874 7990
7874 7991
7875 7946
7875 7990
7875 7991
7876 7948
7877 7878
7877 7950
7877 7992
7877 7993
7878 7951
7878 7992
7878 7993
7879 7953
7880 7881
7880 7955
7880 7994
7880 7995
7881 7956
7881 7994
7881 7995
7882 7958
7883 7884
7883 7960
7883 7996
7883 7997
7884 7961
7884 7996
7884 7997
7885 7963
7886 7887
7886 7965
7886 7998
7886 7999
7887 7966
7887 7998
7887 7999
7888 7889
7888 8000
7889 8000
7890 7968
7890 8001
7891 7969
7891 8002
7892 8003
7893 7894
7893 8004
7894 8004
7895 7970
7895 8005
7896 7971
7896 8006
7897 8007
7898 7899
7898 8008
7899 8008
7900 7972
7900 8009
7901 7973
7901 8010
7902 8011
7903 7904
7903 8012
7904 8012
7905 7974
7905 8013
7906 7975
7906 8014
7907 8015
7908 7909
7908 8016
7909 8016
7910 7976
7910 8017
7911 7977
7911 8018
7912 8019
7913 7914
7913 8020
7914 8020
7915 7978
7915 8021
7916 7979
7916 8022
7917 8023
7918 7919
7918 8024
7919 8024
7920 7980
7920 8025
7921 7981
7921 8026
7922 8027
7923 7924
7923 8028
7924 8028
7925 7982
7925 8029
7926 7983
7926 8030
7927 8031
7928 7929
7928 8032
7929 8032
7930 7984
7930 8033
7931 7985
7931 8034
7932 8035
7933 7934
7933 8036
7934 8036
7935 7986
7935 8037
7936 7987
7936 8038
7937 8039
7938 7939
7938 8040
7939 8040
7940 7988
7940 8041
7941 7989
7941 8042
7942 8043
7943 7944
7943 8044
7944 8044
7945 7990
7945 8045
7946 7991
7946 8046
7947 8047
7948 7949
7948 8048
7949 8048
7950 7992
7950 8049
7951 7993
7951 8050
7952 8051
7953 7954
7953 8052
7954 8052
7955 7994
7955 8053
7956 7995
7956 8054
7957 8055
7958 7959
7958 8056
7959 8056
7960 7996
7960 8057
7961 7997
7961 8058
7962 8059
7963 7964
7963 8060
7964 8060
7965 7998
7965 8061
7966 7999
7966 8062
7967 8063
7968 7969
7968 8001
7969 8002
7970 7971
7970 8005
7971 8006
7972 7973
7972 8009
7973 8010
7974 7975
7974 8013
7975 8014
7976 7977
7976 8017
7977 8018
7978 7979
7978 8021
7979 8022
7980 7981
7980 8025
7981 8026
7982 7983
7982 8029
7983 8030
7984 7985
7984 8033
7985 8034
7986 7987
7986 8037
7987 8038
7988 7989
7988 8041
7989 8042
7990 7991
7990 8045
7991 8046
7992 7993
7992 8049
7993 8050
7994 7995
7994 8053
7995 8054
7996 7997
7996 8057
7997 8058
7998 7999
7998 8061
7999 8062
8000 8064
8000 8065
8001 8065
8002 8066
8002 8067
8003 8068
8003 8069
8004 8070
8004 8071
8005 8071
8006 8072
8006 8073
8007 8074
8007 8075
8008 8076
8008 8077
8009 8077
8010 8078
8010 8079
8011 8080
8011 8081
8012 8082
8012 8083
8013 8083
8014 8084
8014 8085
8015 8086
8015 8087
8016 8088
8016 8089
8017 8089
8018 8090
8018 8091
8019 8092
8019 8093
8020 8094
8020 8095
8021 8095
8022 8096
8022 8097
8023 8098
8023 8099
8024 8100
8024 8101
8025 8101
8026 8102
8026 8103
8027 8104
8027 8105
8028 8106
8028 8107
8029 8107
8030 8108
8030 8109
8031 8110
8031 8111
8032 8112
8032 8113
8033 8113
8034 8114
8034 8115
8035 8116
8035 8117
8036 8118
8036 8119
8037 8119
8038 8120
8038 8121
8039 8122
8039 8123
8040 8124
8040 8125
8041 8125
8042 8126
8042 8127
8043 8128
8043 8129
8044 8130
8044 8131
8045 8131
8046 8132
8046 8133
8047 8134
8047 8135
8048 8136
8048 8137
8049 8137
8050 8138
8050 8139
8051 8140
8051 8141
8052 8142
8052 8143
8053 8143
8054 8144
8054 8145
8055 8146
8055 8147
8056 8148
8056 8149
8057 8149
8058 8150
8058 8151
8059 8152
8059 8153
8060 8154
8060 8155
8061 8155
8062 8156
8062 8157
8063 8158
8063 8159
8064 8065
8064 8160
8064 8225
8064 8226
8065 8161
8065 8225
8065 8226
8066 8067
8066 8162
8066 8227
8066 8228
8067 8163
8067 8227
8067 8228
8068 8069
8068 8163
8068 8229
8068 8230
8069 8164
8069 8229
8069 8230
8070 8071
8070 8164
8070 8231
8070 8232
8071 8165
8071 8231
8071 8232
8072 8073
8072 8166
8072 8233
8072 8234
8073 8167
8073 8233
8073 8234
8074 8075
8074 8167
8074 8235
8074 8236
8075 8168
8075 8235
8075 8236
8076 8077
8076 8168
8076 8237
8076 8238
8077 8169
8077 8237
8077 8238
8078 8079
8078 8170
8078 8239
8078 8240
8079 8171
8079 8239
8079 8240
8080 8081
8080 8171
8080 8241
8080 8242
8081 8172
8081 8241
8081 8242
8082 8083
8082 8172
8082 8243
8082 8244
8083 8173
8083 8243
8083 8244
8084 8085
8084 8174
8084 8245
8084 8246
8085 8175
8085 8245
8085 8246
8086 8087
8086 8175
8086 8247
8086 8248
8087 8176
8087 8247
8087 8248
8088 8089
8088 8176
8088 8249
8088 8250
8089 8177
8089 8249
8089 8250
8090 8091
8090 8178
8090 8251
8090 8252
8091 8179
8091 8251
8091 8252
8092 8093
8092 8179
8092 8253
8092 8254
8093 8180
8093 8253
8093 8254
8094 8095
8094 8180
8094 8255
8094 8256
8095 8181
8095 8255
8095 8256
8096 8097
8096 8182
8096 8257
8096 8258
8097 8183
8097 8257
8097 8258
8098 8099
8098 8183
8098 8259
8098 8260
8099 8184
8099 8259
8099 8260
8100 8101
8100 8184
8100 8261
8100 8262
8101 8185
8101 8261
8101 8262
8102 8103
8102 8186
8102 8263
8102 8264
8103 8187
8103 8263
8103 8264
8104 8105
8104 8187
8104 8265
8104 8266
8105 8188
8105 8265
8105 8266
8106 8107
8106 8188
8106 8267
8106 8268
8107 8189
8107 8267
8107 8268
8108 8109
8108 8190
8108 8269
8108 8270
8109 8191
8109 8269
8109 8270
8110 8111
8110 8191
8110 8271
8110 8272
8111 8192
8111 8271
8111 8272
8112 8113
8112 8192
8112 8273
8112 8274
8113 8193
8113 8273
8113 8274
8114 8115
8114 8194
8114 8275
8114 8276
8115 8195
8115 8275
8115 8276
8116 8117
8116 8195
8116 8277
8116 8278
8117 8196
8117 8277
8117 8278
8118 8119
8118 8196
8118 8279
8118 8280
8119 8197
8119 8279
8119 8280
8120 8121
8120 8198
8120 8281
8120 8282
8121 8199
8121 8281
8121 8282
8122 8123
8122 8199
8122 8283
8122 8284
8123 8200
8123 8283
8123 8284
8124 8125
8124 8200
8124 8285
8124 8286
8125 8201
8125 8285
8125 8286
8126 8127
8126 8202
8126 8287
8126 8288
8127 8203
8127 8287
8127 8288
8128 8129
8128 8203
8128 8289
8128 8290
8129 8204
8129 8289
8129 8290
8130 8131
8130 8204
8130 8291
8130 8292
8131 8205
8131 8291
8131 8292
8132 8133
8132 8206
8132 8293
8132 8294
8133 8207
8133 8293
8133 8294
8134 8135
8134 8207
8134 8295
8134 8296
8135 8208
8135 8295
8135 8296
8136 8137
8136 8208
8136 8297
8136 8298
8137 8209
8137 8297
8137 8298
8138 8139
8138 8210
8138 8299
8138 8300
8139 8211
8139 8299
8139 8300
8140 8141
8140 8211
8140 8301
8140 8302
8141 8212
8141 8301
8141 8302
8142 8143
8142 8212
8142 8303
8142 8304
8143 8213
8143 8303
8143 8304
8144 8145
8144 8214
8144 8305
8144 8306
8145 8215
8145 8305
8145 8306
8146 8147
8146 8215
8146 8307
8146 8308
8147 8216
8147 8307
8147 8308
8148 8149
8148 8216
8148 8309
8148 8310
8149 8217
8149 8309
8149 8310
8150 8151
8150 8218
8150 8311
8150 8312
8151 8219
8151 8311
8151 8312
8152 8153
8152 8219
8152 8313
8152 8314
8153 8220
8153 8313
8153 8314
8154 8155
8154 8220
8154 8315
8154 8316
8155 8221
8155 8315
8155 8316
8156 8157
8156 8222
8156 8317
8156 8318
8157 8223
8157 8317
8157 8318
8158 8159
8158 8223
8158 8319
8158 8320
8159 8224
8159 8319
8159 8320
8160 8225
8161 8162
8161 8226
8162 8227
8163 8228
8163 8229
8164 8230
8164 8231
8165 8166
8165 8232
8166 8233
8167 8234
8167 8235
8168 8236
8168 8237
8169 8170
8169 8238
8170 8239
8171 8240
8171 8241
8172 8242
8172 8243
8173 8174
8173 8244
8174 8245
8175 8246
8175 8247
8176 8248
8176 8249
8177 8178
8177 8250
8178 8251
8179 8252
8179 8253
8180 8254
8180 8255
8181 8182
8181 8256
8182 8257
8183 8258
8183 8259
8184 8260
8184 8261
8185 8186
8185 8262
8186 8263
8187 8264
8187 8265
8188 8266
8188 8267
8189 8190
8189 8268
8190 8269
8191 8270
8191 8271
8192 8272
8192 8273
8193 8194
8193 8274
8194 8275
8195 8276
8195 8277
8196 8278
8196 8279
8197 8198
8197 8280
8198 8281
8199 8282
8199 8283
8200 8284
8200 8285
8201 8202
8201 8286
8202 8287
8203 8288
8203 8289
8204 8290
8204 8291
8205 8206
8205 8292
8206 8293
8207 8294
8207 8295
8208 8296
8208 8297
8209 8210
8209 8298
8210 8299
8211 8300
8211 8301
8212 8302
8212 8303
8213 8214
8213 8304
8214 8305
8215 8306
8215 8307
8216 8308
8216 8309
8217 8218
8217 8310
8218 8311
8219 8312
8219 8313
8220 8314
8220 8315
8221 8222
8221 8316
8222 8317
8223 8318
8223 8319
8224 8320
8225 8226
8225 8321
8226 8321
8227 8228
8227 8322
8228 8322
8229 8230
8229 8323
8230 8323
8231 8232
8231 8324
8232 8324
8233 8234
8233 8325
8234 8325
8235 8236
8235 8326
8236 8326
8237 8238
8237 8327
8238 8327
8239 8240
8239 8328
8240 8328
8241 8242
8241 8329
8242 8329
8243 8244
8243 8330
8244 8330
8245 8246
8245 8331
8246 8331
8247 8248
8247 8332
8248 8332
8249 8250
8249 8333
8250 8333
8251 8252
8251 8334
8252 8334
8253 8254
8253 8335
8254 8335
8255 8256
8255 8336
8256 8336
8257 8258
8257 8337
8258 8337
8259 8260
8259 8338
8260 8338
8261 8262
8261 8339
8262 8339
8263 8264
8263 8340
8264 8340
8265 8266
8265 8341
8266 8341
8267 8268
8267 8342
8268 8342
8269 8270
8269 8343
8270 8343
8271 8272
8271 8344
8272 8344
8273 8274
8273 8345
8274 8345
8275 8276
8275 8346
8276 8346
8277 8278
8277 8347
8278 8347
8279 8280
8279 8348
8280 8348
8281 8282
8281 8349
8282 8349
8283 8284
8283 8350
8284 8350
8285 8286
8285 8351
8286 8351
8287 8288
8287 8352
8288 8352
8289 8290
8289 8353
8290 8353
8291 8292
8291 8354
8292 8354
8293 8294
8293 8355
8294 8355
8295 8296
8295 8356
8296 8356
8297 8298
8297 8357
8298 8357
8299 8300
8299 8358
8300 8358
8301 8302
8301 8359
8302 8359
8303 8304
8303 8360
8304 8360
8305 8306
8305 8361
8306 8361
8307 8308
8307 8362
8308 8362
8309 8310
8309 8363
8310 8363
8311 8312
8311 8364
8312 8364
8313 8314
8313 8365
8314 8365
8315 8316
8315 8366
8316 8366
8317 8318
8317 8367
8318 8367
8319 8320
8321 8368
8321 8369
8322 8433
8322 8434
8323 8435
8324 8372
8324 8373
8325 8436
8325 8437
8326 8438
8327 8376
8327 8377
8328 8439
8328 8440
8329 8441
8330 8380
8330 8381
8331 8442
8331 8443
8332 8444
8333 8384
8333 8385
8334 8445
8334 8446
8335 8447
8336 8388
8336 8389
8337 8448
8337 8449
8338 8450
8339 8392
8339 8393
8340 8451
8340 8452
8341 8453
8342 8396
8342 8397
8343 8454
8343 8455
8344 8456
8345 8400
8345 8401
8346 8457
8346 8458
8347 8459
8348 8404
8348 8405
8349 8460
8349 8461
8350 8462
8351 8408
8351 8409
8352 8463
8352 8464
8353 8465
8354 8412
8354 8413
8355 8466
8355 8467
8356 8468
8357 8416
8357 8417
8358 8469
8358 8470
8359 8471
8360 8420
8360 8421
8361 8472
8361 8473
8362 8474
8363 8424
8363 8425
8364 8475
8364 8476
8365 8477
8366 8428
8366 8429
8367 8478
8367 8479
8368 8369
8368 8432
8368 8480
8368 8481
8369 8370
8369 8480
8369 8481
8370 8433
8370 8481
8370 8482
8371 8434
8371 8483
8371 8484
8372 8373
8372 8435
8372 8485
8372 8486
8373 8374
8373 8485
8373 8486
8374 8436
8374 8486
8374 8487
8375 8437
8375 8488
8375 8489
8376 8377
8376 8438
8376 8490
8376 8491
8377 8378
8377 8490
8377 8491
8378 8439
8378 8491
8378 8492
8379 8440
8379 8493
8379 8494
8380 8381
8380 8441
8380 8495
8380 8496
8381 8382
8381 8495
8381 8496
8382 8442
8382 8496
8382 8497
8383 8443
8383 8498
8383 8499
8384 8385
8384 8444
8384 8500
8384 8501
8385 8386
8385 8500
8385 8501
8386 8445
8386 8501
8386 8502
8387 8446
8387 8503
8387 8504
8388 8389
8388 8447
8388 8505
8388 8506
8389 8390
8389 8505
8389 8506
8390 8448
8390 8506
8390 8507
8391 8449
8391 8508
8391 8509
8392 8393
8392 8450
8392 8510
8392 8511
8393 8394
8393 8510
8393 8511
8394 8451
8394 8511
8394 8512
8395 8452
8395 8513
8395 8514
8396 8397
8396 8453
8396 8515
8396 8516
8397 8398
8397 8515
8397 8516
8398 8454
8398 8516
8398 8517
8399 8455
8399 8518
8399 8519
8400 8401
8400 8456
8400 8520
8400 8521
8401 8402
8401 8520
8401 8521
8402 8457
8402 8521
8402 8522
8403 8458
8403 8523
8403 8524
8404 8405
8404 8459
8404 8525
8404 8526
8405 8406
8405 8525
8405 8526
8406 8460
8406 8526
8406 8527
8407 8461
8407 8528
8407 8529
8408 8409
8408 8462
8408 8530
8408 8531
8409 8410
8409 8530
8409 8531
8410 8463
8410 8531
8410 8532
8411 8464
8411 8533
8411 8534
8412 8413
8412 8465
8412 8535
8412 8536
8413 8414
8413 8535
8413 8536
8414 8466
8414 8536
8414 8537
8415 8467
8415 8538
8415 8539
8416 8417
8416 8468
8416 8540
8416 8541
8417 8418
8417 8540
8417 8541
8418 8469
8418 8541
8418 8542
8419 8470
8419 8543
8419 8544
8420 8421
8420 8471
8420 8545
8420 8546
8421 8422
8421 8545
8421 8546
8422 8472
8422 8546
8422 8547
8423 8473
8423 8548
8423 8549
8424 8425
8424 8474
8424 8550
8424 8551
8425 8426
8425 8550
8425 8551
8426 8475
8426 8551
8426 8552
8427 8476
8427 8553
8427 8554
8428 8429
8428 8477
8428 8555
8428 8556
8429 8430
8429 8555
8429 8556
8430 8478
8430 8556
8430 8557
8431 8479
8431 8558
8431 8559
8432 8480
8433 8434
8433 8482
8433 8560
8433 8561
8434 8483
8434 8560
8434 8561
8435 8485
8436 8437
8436 8487
8436 8562
8436 8563
8437 8488
8437 8562
8437 8563
8438 8490
8439 8440
8439 8492
8439 8564
8439 8565
8440 8493
8440 8564
8440 8565
8441 8495
8442 8443
8442 8497
8442 8566
8442 8567
8443 8498
8443 8566
8443 8567
8444 8500
8445 8446
8445 8502
8445 8568
8445 8569
8446 8503
8446 8568
8446 8569
8447 8505
8448 8449
8448 8507
8448 8570
8448 8571
8449 8508
8449 8570
8449 8571
8450 8510
8451 8452
8451 8512
8451 8572
8451 8573
8452 8513
8452 8572
8452 8573
8453 8515
8454 8455
8454 8517
8454 8574
8454 8575
8455 8518
8455 8574
8455 8575
8456 8520
8457 8458
8457 8522
8457 8576
8457 8577
8458 8523
8458 8576
8458 8577
8459 8525
8460 8461
8460 8527
8460 8578
8460 8579
8461 8528
8461 8578
8461 8579
8462 8530
8463 8464
8463 8532
8463 8580
8463 8581
8464 8533
8464 8580
8464 8581
8465 8535
8466 8467
8466 8537
8466 8582
8466 8583
8467 8538
8467 8582
8467 8583
8468 8540
8469 8470
8469 8542
8469 8584
8469 8585
8470 8543
8470 8584
8470 8585
8471 8545
8472 8473
8472 8547
8472 8586
8472 8587
8473 8548
8473 8586
8473 8587
8474 8550
8475 8476
8475 8552
8475 8588
8475 8589
8476 8553
8476 8588
8476 8589
8477 8555
8478 8479
8478 8557
8478 8590
8478 8591
8479 8558
8479 8590
8479 8591
8480 8481
8480 8592
8481 8592
8482 8560
8482 8593
8483 8561
8483 8594
8484 8595
8485 8486
8485 8596
8486 8596
8487 8562
8487 8597
8488 8563
8488 8598
8489 8599
8490 8491
8490 8600
8491 8600
8492 8564
8492 8601
8493 8565
8493 8602
8494 8603
8495 8496
8495 8604
8496 8604
8497 8566
8497 8605
8498 8567
8498 8606
8499 8607
8500 8501
8500 8608
8501 8608
8502 8568
8502 8609
8503 8569
8503 8610
8504 8611
8505 8506
8505 8612
8506 8612
8507 8570
8507 8613
8508 8571
8508 8614
8509 8615
8510 8511
8510 8616
8511 8616
8512 8572
8512 8617
8513 8573
8513 8618
8514 8619
8515 8516
8515 8620
8516 8620
8517 8574
8517 8621
8518 8575
8518 8622
8519 8623
8520 8521
8520 8624
8521 8624
8522 8576
8522 8625
8523 8577
8523 8626
8524 8627
8525 8526
8525 8628
8526 8628
8527 8578
8527 8629
8528 8579
8528 8630
8529 8631
8530 8531
8530 8632
8531 8632
8532 8580
8532 8633
8533 8581
8533 8634
8534 8635
8535 8536
8535 8636
8536 8636
8537 8582
8537 8637
8538 8583
8538 8638
8539 8639
8540 8541
8540 8640
8541 8640
8542 8584
8542 8641
8543 8585
8543 8642
8544 8643
8545 8546
8545 8644
8546 8644
8547 8586
8547 8645
8548 8587
8548 8646
8549 8647
8550 8551
8550 8648
8551 8648
8552 8588
8552 8649
8553 8589
8553 8650
8554 8651
8555 8556
8555 8652
8556 8652
8557 8590
8557 8653
8558 8591
8558 8654
8559 8655
8560 8561
8560 8593
8561 8594
8562 8563
8562 8597
8563 8598
8564 8565
8564 8601
8565 8602
8566 8567
8566 8605
8567 8606
8568 8569
8568 8609
8569 8610
8570 8571
8570 8613
8571 8614
8572 8573
8572 8617
8573 8618
8574 8575
8574 8621
8575 8622
8576 8577
8576 8625
8577 8626
8578 8579
8578 8629
8579 8630
8580 8581
8580 8633
8581 8634
8582 8583
8582 8637
8583 8638
8584 8585
8584 8641
8585 8642
8586 8587
8586 8645
8587 8646
8588 8589
8588 8649
8589 8650
8590 8591
8590 8653
8591 8654
8592 8656
8592 8657
8593 8657
8594 8658
8594 8659
8595 8660
8595 8661
8596 8662
8596 8663
8597 8663
8598 8664
8598 8665
8599 8666
8599 8667
8600 8668
8600 8669
8601 8669
8602 8670
8602 8671
8603 8672
8603 8673
8604 8674
8604 8675
8605 8675
8606 8676
8606 8677
8607 8678
8607 8679
8608 8680
8608 8681
8609 8681
8610 8682
8610 8683
8611 8684
8611 8685
8612 8686
8612 8687
8613 8687
8614 8688
8614 8689
8615 8690
8615 8691
8616 8692
8616 8693
8617 8693
8618 8694
8618 8695
8619 8696
8619 8697
8620 8698
8620 8699
8621 8699
8622 8700
8622 8701
8623 8702
8623 8703
8624 8704
8624 8705
8625 8705
8626 8706
8626 8707
8627 8708
8627 8709
8628 8710
8628 8711
8629 8711
8630 8712
8630 8713
8631 8714
8631 8715
8632 8716
8632 8717
8633 8717
8634 8718
8634 8719
8635 8720
8635 8721
8636 8722
8636 8723
8637 8723
8638 8724
8638 8725
8639 8726
8639 8727
8640 8728
8640 8729
8641 8729
8642 8730
8642 8731
8643 8732
8643 8733
8644 8734
8644 8735
8645 8735
8646 8736
8646 8737
8647 8738
8647 8739
8648 8740
8648 8741
8649 8741
8650 8742
8650 8743
8651 8744
8651 8745
8652 8746
8652 8747
8653 8747
8654 8748
8654 8749
8655 8750
8655 8751
8656 8657
8656 8752
8656 8817
8656 8818
8657 8753
8657 8817
8657 8818
8658 8659
8658 8754
8658 8819
8658 8820
8659 8755
8659 8819
8659 8820
8660 8661
8660 8755
8660 8821
8660 8822
8661 8756
8661 8821
8661 8822
8662 8663
8662 8756
8662 8823
8662 8824
8663 8757
8663 8823
8663 8824
8664 8665
8664 8758
8664 8825
8664 8826
8665 8759
8665 8825
8665 8826
8666 8667
8666 8759
8666 8827
8666 8828
8667 8760
8667 8827
8667 8828
8668 8669
8668 8760
8668 8829
8668 8830
8669 8761
8669 8829
8669 8830
8670 8671
8670 8762
8670 8831
8670 8832
8671 8763
8671 8831
8671 8832
8672 8673
8672 8763
8672 8833
8672 8834
8673 8764
8673 8833
8673 8834
8674 8675
8674 8764
8674 8835
8674 8836
8675 8765
8675 8835
8675 8836
8676 8677
8676 8766
8676 8837
8676 8838
8677 8767
8677 8837
8677 8838
8678 8679
8678 8767
8678 8839
8678 8840
8679 8768
8679 8839
8679 8840
8680 8681
8680 8768
8680 8841
8680 8842
8681 8769
8681 8841
8681 8842
8682 8683
8682 8770
8682 8843
8682 8844
8683 8771
8683 8843
8683 8844
8684 8685
8684 8771
8684 8845
8684 8846
8685 8772
8685 8845
8685 8846
8686 8687
8686 8772
8686 8847
8686 8848
8687 8773
8687 8847
8687 8848
8688 8689
8688 8774
8688 8849
8688 8850
8689 8775
8689 8849
8689 8850
8690 8691
8690 8775
8690 8851
8690 8852
8691 8776
8691 8851
8691 8852
8692 8693
8692 8776
8692 8853
8692 8854
8693 8777
8693 8853
8693 8854
8694 8695
8694 8778
8694 8855
8694 8856
8695 8779
8695 8855
8695 8856
8696 8697
8696 8779
8696 8857
8696 8858
8697 8780
8697 8857
8697 8858
8698 8699
8698 8780
8698 8859
8698 8860
8699 8781
8699 8859
8699 8860
8700 8701
8700 8782
8700 8861
8700 8862
8701 8783
8701 8861
8701 8862
8702 8703
8702 8783
8702 8863
8702 8864
8703 8784
8703 8863
8703 8864
8704 8705
8704 8784
8704 8865
8704 8866
8705 8785
8705 8865
8705 8866
8706 8707
8706 8786
8706 8867
8706 8868
8707 8787
8707 8867
8707 8868
8708 8709
8708 8787
8708 8869
8708 8870
8709 8788
8709 8869
8709 8870
8710 8711
8710 8788
8710 8871
8710 8872
8711 8789
8711 8871
8711 8872
8712 8713
8712 8790
8712 8873
8712 8874
8713 8791
8713 8873
8713 8874
8714 8715
8714 8791
8714 8875
8714 8876
8715 8792
8715 8875
8715 8876
8716 8717
8716 8792
8716 8877
8716 8878
8717 8793
8717 8877
8717 8878
8718 8719
8718 8794
8718 8879
8718 8880
8719 8795
8719 8879
8719 8880
8720 8721
8720 8795
8720 8881
8720 8882
8721 8796
8721 8881
8721 8882
8722 8723
8722 8796
8722 8883
8722 8884
8723 8797
8723 8883
8723 8884
8724 8725
8724 8798
8724 8885
8724 8886
8725 8799
8725 8885
8725 8886
8726 8727
8726 8799
8726 8887
8726 8888
8727 8800
8727 8887
8727 8888
8728 8729
8728 8800
8728 8889
8728 8890
8729 8801
8729 8889
8729 8890
8730 8731
8730 8802
8730 8891
8730 8892
8731 8803
8731 8891
8731 8892
8732 8733
8732 8803
8732 8893
8732 8894
8733 8804
8733 8893
8733 8894
8734 8735
8734 8804
8734 8895
8734 8896
8735 8805
8735 8895
8735 8896
8736 8737
8736 8806
8736 8897
8736 8898
8737 8807
8737 8897
8737 8898
8738 8739
8738 8807
8738 8899
8738 8900
8739 8808
8739 8899
8739 8900
8740 8741
8740 8808
8740 8901
8740 8902
8741 8809
8741 8901
8741 8902
8742 8743
8742 8810
8742 8903
8742 8904
8743 8811
8743 8903
8743 8904
8744 8745
8744 8811
8744 8905
8744 8906
8745 8812
8745 8905
8745 8906
8746 8747
8746 8812
8746 8907
8746 8908
8747 8813
8747 8907
8747 8908
8748 8749
8748 8814
8748 8909
8748 8910
8749 8815
8749 8909
8749 8910
8750 8751
8750 8815
8750 8911
8750 8912
8751 8816
8751 8911
8751 8912
8752 8817
8753 8754
8753 8818
8754 8819
8755 8820
8755 8821
8756 8822
8756 8823
8757 8758
8757 8824
8758 8825
8759 8826
8759 8827
8760 8828
8760 8829
8761 8762
8761 8830
8762 8831
8763 8832
8763 8833
8764 8834
8764 8835
8765 8766
8765 8836
8766 8837
8767 8838
8767 8839
8768 8840
8768 8841
8769 8770
8769 8842
8770 8843
8771 8844
8771 8845
8772 8846
8772 8847
8773 8774
8773 8848
8774 8849
8775 8850
8775 8851
8776 8852
8776 8853
8777 8778
8777 8854
8778 8855
8779 8856
8779 8857
8780 8858
8780 8859
8781 8782
8781 8860
8782 8861
8783 8862
8783 8863
8784 8864
8784 8865
8785 8786
8785 8866
8786 8867
8787 8868
8787 8869
8788 8870
8788 8871
8789 8790
8789 8872
8790 8873
8791 8874
8791 8875
8792 8876
8792 8877
8793 8794
8793 8878
8794 8879
8795 8880
8795 8881
8796 8882
8796 8883
8797 8798
8797 8884
8798 8885
8799 8886
8799 8887
8800 8888
8800 8889
8801 8802
8801 8890
8802 8891
8803 8892
8803 8893
8804 8894
8804 8895
8805 8806
8805 8896
8806 8897
8807 8898
8807 8899
8808 8900
8808 8901
8809 8810
8809 8902
8810 8903
8811 8904
8811 8905
8812 8906
8812 8907
8813 8814
8813 8908
8814 8909
8815 8910
8815 8911
8816 8912
8817 8818
8817 8913
8818 8913
8819 8820
8819 8914
8820 8914
8821 8822
8821 8915
8822 8915
8823 8824
8823 8916
8824 8916
8825 8826
8825 8917
8826 8917
8827 8828
8827 8918
8828 8918
8829 8830
8829 8919
8830 8919
8831 8832
8831 8920
8832 8920
8833 8834
8833 8921
8834 8921
8835 8836
8835 8922
8836 8922
8837 8838
8837 8923
8838 8923
8839 8840
8839 8924
8840 8924
8841 8842
8841 8925
8842 8925
8843 8844
8843 8926
8844 8926
8845 8846
8845 8927
8846 8927
8847 8848
8847 8928
8848 8928
8849 8850
8849 8929
8850 8929
8851 8852
8851 8930
8852 8930
8853 8854
8853 8931
8854 8931
8855 8856
8855 8932
8856 8932
8857 8858
8857 8933
8858 8933
8859 8860
8859 8934
8860 8934
8861 8862
8861 8935
8862 8935
8863 8864
8863 8936
8864 8936
8865 8866
8865 8937
8866 8937
8867 8868
8867 8938
8868 8938
8869 8870
8869 8939
8870 8939
8871 8872
8871 8940
8872 8940
8873 8874
8873 8941
8874 8941
8875 8876
8875 8942
8876 8942
8877 8878
8877 8943
8878 8943
8879 8880
8879 8944
8880 8944
8881 8882
8881 8945
8882 8945
8883 8884
8883 8946
8884 8946
8885 8886
8885 8947
8886 8947
8887 8888
8887 8948
8888 8948
8889 8890
8889 8949
8890 8949
8891 8892
8891 8950
8892 8950
8893 8894
8893 8951
8894 8951
8895 8896
8895 8952
8896 8952
8897 8898
8897 8953
8898 8953
8899 8900
8899 8954
8900 8954
8901 8902
8901 8955
8902 8955
8903 8904
8903 8956
8904 8956
8905 8906
8905 8957
8906 8957
8907 8908
8907 8958
8908 8958
8909 8910
8909 8959
8910 8959
8911 8912
8913 8960
8913 8961
8914 9025
8914 9026
8915 9027
8916 8964
8916 8965
8917 9028
8917 9029
8918 9030
8919 8968
8919 8969
8920 9031
8920 9032
8921 9033
8922 8972
8922 8973
8923 9034
8923 9035
8924 9036
8925 8976
8925 8977
8926 9037
8926 9038
8927 9039
8928 8980
8928 8981
8929 9040
8929 9041
8930 9042
8931 8984
8931 8985
8932 9043
8932 9044
8933 9045
8934 8988
8934 8989
8935 9046
8935 9047
8936 9048
8937 8992
8937 8993
8938 9049
8938 9050
8939 9051
8940 8996
8940 8997
8941 9052
8941 9053
8942 9054
8943 9000
8943 9001
8944 9055
8944 9056
8945 9057
8946 9004
8946 9005
8947 9058
8947 9059
8948 9060
8949 9008
8949 9009
8950 9061
8950 9062
8951 9063
8952 9012
8952 9013
8953 9064
8953 9065
8954 9066
8955 9016
8955 9017
8956 9067
8956 9068
8957 9069
8958 9020
8958 9021
8959 9070
8959 9071
8960 8961
8960 9024
8960 9072
8960 9073
8961 8962
8961 9072
8961 9073
8962 9025
8962 9073
8962 9074
8963 9026
8963 9075
8963 9076
8964 8965
8964 9027
8964 9077
8964 9078
8965 8966
8965 9077
8965 9078
8966 9028
8966 9078
8966 9079
8967 9029
8967 9080
8967 9081
8968 8969
8968 9030
8968 9082
8968 9083
8969 8970
8969 9082
8969 9083
8970 9031
8970 9083
8970 9084
8971 9032
8971 9085
8971 9086
8972 8973
8972 9033
8972 9087
8972 9088
8973 8974
8973 9087
8973 9088
8974 9034
8974 9088
8974 9089
8975 9035
8975 9090
8975 9091
8976 8977
8976 9036
8976 9092
8976 9093
8977 8978
8977 9092
8977 9093
8978 9037
8978 9093
8978 9094
8979 9038
8979 9095
8979 9096
8980 8981
8980 9039
8980 9097
8980 9098
8981 8982
8981 9097
8981 9098
8982 9040
8982 9098
8982 9099
8983 9041
8983 9100
8983 9101
8984 8985
8984 9042
8984 9102
8984 9103
8985 8986
8985 9102
8985 9103
8986 9043
8986 9103
8986 9104
8987 9044
8987 9105
8987 9106
8988 8989
8988 9045
8988 9107
8988 9108
8989 8990
8989 9107
8989 9108
8990 9046
8990 9108
8990 9109
8991 9047
8991 9110
8991 9111
8992 8993
8992 9048
8992 9112
8992 9113
8993 8994
8993 9112
8993 9113
8994 9049
8994 9113
8994 9114
8995 9050
8995 9115
8995 9116
8996 8997
8996 9051
8996 9117
8996 9118
8997 8998
8997 9117
8997 9118
8998 9052
8998 9118
8998 9119
8999 9053
8999 9120
8999 9121
9000 9001
9000 9054
9000 9122
9000 9123
9001 9002
9001 9122
9001 9123
9002 9055
9002 9123
9002 9124
9003 9056
9003 9125
9003 9126
9004 9005
9004 9057
9004 9127
9004 9128
9005 9006
9005 9127
9005 9128
9006 9058
9006 9128
9006 9129
9007 9059
9007 9130
9007 9131
9008 9009
9008 9060
9008 9132
9008 9133
9009 9010
9009 9132
9009 9133
9010 9061
9010 9133
9010 9134
9011 9062
9011 9135
9011 9136
9012 9013
9012 9063
9012 9137
9012 9138
9013 9014
9013 9137
9013 9138
9014 9064
9014 9138
9014 9139
9015 9065
9015 9140
9015 9141
9016 9017
9016 9066
9016 9142
9016 9143
9017 9018
9017 9142
9017 9143
9018 9067
9018 9143
9018 9144
9019 9068
9019 9145
9019 9146
9020 9021
9020 9069
9020 9147
9020 9148
9021 9022
9021 9147
9021 9148
9022 9070
9022 9148
9022 9149
9023 9071
9023 9150
9023 9151
9024 9072
9025 9026
9025 9074
9025 9152
9025 9153
9026 9075
9026 9152
9026 9153
9027 9077
9028 9029
9028 9079
9028 9154
9028 9155
9029 9080
9029 9154
9029 9155
9030 9082
9031 9032
9031 9084
9031 9156
9031 9157
9032 9085
9032 9156
9032 9157
9033 9087
9034 9035
9034 9089
9034 9158
9034 9159
9035 9090
9035 9158
9035 9159
9036 9092
9037 9038
9037 9094
9037 9160
9037 9161
9038 9095
9038 9160
9038 9161
9039 9097
9040 9041
9040 9099
9040 9162
9040 9163
9041 9100
9041 9162
9041 9163
9042 9102
9043 9044
9043 9104
9043 9164
9043 9165
9044 9105
9044 9164
9044 9165
9045 9107
9046 9047
9046 9109
9046 9166
9046 9167
9047 9110
9047 9166
9047 9167
9048 9112
9049 9050
9049 9114
9049 9168
9049 9169
9050 9115
9050 9168
9050 9169
9051 9117
9052 9053
9052 9119
9052 9170
9052 9171
9053 9120
9053 9170
9053 9171
9054 9122
9055 9056
9055 9124
9055 9172
9055 9173
9056 9125
9056 9172
9056 9173
9057 9127
9058 9059
9058 9129
9058 9174
9058 9175
9059 9130
9059 9174
9059 9175
9060 9132
9061 9062
9061 9134
9061 9176
9061 9177
9062 9135
9062 9176
9062 9177
9063 9137
9064 9065
9064 9139
9064 9178
9064 9179
9065 9140
9065 9178
9065 9179
9066 9142
9067 9068
9067 9144
9067 9180
9067 9181
9068 9145
9068 9180
9068 9181
9069 9147
9070 9071
9070 9149
9070 9182
9070 9183
9071 9150
9071 9182
9071 9183
9072 9073
9072 9184
9073 9184
9074 9152
9074 9185
9075 9153
9075 9186
9076 9187
9077 9078
9077 9188
9078 9188
9079 9154
9079 9189
9080 9155
9080 9190
9081 9191
9082 9083
9082 9192
9083 9192
9084 9156
9084 9193
9085 9157
9085 9194
9086 9195
9087 9088
9087 9196
9088 9196
9089 9158
9089 9197
9090 9159
9090 9198
9091 9199
9092 9093
9092 9200
9093 9200
9094 9160
9094 9201
9095 9161
9095 9202
9096 9203
9097 9098
9097 9204
9098 9204
9099 9162
9099 9205
9100 9163
9100 9206
9101 9207
9102 9103
9102 9208
9103 9208
9104 9164
9104 9209
9105 9165
9105 9210
9106 9211
9107 9108
9107 9212
9108 9212
9109 9166
9109 9213
9110 9167
9110 9214
9111 9215
9112 9113
9112 9216
9113 9216
9114 9168
9114 9217
9115 9169
9115 9218
9116 9219
9117 9118
9117 9220
9118 9220
9119 9170
9119 9221
9120 9171
9120 9222
9121 9223
9122 9123
9122 9224
9123 9224
9124 9172
9124 9225
9125 9173
9125 9226
9126 9227
9127 9128
9127 9228
9128 9228
9129 9174
9129 9229
9130 9175
9130 9230
9131 9231
9132 9133
9132 9232
9133 9232
9134 9176
9134 9233
9135 9177
9135 9234
9136 9235
9137 9138
9137 9236
9138 9236
9139 9178
9139 9237
9140 9179
9140 9238
9141 9239
9142 9143
9142 9240
9143 9240
9144 9180
9144 9241
9145 9181
9145 9242
9146 9243
9147 9148
9147 9244
9148 9244
9149 9182
9149 9245
9150 9183
9150 9246
9151 9247
9152 9153
9152 9185
9153 9186
9154 9155
9154 9189
9155 9190
9156 9157
9156 9193
9157 9194
9158 9159
9158 9197
9159 9198
9160 9161
9160 9201
9161 9202
9162 9163
9162 9205
9163 9206
9164 9165
9164 9209
9165 9210
9166 9167
9166 9213
9167 9214
9168 9169
9168 9217
9169 9218
9170 9171
9170 9221
9171 9222
9172 9173
9172 9225
9173 9226
9174 9175
9174 9229
9175 9230
9176 9177
9176 9233
9177 9234
9178 9179
9178 9237
9179 9238
9180 9181
9180 9241
9181 9242
9182 9183
9182 9245
9183 9246
9184 9248
9184 9249
9185 9249
9186 9250
9186 9251
9187 9252
9187 9253
9188 9254
9188 9255
9189 9255
9190 9256
9190 9257
9191 9258
9191 9259
9192 9260
9192 9261
9193 9261
9194 9262
9194 9263
9195 9264
9195 9265
9196 9266
9196 9267
9197 9267
9198 9268
9198 9269
9199 9270
9199 9271
9200 9272
9200 9273
9201 9273
9202 9274
9202 9275
9203 9276
9203 9277
9204 9278
9204 9279
9205 9279
9206 9280
9206 9281
9207 9282
9207 9283
9208 9284
9208 9285
9209 9285
9210 9286
9210 9287
9211 9288
9211 9289
9212 9290
9212 9291
9213 9291
9214 9292
9214 9293
9215 9294
9215 9295
9216 9296
9216 9297
9217 9297
9218 9298
9218 9299
9219 9300
9219 9301
9220 9302
9220 9303
9221 9303
9222 9304
9222 9305
9223 9306
9223 9307
9224 9308
9224 9309
9225 9309
9226 9310
9226 9311
9227 9312
9227 9313
9228 9314
9228 9315
9229 9315
9230 9316
9230 9317
9231 9318
9231 9319
9232 9320
9232 9321
9233 9321
9234 9322
9234 9323
9235 9324
9235 9325
9236 9326
9236 9327
9237 9327
9238 9328
9238 9329
9239 9330
9239 9331
9240 9332
9240 9333
9241 9333
9242 9334
9242 9335
9243 9336
9243 9337
9244 9338
9244 9339
9245 9339
9246 9340
9246 9341
9247 9342
9247 9343
9248 9249
9248 9344
9248 9409
9248 9410
9249 9345
9249 9409
9249 9410
9250 9251
9250 9346
9250 9411
9250 9412
9251 9347
9251 9411
9251 9412
9252 9253
9252 9347
9253 9348
9254 9255
9254 9348
9254 9413
9254 9414
9255 9349
9255 9413
9255 9414
9256 9257
9256 9350
9256 9415
9256 9416
9257 9351
9257 9415
9257 9416
9258 9259
9258 9351
9259 9352
9260 9261
9260 9352
9260 9417
9260 9418
9261 9353
9261 9417
9261 9418
9262 9263
9262 9354
9262 9419
9262 9420
9263 9355
9263 9419
9263 9420
9264 9265
9264 9355
9264 9421
9264 9422
9265 9356
9265 9421
9265 9422
9266 9267
9266 9356
9266 9423
9266 9424
9267 9357
9267 9423
9267 9424
9268 9269
9268 9358
9268 9425
9268 9426
9269 9359
9269 9425
9269 9426
9270 9271
9270 9359
9270 9427
9270 9428
9271 9360
9271 9427
9271 9428
9272 9273
9272 9360
9272 9429
9272 9430
9273 9361
9273 9429
9273 9430
9274 9275
9274 9362
9274 9431
9274 9432
9275 9363
9275 9431
9275 9432
9276 9277
9276 9363
9276 9433
9276 9434
9277 9364
9277 9433
9277 9434
9278 9279
9278 9364
9278 9435
9278 9436
9279 9365
9279 9435
9279 9436
9280 9281
9280 9366
9280 9437
9280 9438
9281 9367
9281 9437
9281 9438
9282 9283
9282 9367
9283 9368
9284 9285
9284 9368
9284 9439
9284 9440
9285 9369
9285 9439
9285 9440
9286 9287
9286 9370
9286 9441
9286 9442
9287 9371
9287 9441
9287 9442
9288 9289
9288 9371
9289 9372
9290 9291
9290 9372
9290 9443
9290 9444
9291 9373
9291 9443
9291 9444
9292 9293
9292 9374
9292 9445
9292 9446
9293 9375
9293 9445
9293 9446
9294 9295
9294 9375
9294 9447
9294 9448
9295 9376
9295 9447
9295 9448
9296 9297
9296 9376
9296 9449
9296 9450
9297 9377
9297 9449
9297 9450
9298 9299
9298 9378
9298 9451
9298 9452
9299 9379
9299 9451
9299 9452
9300 9301
9300 9379
9301 9380
9302 9303
9302 9380
9302 9453
9302 9454
9303 9381
9303 9453
9303 9454
9304 9305
9304 9382
9304 9455
9304 9456
9305 9383
9305 9455
9305 9456
9306 9307
9306 9383
9306 9457
9306 9458
9307 9384
9307 9457
9307 9458
9308 9309
9308 9384
9308 9459
9308 9460
9309 9385
9309 9459
9309 9460
9310 9311
9310 9386
9310 9461
9310 9462
9311 9387
9311 9461
9311 9462
9312 9313
9312 9387
9312 9463
9312 9464
9313 9388
9313 9463
9313 9464
9314 9315
9314 9388
9314 9465
9314 9466
9315 9389
9315 9465
9315 9466
9316 9317
9316 9390
9316 9467
9316 9468
9317 9391
9317 9467
9317 9468
9318 9319
9318 9391
9319 9392
9320 9321
9320 9392
9320 9469
9320 9470
9321 9393
9321 9469
9321 9470
9322 9323
9322 9394
9322 9471
9322 9472
9323 9395
9323 9471
9323 9472
9324 9325
9324 9395
9325 9396
9326 9327
9326 9396
9326 9473
9326 9474
9327 9397
9327 9473
9327 9474
9328 9329
9328 9398
9328 9475
9328 9476
9329 9399
9329 9475
9329 9476
9330 9331
9330 9399
9331 9400
9332 9333
9332 9400
9332 9477
9332 9478
9333 9401
9333 9477
9333 9478
9334 9335
9334 9402
9334 9479
9334 9480
9335 9403
9335 9479
9335 9480
9336 9337
9336 9403
9337 9404
9338 9339
9338 9404
9338 9481
9338 9482
9339 9405
9339 9481
9339 9482
9340 9341
9340 9406
9340 9483
9340 9484
9341 9407
9341 9483
9341 9484
9342 9343
9342 9407
9342 9485
9342 9486
9343 9408
9343 9485
9343 9486
9344 9409
9345 9346
9345 9410
9346 9411
9347 9412
9348 9413
9349 9350
9349 9414
9350 9415
9351 9416
9352 9417
9353 9354
9353 9418
9354 9419
9355 9420
9355 9421
9356 9422
9356 9423
9357 9358
9357 9424
9358 9425
9359 9426
9359 9427
9360 9428
9360 9429
9361 9362
9361 9430
9362 9431
9363 9432
9363 9433
9364 9434
9364 9435
9365 9366
9365 9436
9366 9437
9367 9438
9368 9439
9369 9370
9369 9440
9370 9441
9371 9442
9372 9443
9373 9374
9373 9444
9374 9445
9375 9446
9375 9447
9376 9448
9376 9449
9377 9378
9377 9450
9378 9451
9379 9452
9380 9453
9381 9382
9381 9454
9382 9455
9383 9456
9383 9457
9384 9458
9384 9459
9385 9386
9385 9460
9386 9461
9387 9462
9387 9463
9388 9464
9388 9465
9389 9390
9389 9466
9390 9467
9391 9468
9392 9469
9393 9394
9393 9470
9394 9471
9395 9472
9396 9473
9397 9398
9397 9474
9398 9475
9399 9476
9400 9477
9401 9402
9401 9478
9402 9479
9403 9480
9404 9481
9405 9406
9405 9482
9406 9483
9407 9484
9407 9485
9408 9486
9409 9410
9409 9487
9410 9487
9411 9412
9413 9414
9413 9488
9414 9488
9415 9416
9417 9418
9417 9489
9418 9489
9419 9420
9421 9422
9423 9424
9423 9490
9424 9490
9425 9426
9427 9428
9429 9430
9429 9491
9430 9491
9431 9432
9433 9434
9435 9436
9435 9492
9436 9492
9437 9438
9439 9440
9439 9493
9440 9493
9441 9442
9443 9444
9443 9494
9444 9494
9445 9446
9447 9448
9449 9450
9449 9495
9450 9495
9451 9452
9453 9454
9453 9496
9454 9496
9455 9456
9457 9458
9459 9460
9459 9497
9460 9497
9461 9462
9463 9464
9465 9466
9465 9498
9466 9498
9467 9468
9469 9470
9469 9499
9470 9499
9471 9472
9473 9474
9473 9500
9474 9500
9475 9476
9477 9478
9477 9501
9478 9501
9479 9480
9481 9482
9481 9502
9482 9502
9483 9484
9485 9486
