# Factoring MIS graph
n = 2132163547
n1 = 60127
n2 = 35461
k1 = 16
k2 = 16
seed = 6
type = fact_map

vertices: 9490

weights:
0 2.0
1 2.0
2 2.0
3 2.0
4 2.0
5 2.0
6 2.0
7 2.0
8 2.0
9 2.0
10 2.0
11 2.0
12 2.0
13 2.0
14 2.0
15 2.0
16 2.0
17 2.0
18 2.0
19 2.0
20 2.0
21 2.0
22 2.0
23 2.0
24 2.0
25 2.0
26 2.0
27 2.0
28 2.0
29 2.0
30 2.0
31 2.0
32 2.0
33 2.0
34 2.0
35 2.0
36 2.0
37 2.0
38 2.0
39 2.0
40 2.0
41 2.0
42 2.0
43 2.0
44 2.0
45 1.0
46 2.0
47 2.0
48 1.0
49 2.0
50 2.0
51 1.0
52 2.0
53 2.0
54 1.0
55 2.0
56 2.0
57 1.0
58 2.0
59 2.0
60 1.0
61 2.0
62 2.0
63 1.0
64 2.0
65 2.0
66 1.0
67 2.0
68 2.0
69 1.0
70 2.0
71 2.0
72 1.0
73 2.0
74 2.0
75 1.0
76 2.0
77 2.0
78 1.0
79 2.0
80 2.0
81 1.0
82 2.0
83 2.0
84 1.0
85 2.0
86 2.0
87 1.0
88 2.0
89 2.0
90 1.0
91 3.0
92 3.0
93 2.0
94 2.0
95 3.0
96 3.0
97 2.0
98 2.0
99 3.0
100 3.0
101 2.0
102 2.0
103 3.0
104 3.0
105 2.0
106 2.0
107 3.0
108 3.0
109 2.0
110 2.0
111 3.0
112 3.0
113 2.0
114 2.0
115 3.0
116 3.0
117 2.0
118 2.0
119 3.0
120 3.0
121 2.0
122 2.0
123 3.0
124 3.0
125 2.0
126 2.0
127 3.0
128 3.0
129 2.0
130 2.0
131 3.0
132 3.0
133 2.0
134 2.0
135 3.0
136 3.0
137 2.0
138 2.0
139 3.0
140 3.0
141 2.0
142 2.0
143 3.0
144 3.0
145 2.0
146 2.0
147 3.0
148 3.0
149 2.0
150 2.0
151 3.0
152 3.0
153 2.0
154 2.0
155 2.0
156 3.0
157 3.0
158 2.0
159 3.0
160 3.0
161 2.0
162 3.0
163 3.0
164 2.0
165 3.0
166 3.0
167 2.0
168 3.0
169 3.0
170 2.0
171 3.0
172 3.0
173 2.0
174 3.0
175 3.0
176 2.0
177 3.0
178 3.0
179 2.0
180 3.0
181 3.0
182 2.0
183 3.0
184 3.0
185 2.0
186 3.0
187 3.0
188 2.0
189 3.0
190 3.0
191 2.0
192 3.0
193 3.0
194 2.0
195 3.0
196 3.0
197 2.0
198 3.0
199 3.0
200 2.0
201 3.0
202 3.0
203 3.0
204 3.0
205 2.0
206 2.0
207 2.0
208 3.0
209 3.0
210 2.0
211 2.0
212 2.0
213 3.0
214 3.0
215 2.0
216 2.0
217 2.0
218 3.0
219 3.0
220 2.0
221 2.0
222 2.0
223 3.0
224 3.0
225 2.0
226 2.0
227 2.0
228 3.0
229 3.0
230 2.0
231 2.0
232 2.0
233 3.0
234 3.0
235 2.0
236 2.0
237 2.0
238 3.0
239 3.0
240 2.0
241 2.0
242 2.0
243 3.0
244 3.0
245 2.0
246 2.0
247 2.0
248 3.0
249 3.0
250 2.0
251 2.0
252 2.0
253 3.0
254 3.0
255 2.0
256 2.0
257 2.0
258 3.0
259 3.0
260 2.0
261 2.0
262 2.0
263 3.0
264 3.0
265 2.0
266 2.0
267 2.0
268 3.0
269 3.0
270 2.0
271 2.0
272 2.0
273 3.0
274 3.0
275 2.0
276 2.0
277 2.0
278 3.0
279 3.0
280 2.0
281 2.0
282 2.0
283 2.0
284 2.0
285 2.0
286 2.0
287 2.0
288 2.0
289 2.0
290 2.0
291 2.0
292 2.0
293 2.0
294 2.0
295 2.0
296 2.0
297 2.0
298 2.0
299 2.0
300 2.0
301 2.0
302 2.0
303 2.0
304 2.0
305 2.0
306 2.0
307 2.0
308 2.0
309 2.0
310 2.0
311 2.0
312 2.0
313 2.0
314 2.0
315 2.0
316 2.0
317 2.0
318 2.0
319 2.0
320 2.0
321 2.0
322 2.0
323 2.0
324 2.0
325 2.0
326 2.0
327 2.0
328 2.0
329 2.0
330 2.0
331 2.0
332 2.0
333 2.0
334 2.0
335 2.0
336 2.0
337 2.0
338 2.0
339 2.0
340 2.0
341 2.0
342 2.0
343 2.0
344 2.0
345 2.0
346 2.0
347 2.0
348 2.0
349 2.0
350 2.0
351 2.0
352 2.0
353 2.0
354 2.0
355 2.0
356 2.0
357 2.0
358 2.0
359 2.0
360 2.0
361 2.0
362 2.0
363 2.0
364 2.0
365 2.0
366 2.0
367 2.0
368 2.0
369 2.0
370 2.0
371 2.0
372 2.0
373 2.0
374 2.0
375 2.0
376 2.0
377 2.0
378 2.0
379 3.0
380 4.0
381 3.0
382 3.0
383 3.0
384 3.0
385 3.0
386 4.0
387 3.0
388 3.0
389 3.0
390 3.0
391 3.0
392 4.0
393 3.0
394 3.0
395 3.0
396 3.0
397 3.0
398 4.0
399 3.0
400 3.0
401 3.0
402 3.0
403 3.0
404 4.0
405 3.0
406 3.0
407 3.0
408 3.0
409 3.0
410 4.0
411 3.0
412 3.0
413 3.0
414 3.0
415 3.0
416 4.0
417 3.0
418 3.0
419 3.0
420 3.0
421 3.0
422 4.0
423 3.0
424 3.0
425 3.0
426 3.0
427 3.0
428 4.0
429 3.0
430 3.0
431 3.0
432 3.0
433 3.0
434 4.0
435 3.0
436 3.0
437 3.0
438 3.0
439 3.0
440 4.0
441 3.0
442 3.0
443 3.0
444 3.0
445 3.0
446 4.0
447 3.0
448 3.0
449 3.0
450 3.0
451 3.0
452 4.0
453 3.0
454 3.0
455 3.0
456 3.0
457 3.0
458 4.0
459 3.0
460 3.0
461 3.0
462 3.0
463 3.0
464 4.0
465 3.0
466 3.0
467 3.0
468 3.0
469 3.0
470 4.0
471 3.0
472 3.0
473 3.0
474 3.0
475 1.0
476 2.0
477 2.0
478 2.0
479 2.0
480 2.0
481 2.0
482 2.0
483 2.0
484 2.0
485 2.0
486 2.0
487 2.0
488 2.0
489 2.0
490 2.0
491 2.0
492 2.0
493 2.0
494 2.0
495 2.0
496 2.0
497 2.0
498 2.0
499 2.0
500 2.0
501 2.0
502 2.0
503 2.0
504 2.0
505 2.0
506 2.0
507 2.0
508 2.0
509 2.0
510 2.0
511 2.0
512 2.0
513 2.0
514 2.0
515 2.0
516 2.0
517 2.0
518 2.0
519 2.0
520 2.0
521 2.0
522 2.0
523 2.0
524 2.0
525 2.0
526 2.0
527 2.0
528 2.0
529 2.0
530 2.0
531 2.0
532 2.0
533 2.0
534 2.0
535 2.0
536 2.0
537 2.0
538 2.0
539 1.0
540 3.0
541 3.0
542 3.0
543 3.0
544 3.0
545 3.0
546 3.0
547 3.0
548 3.0
549 3.0
550 3.0
551 3.0
552 3.0
553 3.0
554 3.0
555 3.0
556 3.0
557 3.0
558 3.0
559 3.0
560 3.0
561 3.0
562 3.0
563 3.0
564 3.0
565 3.0
566 3.0
567 3.0
568 3.0
569 3.0
570 3.0
571 3.0
572 3.0
573 3.0
574 3.0
575 3.0
576 3.0
577 3.0
578 3.0
579 3.0
580 3.0
581 3.0
582 3.0
583 3.0
584 3.0
585 3.0
586 3.0
587 3.0
588 3.0
589 3.0
590 3.0
591 3.0
592 3.0
593 3.0
594 3.0
595 3.0
596 3.0
597 3.0
598 3.0
599 3.0
600 3.0
601 3.0
602 3.0
603 3.0
604 3.0
605 3.0
606 3.0
607 3.0
608 3.0
609 3.0
610 3.0
611 3.0
612 3.0
613 3.0
614 3.0
615 3.0
616 3.0
617 3.0
618 3.0
619 3.0
620 3.0
621 3.0
622 3.0
623 3.0
624 3.0
625 3.0
626 3.0
627 3.0
628 3.0
629 3.0
630 3.0
631 3.0
632 3.0
633 3.0
634 2.0
635 2.0
636 2.0
637 2.0
638 2.0
639 2.0
640 2.0
641 2.0
642 2.0
643 2.0
644 2.0
645 2.0
646 2.0
647 2.0
648 2.0
649 2.0
650 2.0
651 2.0
652 2.0
653 2.0
654 2.0
655 2.0
656 2.0
657 2.0
658 2.0
659 2.0
660 2.0
661 2.0
662 2.0
663 2.0
664 2.0
665 2.0
666 2.0
667 2.0
668 2.0
669 2.0
670 2.0
671 2.0
672 2.0
673 2.0
674 2.0
675 2.0
676 2.0
677 2.0
678 2.0
679 2.0
680 2.0
681 3.0
682 3.0
683 2.0
684 2.0
685 3.0
686 3.0
687 2.0
688 2.0
689 3.0
690 3.0
691 2.0
692 2.0
693 3.0
694 3.0
695 2.0
696 2.0
697 3.0
698 3.0
699 2.0
700 2.0
701 3.0
702 3.0
703 2.0
704 2.0
705 3.0
706 3.0
707 2.0
708 2.0
709 3.0
710 3.0
711 2.0
712 2.0
713 3.0
714 3.0
715 2.0
716 2.0
717 3.0
718 3.0
719 2.0
720 2.0
721 3.0
722 3.0
723 2.0
724 2.0
725 3.0
726 3.0
727 2.0
728 2.0
729 3.0
730 3.0
731 2.0
732 2.0
733 3.0
734 3.0
735 2.0
736 2.0
737 3.0
738 3.0
739 2.0
740 2.0
741 3.0
742 3.0
743 2.0
744 2.0
745 2.0
746 3.0
747 3.0
748 2.0
749 3.0
750 3.0
751 2.0
752 3.0
753 3.0
754 2.0
755 3.0
756 3.0
757 2.0
758 3.0
759 3.0
760 2.0
761 3.0
762 3.0
763 2.0
764 3.0
765 3.0
766 2.0
767 3.0
768 3.0
769 2.0
770 3.0
771 3.0
772 2.0
773 3.0
774 3.0
775 2.0
776 3.0
777 3.0
778 2.0
779 3.0
780 3.0
781 2.0
782 3.0
783 3.0
784 2.0
785 3.0
786 3.0
787 2.0
788 3.0
789 3.0
790 2.0
791 3.0
792 3.0
793 3.0
794 3.0
795 2.0
796 2.0
797 2.0
798 3.0
799 3.0
800 2.0
801 2.0
802 2.0
803 3.0
804 3.0
805 2.0
806 2.0
807 2.0
808 3.0
809 3.0
810 2.0
811 2.0
812 2.0
813 3.0
814 3.0
815 2.0
816 2.0
817 2.0
818 3.0
819 3.0
820 2.0
821 2.0
822 2.0
823 3.0
824 3.0
825 2.0
826 2.0
827 2.0
828 3.0
829 3.0
830 2.0
831 2.0
832 2.0
833 3.0
834 3.0
835 2.0
836 2.0
837 2.0
838 3.0
839 3.0
840 2.0
841 2.0
842 2.0
843 3.0
844 3.0
845 2.0
846 2.0
847 2.0
848 3.0
849 3.0
850 2.0
851 2.0
852 2.0
853 3.0
854 3.0
855 2.0
856 2.0
857 2.0
858 3.0
859 3.0
860 2.0
861 2.0
862 2.0
863 3.0
864 3.0
865 2.0
866 2.0
867 2.0
868 3.0
869 3.0
870 2.0
871 2.0
872 2.0
873 2.0
874 2.0
875 2.0
876 2.0
877 2.0
878 2.0
879 2.0
880 2.0
881 2.0
882 2.0
883 2.0
884 2.0
885 2.0
886 2.0
887 2.0
888 2.0
889 2.0
890 2.0
891 2.0
892 2.0
893 2.0
894 2.0
895 2.0
896 2.0
897 2.0
898 2.0
899 2.0
900 2.0
901 2.0
902 2.0
903 2.0
904 2.0
905 2.0
906 2.0
907 2.0
908 2.0
909 2.0
910 2.0
911 2.0
912 2.0
913 2.0
914 2.0
915 2.0
916 2.0
917 2.0
918 2.0
919 2.0
920 2.0
921 2.0
922 2.0
923 2.0
924 2.0
925 2.0
926 2.0
927 2.0
928 2.0
929 2.0
930 2.0
931 2.0
932 2.0
933 2.0
934 2.0
935 2.0
936 2.0
937 2.0
938 2.0
939 2.0
940 2.0
941 2.0
942 2.0
943 2.0
944 2.0
945 2.0
946 2.0
947 2.0
948 2.0
949 2.0
950 2.0
951 2.0
952 2.0
953 2.0
954 2.0
955 2.0
956 2.0
957 2.0
958 2.0
959 2.0
960 2.0
961 2.0
962 2.0
963 2.0
964 2.0
965 2.0
966 2.0
967 2.0
968 2.0
969 3.0
970 4.0
971 3.0
972 3.0
973 3.0
974 3.0
975 3.0
976 4.0
977 3.0
978 3.0
979 3.0
980 3.0
981 3.0
982 4.0
983 3.0
984 3.0
985 3.0
986 3.0
987 3.0
988 4.0
989 3.0
990 3.0
991 3.0
992 3.0
993 3.0
994 4.0
995 3.0
996 3.0
997 3.0
998 3.0
999 3.0
1000 4.0
1001 3.0
1002 3.0
1003 3.0
1004 3.0
1005 3.0
1006 4.0
1007 3.0
1008 3.0
1009 3.0
1010 3.0
1011 3.0
1012 4.0
1013 3.0
1014 3.0
1015 3.0
1016 3.0
1017 3.0
1018 4.0
1019 3.0
1020 3.0
1021 3.0
1022 3.0
1023 3.0
1024 4.0
1025 3.0
1026 3.0
1027 3.0
1028 3.0
1029 3.0
1030 4.0
1031 3.0
1032 3.0
1033 3.0
1034 3.0
1035 3.0
1036 4.0
1037 3.0
1038 3.0
1039 3.0
1040 3.0
1041 3.0
1042 4.0
1043 3.0
1044 3.0
1045 3.0
1046 3.0
1047 3.0
1048 4.0
1049 3.0
1050 3.0
1051 3.0
1052 3.0
1053 3.0
1054 4.0
1055 3.0
1056 3.0
1057 3.0
1058 3.0
1059 3.0
1060 4.0
1061 3.0
1062 3.0
1063 3.0
1064 3.0
1065 1.0
1066 2.0
1067 2.0
1068 2.0
1069 2.0
1070 2.0
1071 2.0
1072 2.0
1073 2.0
1074 2.0
1075 2.0
1076 2.0
1077 2.0
1078 2.0
1079 2.0
1080 2.0
1081 2.0
1082 2.0
1083 2.0
1084 2.0
1085 2.0
1086 2.0
1087 2.0
1088 2.0
1089 2.0
1090 2.0
1091 2.0
1092 2.0
1093 2.0
1094 2.0
1095 2.0
1096 2.0
1097 2.0
1098 2.0
1099 2.0
1100 2.0
1101 2.0
1102 2.0
1103 2.0
1104 2.0
1105 2.0
1106 2.0
1107 2.0
1108 2.0
1109 2.0
1110 2.0
1111 2.0
1112 2.0
1113 2.0
1114 2.0
1115 2.0
1116 2.0
1117 2.0
1118 2.0
1119 2.0
1120 2.0
1121 2.0
1122 2.0
1123 2.0
1124 2.0
1125 2.0
1126 2.0
1127 2.0
1128 2.0
1129 1.0
1130 3.0
1131 3.0
1132 3.0
1133 3.0
1134 3.0
1135 3.0
1136 3.0
1137 3.0
1138 3.0
1139 3.0
1140 3.0
1141 3.0
1142 3.0
1143 3.0
1144 3.0
1145 3.0
1146 3.0
1147 3.0
1148 3.0
1149 3.0
1150 3.0
1151 3.0
1152 3.0
1153 3.0
1154 3.0
1155 3.0
1156 3.0
1157 3.0
1158 3.0
1159 3.0
1160 3.0
1161 3.0
1162 3.0
1163 3.0
1164 3.0
1165 3.0
1166 3.0
1167 3.0
1168 3.0
1169 3.0
1170 3.0
1171 3.0
1172 3.0
1173 3.0
1174 3.0
1175 3.0
1176 3.0
1177 3.0
1178 3.0
1179 3.0
1180 3.0
1181 3.0
1182 3.0
1183 3.0
1184 3.0
1185 3.0
1186 3.0
1187 3.0
1188 3.0
1189 3.0
1190 3.0
1191 3.0
1192 3.0
1193 3.0
1194 3.0
1195 3.0
1196 3.0
1197 3.0
1198 3.0
1199 3.0
1200 3.0
1201 3.0
1202 3.0
1203 3.0
1204 3.0
1205 3.0
1206 3.0
1207 3.0
1208 3.0
1209 3.0
1210 3.0
1211 3.0
1212 3.0
1213 3.0
1214 3.0
1215 3.0
1216 3.0
1217 3.0
1218 3.0
1219 3.0
1220 3.0
1221 3.0
1222 3.0
1223 3.0
1224 2.0
1225 2.0
1226 2.0
1227 2.0
1228 2.0
1229 2.0
1230 2.0
1231 2.0
1232 2.0
1233 2.0
1234 2.0
1235 2.0
1236 2.0
1237 2.0
1238 2.0
1239 2.0
1240 2.0
1241 2.0
1242 2.0
1243 2.0
1244 2.0
1245 2.0
1246 2.0
1247 2.0
1248 2.0
1249 2.0
1250 2.0
1251 2.0
1252 2.0
1253 2.0
1254 2.0
1255 2.0
1256 2.0
1257 2.0
1258 2.0
1259 2.0
1260 2.0
1261 2.0
1262 2.0
1263 2.0
1264 2.0
1265 2.0
1266 2.0
1267 2.0
1268 2.0
1269 2.0
1270 2.0
1271 3.0
1272 3.0
1273 2.0
1274 2.0
1275 3.0
1276 3.0
1277 2.0
1278 2.0
1279 3.0
1280 3.0
1281 2.0
1282 2.0
1283 3.0
1284 3.0
1285 2.0
1286 2.0
1287 3.0
1288 3.0
1289 2.0
1290 2.0
1291 3.0
1292 3.0
1293 2.0
1294 2.0
1295 3.0
1296 3.0
1297 2.0
1298 2.0
1299 3.0
1300 3.0
1301 2.0
1302 2.0
1303 3.0
1304 3.0
1305 2.0
1306 2.0
1307 3.0
1308 3.0
1309 2.0
1310 2.0
1311 3.0
1312 3.0
1313 2.0
1314 2.0
1315 3.0
1316 3.0
1317 2.0
1318 2.0
1319 3.0
1320 3.0
1321 2.0
1322 2.0
1323 3.0
1324 3.0
1325 2.0
1326 2.0
1327 3.0
1328 3.0
1329 2.0
1330 2.0
1331 3.0
1332 3.0
1333 2.0
1334 2.0
1335 2.0
1336 3.0
1337 3.0
1338 2.0
1339 3.0
1340 3.0
1341 2.0
1342 3.0
1343 3.0
1344 2.0
1345 3.0
1346 3.0
1347 2.0
1348 3.0
1349 3.0
1350 2.0
1351 3.0
1352 3.0
1353 2.0
1354 3.0
1355 3.0
1356 2.0
1357 3.0
1358 3.0
1359 2.0
1360 3.0
1361 3.0
1362 2.0
1363 3.0
1364 3.0
1365 2.0
1366 3.0
1367 3.0
1368 2.0
1369 3.0
1370 3.0
1371 2.0
1372 3.0
1373 3.0
1374 2.0
1375 3.0
1376 3.0
1377 2.0
1378 3.0
1379 3.0
1380 2.0
1381 3.0
1382 3.0
1383 3.0
1384 3.0
1385 2.0
1386 2.0
1387 2.0
1388 3.0
1389 3.0
1390 2.0
1391 2.0
1392 2.0
1393 3.0
1394 3.0
1395 2.0
1396 2.0
1397 2.0
1398 3.0
1399 3.0
1400 2.0
1401 2.0
1402 2.0
1403 3.0
1404 3.0
1405 2.0
1406 2.0
1407 2.0
1408 3.0
1409 3.0
1410 2.0
1411 2.0
1412 2.0
1413 3.0
1414 3.0
1415 2.0
1416 2.0
1417 2.0
1418 3.0
1419 3.0
1420 2.0
1421 2.0
1422 2.0
1423 3.0
1424 3.0
1425 2.0
1426 2.0
1427 2.0
1428 3.0
1429 3.0
1430 2.0
1431 2.0
1432 2.0
1433 3.0
1434 3.0
1435 2.0
1436 2.0
1437 2.0
1438 3.0
1439 3.0
1440 2.0
1441 2.0
1442 2.0
1443 3.0
1444 3.0
1445 2.0
1446 2.0
1447 2.0
1448 3.0
1449 3.0
1450 2.0
1451 2.0
1452 2.0
1453 3.0
1454 3.0
1455 2.0
1456 2.0
1457 2.0
1458 3.0
1459 3.0
1460 2.0
1461 2.0
1462 2.0
1463 2.0
1464 2.0
1465 2.0
1466 2.0
1467 2.0
1468 2.0
1469 2.0
1470 2.0
1471 2.0
1472 2.0
1473 2.0
1474 2.0
1475 2.0
1476 2.0
1477 2.0
1478 2.0
1479 2.0
1480 2.0
1481 2.0
1482 2.0
1483 2.0
1484 2.0
1485 2.0
1486 2.0
1487 2.0
1488 2.0
1489 2.0
1490 2.0
1491 2.0
1492 2.0
1493 2.0
1494 2.0
1495 2.0
1496 2.0
1497 2.0
1498 2.0
1499 2.0
1500 2.0
1501 2.0
1502 2.0
1503 2.0
1504 2.0
1505 2.0
1506 2.0
1507 2.0
1508 2.0
1509 2.0
1510 2.0
1511 2.0
1512 2.0
1513 2.0
1514 2.0
1515 2.0
1516 2.0
1517 2.0
1518 2.0
1519 2.0
1520 2.0
1521 2.0
1522 2.0
1523 2.0
1524 2.0
1525 2.0
1526 2.0
1527 2.0
1528 2.0
1529 2.0
1530 2.0
1531 2.0
1532 2.0
1533 2.0
1534 2.0
1535 2.0
1536 2.0
1537 2.0
1538 2.0
1539 2.0
1540 2.0
1541 2.0
1542 2.0
1543 2.0
1544 2.0
1545 2.0
1546 2.0
1547 2.0
1548 2.0
1549 2.0
1550 2.0
1551 2.0
1552 2.0
1553 2.0
1554 2.0
1555 2.0
1556 2.0
1557 2.0
1558 2.0
1559 3.0
1560 4.0
1561 3.0
1562 3.0
1563 3.0
1564 3.0
1565 3.0
1566 4.0
1567 3.0
1568 3.0
1569 3.0
1570 3.0
1571 3.0
1572 4.0
1573 3.0
1574 3.0
1575 3.0
1576 3.0
1577 3.0
1578 4.0
1579 3.0
1580 3.0
1581 3.0
1582 3.0
1583 3.0
1584 4.0
1585 3.0
1586 3.0
1587 3.0
1588 3.0
1589 3.0
1590 4.0
1591 3.0
1592 3.0
1593 3.0
1594 3.0
1595 3.0
1596 4.0
1597 3.0
1598 3.0
1599 3.0
1600 3.0
1601 3.0
1602 4.0
1603 3.0
1604 3.0
1605 3.0
1606 3.0
1607 3.0
1608 4.0
1609 3.0
1610 3.0
1611 3.0
1612 3.0
1613 3.0
1614 4.0
1615 3.0
1616 3.0
1617 3.0
1618 3.0
1619 3.0
1620 4.0
1621 3.0
1622 3.0
1623 3.0
1624 3.0
1625 3.0
1626 4.0
1627 3.0
1628 3.0
1629 3.0
1630 3.0
1631 3.0
1632 4.0
1633 3.0
1634 3.0
1635 3.0
1636 3.0
1637 3.0
1638 4.0
1639 3.0
1640 3.0
1641 3.0
1642 3.0
1643 3.0
1644 4.0
1645 3.0
1646 3.0
1647 3.0
1648 3.0
1649 3.0
1650 4.0
1651 3.0
1652 3.0
1653 3.0
1654 3.0
1655 1.0
1656 2.0
1657 2.0
1658 2.0
1659 2.0
1660 2.0
1661 2.0
1662 2.0
1663 2.0
1664 2.0
1665 2.0
1666 2.0
1667 2.0
1668 2.0
1669 2.0
1670 2.0
1671 2.0
1672 2.0
1673 2.0
1674 2.0
1675 2.0
1676 2.0
1677 2.0
1678 2.0
1679 2.0
1680 2.0
1681 2.0
1682 2.0
1683 2.0
1684 2.0
1685 2.0
1686 2.0
1687 2.0
1688 2.0
1689 2.0
1690 2.0
1691 2.0
1692 2.0
1693 2.0
1694 2.0
1695 2.0
1696 2.0
1697 2.0
1698 2.0
1699 2.0
1700 2.0
1701 2.0
1702 2.0
1703 2.0
1704 2.0
1705 2.0
1706 2.0
1707 2.0
1708 2.0
1709 2.0
1710 2.0
1711 2.0
1712 2.0
1713 2.0
1714 2.0
1715 2.0
1716 2.0
1717 2.0
1718 2.0
1719 1.0
1720 3.0
1721 3.0
1722 3.0
1723 3.0
1724 3.0
1725 3.0
1726 3.0
1727 3.0
1728 3.0
1729 3.0
1730 3.0
1731 3.0
1732 3.0
1733 3.0
1734 3.0
1735 3.0
1736 3.0
1737 3.0
1738 3.0
1739 3.0
1740 3.0
1741 3.0
1742 3.0
1743 3.0
1744 3.0
1745 3.0
1746 3.0
1747 3.0
1748 3.0
1749 3.0
1750 3.0
1751 3.0
1752 3.0
1753 3.0
1754 3.0
1755 3.0
1756 3.0
1757 3.0
1758 3.0
1759 3.0
1760 3.0
1761 3.0
1762 3.0
1763 3.0
1764 3.0
1765 3.0
1766 3.0
1767 3.0
1768 3.0
1769 3.0
1770 3.0
1771 3.0
1772 3.0
1773 3.0
1774 3.0
1775 3.0
1776 3.0
1777 3.0
1778 3.0
1779 3.0
1780 3.0
1781 3.0
1782 3.0
1783 3.0
1784 3.0
1785 3.0
1786 3.0
1787 3.0
1788 3.0
1789 3.0
1790 3.0
1791 3.0
1792 3.0
1793 3.0
1794 3.0
1795 3.0
1796 3.0
1797 3.0
1798 3.0
1799 3.0
1800 3.0
1801 3.0
1802 3.0
1803 3.0
1804 3.0
1805 3.0
1806 3.0
1807 3.0
1808 3.0
1809 3.0
1810 3.0
1811 3.0
1812 3.0
1813 3.0
1814 2.0
1815 2.0
1816 2.0
1817 2.0
1818 2.0
1819 2.0
1820 2.0
1821 2.0
1822 2.0
1823 2.0
1824 2.0
1825 2.0
1826 2.0
1827 2.0
1828 2.0
1829 2.0
1830 2.0
1831 2.0
1832 2.0
1833 2.0
1834 2.0
1835 2.0
1836 2.0
1837 2.0
1838 2.0
1839 2.0
1840 2.0
1841 2.0
1842 2.0
1843 2.0
1844 2.0
1845 2.0
1846 2.0
1847 2.0
1848 2.0
1849 2.0
1850 2.0
1851 2.0
1852 2.0
1853 2.0
1854 2.0
1855 2.0
1856 2.0
1857 2.0
1858 2.0
1859 2.0
1860 2.0
1861 3.0
1862 3.0
1863 2.0
1864 2.0
1865 3.0
1866 3.0
1867 2.0
1868 2.0
1869 3.0
1870 3.0
1871 2.0
1872 2.0
1873 3.0
1874 3.0
1875 2.0
1876 2.0
1877 3.0
1878 3.0
1879 2.0
1880 2.0
1881 3.0
1882 3.0
1883 2.0
1884 2.0
1885 3.0
1886 3.0
1887 2.0
1888 2.0
1889 3.0
1890 3.0
1891 2.0
1892 2.0
1893 3.0
1894 3.0
1895 2.0
1896 2.0
1897 3.0
1898 3.0
1899 2.0
1900 2.0
1901 3.0
1902 3.0
1903 2.0
1904 2.0
1905 3.0
1906 3.0
1907 2.0
1908 2.0
1909 3.0
1910 3.0
1911 2.0
1912 2.0
1913 3.0
1914 3.0
1915 2.0
1916 2.0
1917 3.0
1918 3.0
1919 2.0
1920 2.0
1921 3.0
1922 3.0
1923 2.0
1924 2.0
1925 2.0
1926 3.0
1927 3.0
1928 2.0
1929 3.0
1930 3.0
1931 2.0
1932 3.0
1933 3.0
1934 2.0
1935 3.0
1936 3.0
1937 2.0
1938 3.0
1939 3.0
1940 2.0
1941 3.0
1942 3.0
1943 2.0
1944 3.0
1945 3.0
1946 2.0
1947 3.0
1948 3.0
1949 2.0
1950 3.0
1951 3.0
1952 2.0
1953 3.0
1954 3.0
1955 2.0
1956 3.0
1957 3.0
1958 2.0
1959 3.0
1960 3.0
1961 2.0
1962 3.0
1963 3.0
1964 2.0
1965 3.0
1966 3.0
1967 2.0
1968 3.0
1969 3.0
1970 2.0
1971 3.0
1972 3.0
1973 3.0
1974 3.0
1975 2.0
1976 2.0
1977 2.0
1978 3.0
1979 3.0
1980 2.0
1981 2.0
1982 2.0
1983 3.0
1984 3.0
1985 2.0
1986 2.0
1987 2.0
1988 3.0
1989 3.0
1990 2.0
1991 2.0
1992 2.0
1993 3.0
1994 3.0
1995 2.0
1996 2.0
1997 2.0
1998 3.0
1999 3.0
2000 2.0
2001 2.0
2002 2.0
2003 3.0
2004 3.0
2005 2.0
2006 2.0
2007 2.0
2008 3.0
2009 3.0
2010 2.0
2011 2.0
2012 2.0
2013 3.0
2014 3.0
2015 2.0
2016 2.0
2017 2.0
2018 3.0
2019 3.0
2020 2.0
2021 2.0
2022 2.0
2023 3.0
2024 3.0
2025 2.0
2026 2.0
2027 2.0
2028 3.0
2029 3.0
2030 2.0
2031 2.0
2032 2.0
2033 3.0
2034 3.0
2035 2.0
2036 2.0
2037 2.0
2038 3.0
2039 3.0
2040 2.0
2041 2.0
2042 2.0
2043 3.0
2044 3.0
2045 2.0
2046 2.0
2047 2.0
2048 3.0
2049 3.0
2050 2.0
2051 2.0
2052 2.0
2053 2.0
2054 2.0
2055 2.0
2056 2.0
2057 2.0
2058 2.0
2059 2.0
2060 2.0
2061 2.0
2062 2.0
2063 2.0
2064 2.0
2065 2.0
2066 2.0
2067 2.0
2068 2.0
2069 2.0
2070 2.0
2071 2.0
2072 2.0
2073 2.0
2074 2.0
2075 2.0
2076 2.0
2077 2.0
2078 2.0
2079 2.0
2080 2.0
2081 2.0
2082 2.0
2083 2.0
2084 2.0
2085 2.0
2086 2.0
2087 2.0
2088 2.0
2089 2.0
2090 2.0
2091 2.0
2092 2.0
2093 2.0
2094 2.0
2095 2.0
2096 2.0
2097 2.0
2098 2.0
2099 2.0
2100 2.0
2101 2.0
2102 2.0
2103 2.0
2104 2.0
2105 2.0
2106 2.0
2107 2.0
2108 2.0
2109 2.0
2110 2.0
2111 2.0
2112 2.0
2113 2.0
2114 2.0
2115 2.0
2116 2.0
2117 2.0
2118 2.0
2119 2.0
2120 2.0
2121 2.0
2122 2.0
2123 2.0
2124 2.0
2125 2.0
2126 2.0
2127 2.0
2128 2.0
2129 2.0
2130 2.0
2131 2.0
2132 2.0
2133 2.0
2134 2.0
2135 2.0
2136 2.0
2137 2.0
2138 2.0
2139 2.0
2140 2.0
2141 2.0
2142 2.0
2143 2.0
2144 2.0
2145 2.0
2146 2.0
2147 2.0
2148 2.0
2149 3.0
2150 4.0
2151 3.0
2152 3.0
2153 3.0
2154 3.0
2155 3.0
2156 4.0
2157 3.0
2158 3.0
2159 3.0
2160 3.0
2161 3.0
2162 4.0
2163 3.0
2164 3.0
2165 3.0
2166 3.0
2167 3.0
2168 4.0
2169 3.0
2170 3.0
2171 3.0
2172 3.0
2173 3.0
2174 4.0
2175 3.0
2176 3.0
2177 3.0
2178 3.0
2179 3.0
2180 4.0
2181 3.0
2182 3.0
2183 3.0
2184 3.0
2185 3.0
2186 4.0
2187 3.0
2188 3.0
2189 3.0
2190 3.0
2191 3.0
2192 4.0
2193 3.0
2194 3.0
2195 3.0
2196 3.0
2197 3.0
2198 4.0
2199 3.0
2200 3.0
2201 3.0
2202 3.0
2203 3.0
2204 4.0
2205 3.0
2206 3.0
2207 3.0
2208 3.0
2209 3.0
2210 4.0
2211 3.0
2212 3.0
2213 3.0
2214 3.0
2215 3.0
2216 4.0
2217 3.0
2218 3.0
2219 3.0
2220 3.0
2221 3.0
2222 4.0
2223 3.0
2224 3.0
2225 3.0
2226 3.0
2227 3.0
2228 4.0
2229 3.0
2230 3.0
2231 3.0
2232 3.0
2233 3.0
2234 4.0
2235 3.0
2236 3.0
2237 3.0
2238 3.0
2239 3.0
2240 4.0
2241 3.0
2242 3.0
2243 3.0
2244 3.0
2245 1.0
2246 2.0
2247 2.0
2248 2.0
2249 2.0
2250 2.0
2251 2.0
2252 2.0
2253 2.0
2254 2.0
2255 2.0
2256 2.0
2257 2.0
2258 2.0
2259 2.0
2260 2.0
2261 2.0
2262 2.0
2263 2.0
2264 2.0
2265 2.0
2266 2.0
2267 2.0
2268 2.0
2269 2.0
2270 2.0
2271 2.0
2272 2.0
2273 2.0
2274 2.0
2275 2.0
2276 2.0
2277 2.0
2278 2.0
2279 2.0
2280 2.0
2281 2.0
2282 2.0
2283 2.0
2284 2.0
2285 2.0
2286 2.0
2287 2.0
2288 2.0
2289 2.0
2290 2.0
2291 2.0
2292 2.0
2293 2.0
2294 2.0
2295 2.0
2296 2.0
2297 2.0
2298 2.0
2299 2.0
2300 2.0
2301 2.0
2302 2.0
2303 2.0
2304 2.0
2305 2.0
2306 2.0
2307 2.0
2308 2.0
2309 1.0
2310 3.0
2311 3.0
2312 3.0
2313 3.0
2314 3.0
2315 3.0
2316 3.0
2317 3.0
2318 3.0
2319 3.0
2320 3.0
2321 3.0
2322 3.0
2323 3.0
2324 3.0
2325 3.0
2326 3.0
2327 3.0
2328 3.0
2329 3.0
2330 3.0
2331 3.0
2332 3.0
2333 3.0
2334 3.0
2335 3.0
2336 3.0
2337 3.0
2338 3.0
2339 3.0
2340 3.0
2341 3.0
2342 3.0
2343 3.0
2344 3.0
2345 3.0
2346 3.0
2347 3.0
2348 3.0
2349 3.0
2350 3.0
2351 3.0
2352 3.0
2353 3.0
2354 3.0
2355 3.0
2356 3.0
2357 3.0
2358 3.0
2359 3.0
2360 3.0
2361 3.0
2362 3.0
2363 3.0
2364 3.0
2365 3.0
2366 3.0
2367 3.0
2368 3.0
2369 3.0
2370 3.0
2371 3.0
2372 3.0
2373 3.0
2374 3.0
2375 3.0
2376 3.0
2377 3.0
2378 3.0
2379 3.0
2380 3.0
2381 3.0
2382 3.0
2383 3.0
2384 3.0
2385 3.0
2386 3.0
2387 3.0
2388 3.0
2389 3.0
2390 3.0
2391 3.0
2392 3.0
2393 3.0
2394 3.0
2395 3.0
2396 3.0
2397 3.0
2398 3.0
2399 3.0
2400 3.0
2401 3.0
2402 3.0
2403 3.0
2404 2.0
2405 2.0
2406 2.0
2407 2.0
2408 2.0
2409 2.0
2410 2.0
2411 2.0
2412 2.0
2413 2.0
2414 2.0
2415 2.0
2416 2.0
2417 2.0
2418 2.0
2419 2.0
2420 2.0
2421 2.0
2422 2.0
2423 2.0
2424 2.0
2425 2.0
2426 2.0
2427 2.0
2428 2.0
2429 2.0
2430 2.0
2431 2.0
2432 2.0
2433 2.0
2434 2.0
2435 2.0
2436 2.0
2437 2.0
2438 2.0
2439 2.0
2440 2.0
2441 2.0
2442 2.0
2443 2.0
2444 2.0
2445 2.0
2446 2.0
2447 2.0
2448 2.0
2449 2.0
2450 2.0
2451 3.0
2452 3.0
2453 2.0
2454 2.0
2455 3.0
2456 3.0
2457 2.0
2458 2.0
2459 3.0
2460 3.0
2461 2.0
2462 2.0
2463 3.0
2464 3.0
2465 2.0
2466 2.0
2467 3.0
2468 3.0
2469 2.0
2470 2.0
2471 3.0
2472 3.0
2473 2.0
2474 2.0
2475 3.0
2476 3.0
2477 2.0
2478 2.0
2479 3.0
2480 3.0
2481 2.0
2482 2.0
2483 3.0
2484 3.0
2485 2.0
2486 2.0
2487 3.0
2488 3.0
2489 2.0
2490 2.0
2491 3.0
2492 3.0
2493 2.0
2494 2.0
2495 3.0
2496 3.0
2497 2.0
2498 2.0
2499 3.0
2500 3.0
2501 2.0
2502 2.0
2503 3.0
2504 3.0
2505 2.0
2506 2.0
2507 3.0
2508 3.0
2509 2.0
2510 2.0
2511 3.0
2512 3.0
2513 2.0
2514 2.0
2515 2.0
2516 3.0
2517 3.0
2518 2.0
2519 3.0
2520 3.0
2521 2.0
2522 3.0
2523 3.0
2524 2.0
2525 3.0
2526 3.0
2527 2.0
2528 3.0
2529 3.0
2530 2.0
2531 3.0
2532 3.0
2533 2.0
2534 3.0
2535 3.0
2536 2.0
2537 3.0
2538 3.0
2539 2.0
2540 3.0
2541 3.0
2542 2.0
2543 3.0
2544 3.0
2545 2.0
2546 3.0
2547 3.0
2548 2.0
2549 3.0
2550 3.0
2551 2.0
2552 3.0
2553 3.0
2554 2.0
2555 3.0
2556 3.0
2557 2.0
2558 3.0
2559 3.0
2560 2.0
2561 3.0
2562 3.0
2563 3.0
2564 3.0
2565 2.0
2566 2.0
2567 2.0
2568 3.0
2569 3.0
2570 2.0
2571 2.0
2572 2.0
2573 3.0
2574 3.0
2575 2.0
2576 2.0
2577 2.0
2578 3.0
2579 3.0
2580 2.0
2581 2.0
2582 2.0
2583 3.0
2584 3.0
2585 2.0
2586 2.0
2587 2.0
2588 3.0
2589 3.0
2590 2.0
2591 2.0
2592 2.0
2593 3.0
2594 3.0
2595 2.0
2596 2.0
2597 2.0
2598 3.0
2599 3.0
2600 2.0
2601 2.0
2602 2.0
2603 3.0
2604 3.0
2605 2.0
2606 2.0
2607 2.0
2608 3.0
2609 3.0
2610 2.0
2611 2.0
2612 2.0
2613 3.0
2614 3.0
2615 2.0
2616 2.0
2617 2.0
2618 3.0
2619 3.0
2620 2.0
2621 2.0
2622 2.0
2623 3.0
2624 3.0
2625 2.0
2626 2.0
2627 2.0
2628 3.0
2629 3.0
2630 2.0
2631 2.0
2632 2.0
2633 3.0
2634 3.0
2635 2.0
2636 2.0
2637 2.0
2638 3.0
2639 3.0
2640 2.0
2641 2.0
2642 2.0
2643 2.0
2644 2.0
2645 2.0
2646 2.0
2647 2.0
2648 2.0
2649 2.0
2650 2.0
2651 2.0
2652 2.0
2653 2.0
2654 2.0
2655 2.0
2656 2.0
2657 2.0
2658 2.0
2659 2.0
2660 2.0
2661 2.0
2662 2.0
2663 2.0
2664 2.0
2665 2.0
2666 2.0
2667 2.0
2668 2.0
2669 2.0
2670 2.0
2671 2.0
2672 2.0
2673 2.0
2674 2.0
2675 2.0
2676 2.0
2677 2.0
2678 2.0
2679 2.0
2680 2.0
2681 2.0
2682 2.0
2683 2.0
2684 2.0
2685 2.0
2686 2.0
2687 2.0
2688 2.0
2689 2.0
2690 2.0
2691 2.0
2692 2.0
2693 2.0
2694 2.0
2695 2.0
2696 2.0
2697 2.0
2698 2.0
2699 2.0
2700 2.0
2701 2.0
2702 2.0
2703 2.0
2704 2.0
2705 2.0
2706 2.0
2707 2.0
2708 2.0
2709 2.0
2710 2.0
2711 2.0
2712 2.0
2713 2.0
2714 2.0
2715 2.0
2716 2.0
2717 2.0
2718 2.0
2719 2.0
2720 2.0
2721 2.0
2722 2.0
2723 2.0
2724 2.0
2725 2.0
2726 2.0
2727 2.0
2728 2.0
2729 2.0
2730 2.0
2731 2.0
2732 2.0
2733 2.0
2734 2.0
2735 2.0
2736 2.0
2737 2.0
2738 2.0
2739 3.0
2740 4.0
2741 3.0
2742 3.0
2743 3.0
2744 3.0
2745 3.0
2746 4.0
2747 3.0
2748 3.0
2749 3.0
2750 3.0
2751 3.0
2752 4.0
2753 3.0
2754 3.0
2755 3.0
2756 3.0
2757 3.0
2758 4.0
2759 3.0
2760 3.0
2761 3.0
2762 3.0
2763 3.0
2764 4.0
2765 3.0
2766 3.0
2767 3.0
2768 3.0
2769 3.0
2770 4.0
2771 3.0
2772 3.0
2773 3.0
2774 3.0
2775 3.0
2776 4.0
2777 3.0
2778 3.0
2779 3.0
2780 3.0
2781 3.0
2782 4.0
2783 3.0
2784 3.0
2785 3.0
2786 3.0
2787 3.0
2788 4.0
2789 3.0
2790 3.0
2791 3.0
2792 3.0
2793 3.0
2794 4.0
2795 3.0
2796 3.0
2797 3.0
2798 3.0
2799 3.0
2800 4.0
2801 3.0
2802 3.0
2803 3.0
2804 3.0
2805 3.0
2806 4.0
2807 3.0
2808 3.0
2809 3.0
2810 3.0
2811 3.0
2812 4.0
2813 3.0
2814 3.0
2815 3.0
2816 3.0
2817 3.0
2818 4.0
2819 3.0
2820 3.0
2821 3.0
2822 3.0
2823 3.0
2824 4.0
2825 3.0
2826 3.0
2827 3.0
2828 3.0
2829 3.0
2830 4.0
2831 3.0
2832 3.0
2833 3.0
2834 3.0
2835 1.0
2836 2.0
2837 2.0
2838 2.0
2839 2.0
2840 2.0
2841 2.0
2842 2.0
2843 2.0
2844 2.0
2845 2.0
2846 2.0
2847 2.0
2848 2.0
2849 2.0
2850 2.0
2851 2.0
2852 2.0
2853 2.0
2854 2.0
2855 2.0
2856 2.0
2857 2.0
2858 2.0
2859 2.0
2860 2.0
2861 2.0
2862 2.0
2863 2.0
2864 2.0
2865 2.0
2866 2.0
2867 2.0
2868 2.0
2869 2.0
2870 2.0
2871 2.0
2872 2.0
2873 2.0
2874 2.0
2875 2.0
2876 2.0
2877 2.0
2878 2.0
2879 2.0
2880 2.0
2881 2.0
2882 2.0
2883 2.0
2884 2.0
2885 2.0
2886 2.0
2887 2.0
2888 2.0
2889 2.0
2890 2.0
2891 2.0
2892 2.0
2893 2.0
2894 2.0
2895 2.0
2896 2.0
2897 2.0
2898 2.0
2899 1.0
2900 3.0
2901 3.0
2902 3.0
2903 3.0
2904 3.0
2905 3.0
2906 3.0
2907 3.0
2908 3.0
2909 3.0
2910 3.0
2911 3.0
2912 3.0
2913 3.0
2914 3.0
2915 3.0
2916 3.0
2917 3.0
2918 3.0
2919 3.0
2920 3.0
2921 3.0
2922 3.0
2923 3.0
2924 3.0
2925 3.0
2926 3.0
2927 3.0
2928 3.0
2929 3.0
2930 3.0
2931 3.0
2932 3.0
2933 3.0
2934 3.0
2935 3.0
2936 3.0
2937 3.0
2938 3.0
2939 3.0
2940 3.0
2941 3.0
2942 3.0
2943 3.0
2944 3.0
2945 3.0
2946 3.0
2947 3.0
2948 3.0
2949 3.0
2950 3.0
2951 3.0
2952 3.0
2953 3.0
2954 3.0
2955 3.0
2956 3.0
2957 3.0
2958 3.0
2959 3.0
2960 3.0
2961 3.0
2962 3.0
2963 3.0
2964 3.0
2965 3.0
2966 3.0
2967 3.0
2968 3.0
2969 3.0
2970 3.0
2971 3.0
2972 3.0
2973 3.0
2974 3.0
2975 3.0
2976 3.0
2977 3.0
2978 3.0
2979 3.0
2980 3.0
2981 3.0
2982 3.0
2983 3.0
2984 3.0
2985 3.0
2986 3.0
2987 3.0
2988 3.0
2989 3.0
2990 3.0
2991 3.0
2992 3.0
2993 3.0
2994 2.0
2995 2.0
2996 2.0
2997 2.0
2998 2.0
2999 2.0
3000 2.0
3001 2.0
3002 2.0
3003 2.0
3004 2.0
3005 2.0
3006 2.0
3007 2.0
3008 2.0
3009 2.0
3010 2.0
3011 2.0
3012 2.0
3013 2.0
3014 2.0
3015 2.0
3016 2.0
3017 2.0
3018 2.0
3019 2.0
3020 2.0
3021 2.0
3022 2.0
3023 2.0
3024 2.0
3025 2.0
3026 2.0
3027 2.0
3028 2.0
3029 2.0
3030 2.0
3031 2.0
3032 2.0
3033 2.0
3034 2.0
3035 2.0
3036 2.0
3037 2.0
3038 2.0
3039 2.0
3040 2.0
3041 3.0
3042 3.0
3043 2.0
3044 2.0
3045 3.0
3046 3.0
3047 2.0
3048 2.0
3049 3.0
3050 3.0
3051 2.0
3052 2.0
3053 3.0
3054 3.0
3055 2.0
3056 2.0
3057 3.0
3058 3.0
3059 2.0
3060 2.0
3061 3.0
3062 3.0
3063 2.0
3064 2.0
3065 3.0
3066 3.0
3067 2.0
3068 2.0
3069 3.0
3070 3.0
3071 2.0
3072 2.0
3073 3.0
3074 3.0
3075 2.0
3076 2.0
3077 3.0
3078 3.0
3079 2.0
3080 2.0
3081 3.0
3082 3.0
3083 2.0
3084 2.0
3085 3.0
3086 3.0
3087 2.0
3088 2.0
3089 3.0
3090 3.0
3091 2.0
3092 2.0
3093 3.0
3094 3.0
3095 2.0
3096 2.0
3097 3.0
3098 3.0
3099 2.0
3100 2.0
3101 3.0
3102 3.0
3103 2.0
3104 2.0
3105 2.0
3106 3.0
3107 3.0
3108 2.0
3109 3.0
3110 3.0
3111 2.0
3112 3.0
3113 3.0
3114 2.0
3115 3.0
3116 3.0
3117 2.0
3118 3.0
3119 3.0
3120 2.0
3121 3.0
3122 3.0
3123 2.0
3124 3.0
3125 3.0
3126 2.0
3127 3.0
3128 3.0
3129 2.0
3130 3.0
3131 3.0
3132 2.0
3133 3.0
3134 3.0
3135 2.0
3136 3.0
3137 3.0
3138 2.0
3139 3.0
3140 3.0
3141 2.0
3142 3.0
3143 3.0
3144 2.0
3145 3.0
3146 3.0
3147 2.0
3148 3.0
3149 3.0
3150 2.0
3151 3.0
3152 3.0
3153 3.0
3154 3.0
3155 2.0
3156 2.0
3157 2.0
3158 3.0
3159 3.0
3160 2.0
3161 2.0
3162 2.0
3163 3.0
3164 3.0
3165 2.0
3166 2.0
3167 2.0
3168 3.0
3169 3.0
3170 2.0
3171 2.0
3172 2.0
3173 3.0
3174 3.0
3175 2.0
3176 2.0
3177 2.0
3178 3.0
3179 3.0
3180 2.0
3181 2.0
3182 2.0
3183 3.0
3184 3.0
3185 2.0
3186 2.0
3187 2.0
3188 3.0
3189 3.0
3190 2.0
3191 2.0
3192 2.0
3193 3.0
3194 3.0
3195 2.0
3196 2.0
3197 2.0
3198 3.0
3199 3.0
3200 2.0
3201 2.0
3202 2.0
3203 3.0
3204 3.0
3205 2.0
3206 2.0
3207 2.0
3208 3.0
3209 3.0
3210 2.0
3211 2.0
3212 2.0
3213 3.0
3214 3.0
3215 2.0
3216 2.0
3217 2.0
3218 3.0
3219 3.0
3220 2.0
3221 2.0
3222 2.0
3223 3.0
3224 3.0
3225 2.0
3226 2.0
3227 2.0
3228 3.0
3229 3.0
3230 2.0
3231 2.0
3232 2.0
3233 2.0
3234 2.0
3235 2.0
3236 2.0
3237 2.0
3238 2.0
3239 2.0
3240 2.0
3241 2.0
3242 2.0
3243 2.0
3244 2.0
3245 2.0
3246 2.0
3247 2.0
3248 2.0
3249 2.0
3250 2.0
3251 2.0
3252 2.0
3253 2.0
3254 2.0
3255 2.0
3256 2.0
3257 2.0
3258 2.0
3259 2.0
3260 2.0
3261 2.0
3262 2.0
3263 2.0
3264 2.0
3265 2.0
3266 2.0
3267 2.0
3268 2.0
3269 2.0
3270 2.0
3271 2.0
3272 2.0
3273 2.0
3274 2.0
3275 2.0
3276 2.0
3277 2.0
3278 2.0
3279 2.0
3280 2.0
3281 2.0
3282 2.0
3283 2.0
3284 2.0
3285 2.0
3286 2.0
3287 2.0
3288 2.0
3289 2.0
3290 2.0
3291 2.0
3292 2.0
3293 2.0
3294 2.0
3295 2.0
3296 2.0
3297 2.0
3298 2.0
3299 2.0
3300 2.0
3301 2.0
3302 2.0
3303 2.0
3304 2.0
3305 2.0
3306 2.0
3307 2.0
3308 2.0
3309 2.0
3310 2.0
3311 2.0
3312 2.0
3313 2.0
3314 2.0
3315 2.0
3316 2.0
3317 2.0
3318 2.0
3319 2.0
3320 2.0
3321 2.0
3322 2.0
3323 2.0
3324 2.0
3325 2.0
3326 2.0
3327 2.0
3328 2.0
3329 3.0
3330 4.0
3331 3.0
3332 3.0
3333 3.0
3334 3.0
3335 3.0
3336 4.0
3337 3.0
3338 3.0
3339 3.0
3340 3.0
3341 3.0
3342 4.0
3343 3.0
3344 3.0
3345 3.0
3346 3.0
3347 3.0
3348 4.0
3349 3.0
3350 3.0
3351 3.0
3352 3.0
3353 3.0
3354 4.0
3355 3.0
3356 3.0
3357 3.0
3358 3.0
3359 3.0
3360 4.0
3361 3.0
3362 3.0
3363 3.0
3364 3.0
3365 3.0
3366 4.0
3367 3.0
3368 3.0
3369 3.0
3370 3.0
3371 3.0
3372 4.0
3373 3.0
3374 3.0
3375 3.0
3376 3.0
3377 3.0
3378 4.0
3379 3.0
3380 3.0
3381 3.0
3382 3.0
3383 3.0
3384 4.0
3385 3.0
3386 3.0
3387 3.0
3388 3.0
3389 3.0
3390 4.0
3391 3.0
3392 3.0
3393 3.0
3394 3.0
3395 3.0
3396 4.0
3397 3.0
3398 3.0
3399 3.0
3400 3.0
3401 3.0
3402 4.0
3403 3.0
3404 3.0
3405 3.0
3406 3.0
3407 3.0
3408 4.0
3409 3.0
3410 3.0
3411 3.0
3412 3.0
3413 3.0
3414 4.0
3415 3.0
3416 3.0
3417 3.0
3418 3.0
3419 3.0
3420 4.0
3421 3.0
3422 3.0
3423 3.0
3424 3.0
3425 1.0
3426 2.0
3427 2.0
3428 2.0
3429 2.0
3430 2.0
3431 2.0
3432 2.0
3433 2.0
3434 2.0
3435 2.0
3436 2.0
3437 2.0
3438 2.0
3439 2.0
3440 2.0
3441 2.0
3442 2.0
3443 2.0
3444 2.0
3445 2.0
3446 2.0
3447 2.0
3448 2.0
3449 2.0
3450 2.0
3451 2.0
3452 2.0
3453 2.0
3454 2.0
3455 2.0
3456 2.0
3457 2.0
3458 2.0
3459 2.0
3460 2.0
3461 2.0
3462 2.0
3463 2.0
3464 2.0
3465 2.0
3466 2.0
3467 2.0
3468 2.0
3469 2.0
3470 2.0
3471 2.0
3472 2.0
3473 2.0
3474 2.0
3475 2.0
3476 2.0
3477 2.0
3478 2.0
3479 2.0
3480 2.0
3481 2.0
3482 2.0
3483 2.0
3484 2.0
3485 2.0
3486 2.0
3487 2.0
3488 2.0
3489 1.0
3490 3.0
3491 3.0
3492 3.0
3493 3.0
3494 3.0
3495 3.0
3496 3.0
3497 3.0
3498 3.0
3499 3.0
3500 3.0
3501 3.0
3502 3.0
3503 3.0
3504 3.0
3505 3.0
3506 3.0
3507 3.0
3508 3.0
3509 3.0
3510 3.0
3511 3.0
3512 3.0
3513 3.0
3514 3.0
3515 3.0
3516 3.0
3517 3.0
3518 3.0
3519 3.0
3520 3.0
3521 3.0
3522 3.0
3523 3.0
3524 3.0
3525 3.0
3526 3.0
3527 3.0
3528 3.0
3529 3.0
3530 3.0
3531 3.0
3532 3.0
3533 3.0
3534 3.0
3535 3.0
3536 3.0
3537 3.0
3538 3.0
3539 3.0
3540 3.0
3541 3.0
3542 3.0
3543 3.0
3544 3.0
3545 3.0
3546 3.0
3547 3.0
3548 3.0
3549 3.0
3550 3.0
3551 3.0
3552 3.0
3553 3.0
3554 3.0
3555 3.0
3556 3.0
3557 3.0
3558 3.0
3559 3.0
3560 3.0
3561 3.0
3562 3.0
3563 3.0
3564 3.0
3565 3.0
3566 3.0
3567 3.0
3568 3.0
3569 3.0
3570 3.0
3571 3.0
3572 3.0
3573 3.0
3574 3.0
3575 3.0
3576 3.0
3577 3.0
3578 3.0
3579 3.0
3580 3.0
3581 3.0
3582 3.0
3583 3.0
3584 2.0
3585 2.0
3586 2.0
3587 2.0
3588 2.0
3589 2.0
3590 2.0
3591 2.0
3592 2.0
3593 2.0
3594 2.0
3595 2.0
3596 2.0
3597 2.0
3598 2.0
3599 2.0
3600 2.0
3601 2.0
3602 2.0
3603 2.0
3604 2.0
3605 2.0
3606 2.0
3607 2.0
3608 2.0
3609 2.0
3610 2.0
3611 2.0
3612 2.0
3613 2.0
3614 2.0
3615 2.0
3616 2.0
3617 2.0
3618 2.0
3619 2.0
3620 2.0
3621 2.0
3622 2.0
3623 2.0
3624 2.0
3625 2.0
3626 2.0
3627 2.0
3628 2.0
3629 2.0
3630 2.0
3631 3.0
3632 3.0
3633 2.0
3634 2.0
3635 3.0
3636 3.0
3637 2.0
3638 2.0
3639 3.0
3640 3.0
3641 2.0
3642 2.0
3643 3.0
3644 3.0
3645 2.0
3646 2.0
3647 3.0
3648 3.0
3649 2.0
3650 2.0
3651 3.0
3652 3.0
3653 2.0
3654 2.0
3655 3.0
3656 3.0
3657 2.0
3658 2.0
3659 3.0
3660 3.0
3661 2.0
3662 2.0
3663 3.0
3664 3.0
3665 2.0
3666 2.0
3667 3.0
3668 3.0
3669 2.0
3670 2.0
3671 3.0
3672 3.0
3673 2.0
3674 2.0
3675 3.0
3676 3.0
3677 2.0
3678 2.0
3679 3.0
3680 3.0
3681 2.0
3682 2.0
3683 3.0
3684 3.0
3685 2.0
3686 2.0
3687 3.0
3688 3.0
3689 2.0
3690 2.0
3691 3.0
3692 3.0
3693 2.0
3694 2.0
3695 2.0
3696 3.0
3697 3.0
3698 2.0
3699 3.0
3700 3.0
3701 2.0
3702 3.0
3703 3.0
3704 2.0
3705 3.0
3706 3.0
3707 2.0
3708 3.0
3709 3.0
3710 2.0
3711 3.0
3712 3.0
3713 2.0
3714 3.0
3715 3.0
3716 2.0
3717 3.0
3718 3.0
3719 2.0
3720 3.0
3721 3.0
3722 2.0
3723 3.0
3724 3.0
3725 2.0
3726 3.0
3727 3.0
3728 2.0
3729 3.0
3730 3.0
3731 2.0
3732 3.0
3733 3.0
3734 2.0
3735 3.0
3736 3.0
3737 2.0
3738 3.0
3739 3.0
3740 2.0
3741 3.0
3742 3.0
3743 3.0
3744 3.0
3745 2.0
3746 2.0
3747 2.0
3748 3.0
3749 3.0
3750 2.0
3751 2.0
3752 2.0
3753 3.0
3754 3.0
3755 2.0
3756 2.0
3757 2.0
3758 3.0
3759 3.0
3760 2.0
3761 2.0
3762 2.0
3763 3.0
3764 3.0
3765 2.0
3766 2.0
3767 2.0
3768 3.0
3769 3.0
3770 2.0
3771 2.0
3772 2.0
3773 3.0
3774 3.0
3775 2.0
3776 2.0
3777 2.0
3778 3.0
3779 3.0
3780 2.0
3781 2.0
3782 2.0
3783 3.0
3784 3.0
3785 2.0
3786 2.0
3787 2.0
3788 3.0
3789 3.0
3790 2.0
3791 2.0
3792 2.0
3793 3.0
3794 3.0
3795 2.0
3796 2.0
3797 2.0
3798 3.0
3799 3.0
3800 2.0
3801 2.0
3802 2.0
3803 3.0
3804 3.0
3805 2.0
3806 2.0
3807 2.0
3808 3.0
3809 3.0
3810 2.0
3811 2.0
3812 2.0
3813 3.0
3814 3.0
3815 2.0
3816 2.0
3817 2.0
3818 3.0
3819 3.0
3820 2.0
3821 2.0
3822 2.0
3823 2.0
3824 2.0
3825 2.0
3826 2.0
3827 2.0
3828 2.0
3829 2.0
3830 2.0
3831 2.0
3832 2.0
3833 2.0
3834 2.0
3835 2.0
3836 2.0
3837 2.0
3838 2.0
3839 2.0
3840 2.0
3841 2.0
3842 2.0
3843 2.0
3844 2.0
3845 2.0
3846 2.0
3847 2.0
3848 2.0
3849 2.0
3850 2.0
3851 2.0
3852 2.0
3853 2.0
3854 2.0
3855 2.0
3856 2.0
3857 2.0
3858 2.0
3859 2.0
3860 2.0
3861 2.0
3862 2.0
3863 2.0
3864 2.0
3865 2.0
3866 2.0
3867 2.0
3868 2.0
3869 2.0
3870 2.0
3871 2.0
3872 2.0
3873 2.0
3874 2.0
3875 2.0
3876 2.0
3877 2.0
3878 2.0
3879 2.0
3880 2.0
3881 2.0
3882 2.0
3883 2.0
3884 2.0
3885 2.0
3886 2.0
3887 2.0
3888 2.0
3889 2.0
3890 2.0
3891 2.0
3892 2.0
3893 2.0
3894 2.0
3895 2.0
3896 2.0
3897 2.0
3898 2.0
3899 2.0
3900 2.0
3901 2.0
3902 2.0
3903 2.0
3904 2.0
3905 2.0
3906 2.0
3907 2.0
3908 2.0
3909 2.0
3910 2.0
3911 2.0
3912 2.0
3913 2.0
3914 2.0
3915 2.0
3916 2.0
3917 2.0
3918 2.0
3919 3.0
3920 4.0
3921 3.0
3922 3.0
3923 3.0
3924 3.0
3925 3.0
3926 4.0
3927 3.0
3928 3.0
3929 3.0
3930 3.0
3931 3.0
3932 4.0
3933 3.0
3934 3.0
3935 3.0
3936 3.0
3937 3.0
3938 4.0
3939 3.0
3940 3.0
3941 3.0
3942 3.0
3943 3.0
3944 4.0
3945 3.0
3946 3.0
3947 3.0
3948 3.0
3949 3.0
3950 4.0
3951 3.0
3952 3.0
3953 3.0
3954 3.0
3955 3.0
3956 4.0
3957 3.0
3958 3.0
3959 3.0
3960 3.0
3961 3.0
3962 4.0
3963 3.0
3964 3.0
3965 3.0
3966 3.0
3967 3.0
3968 4.0
3969 3.0
3970 3.0
3971 3.0
3972 3.0
3973 3.0
3974 4.0
3975 3.0
3976 3.0
3977 3.0
3978 3.0
3979 3.0
3980 4.0
3981 3.0
3982 3.0
3983 3.0
3984 3.0
3985 3.0
3986 4.0
3987 3.0
3988 3.0
3989 3.0
3990 3.0
3991 3.0
3992 4.0
3993 3.0
3994 3.0
3995 3.0
3996 3.0
3997 3.0
3998 4.0
3999 3.0
4000 3.0
4001 3.0
4002 3.0
4003 3.0
4004 4.0
4005 3.0
4006 3.0
4007 3.0
4008 3.0
4009 3.0
4010 4.0
4011 3.0
4012 3.0
4013 3.0
4014 3.0
4015 1.0
4016 2.0
4017 2.0
4018 2.0
4019 2.0
4020 2.0
4021 2.0
4022 2.0
4023 2.0
4024 2.0
4025 2.0
4026 2.0
4027 2.0
4028 2.0
4029 2.0
4030 2.0
4031 2.0
4032 2.0
4033 2.0
4034 2.0
4035 2.0
4036 2.0
4037 2.0
4038 2.0
4039 2.0
4040 2.0
4041 2.0
4042 2.0
4043 2.0
4044 2.0
4045 2.0
4046 2.0
4047 2.0
4048 2.0
4049 2.0
4050 2.0
4051 2.0
4052 2.0
4053 2.0
4054 2.0
4055 2.0
4056 2.0
4057 2.0
4058 2.0
4059 2.0
4060 2.0
4061 2.0
4062 2.0
4063 2.0
4064 2.0
4065 2.0
4066 2.0
4067 2.0
4068 2.0
4069 2.0
4070 2.0
4071 2.0
4072 2.0
4073 2.0
4074 2.0
4075 2.0
4076 2.0
4077 2.0
4078 2.0
4079 1.0
4080 3.0
4081 3.0
4082 3.0
4083 3.0
4084 3.0
4085 3.0
4086 3.0
4087 3.0
4088 3.0
4089 3.0
4090 3.0
4091 3.0
4092 3.0
4093 3.0
4094 3.0
4095 3.0
4096 3.0
4097 3.0
4098 3.0
4099 3.0
4100 3.0
4101 3.0
4102 3.0
4103 3.0
4104 3.0
4105 3.0
4106 3.0
4107 3.0
4108 3.0
4109 3.0
4110 3.0
4111 3.0
4112 3.0
4113 3.0
4114 3.0
4115 3.0
4116 3.0
4117 3.0
4118 3.0
4119 3.0
4120 3.0
4121 3.0
4122 3.0
4123 3.0
4124 3.0
4125 3.0
4126 3.0
4127 3.0
4128 3.0
4129 3.0
4130 3.0
4131 3.0
4132 3.0
4133 3.0
4134 3.0
4135 3.0
4136 3.0
4137 3.0
4138 3.0
4139 3.0
4140 3.0
4141 3.0
4142 3.0
4143 3.0
4144 3.0
4145 3.0
4146 3.0
4147 3.0
4148 3.0
4149 3.0
4150 3.0
4151 3.0
4152 3.0
4153 3.0
4154 3.0
4155 3.0
4156 3.0
4157 3.0
4158 3.0
4159 3.0
4160 3.0
4161 3.0
4162 3.0
4163 3.0
4164 3.0
4165 3.0
4166 3.0
4167 3.0
4168 3.0
4169 3.0
4170 3.0
4171 3.0
4172 3.0
4173 3.0
4174 2.0
4175 2.0
4176 2.0
4177 2.0
4178 2.0
4179 2.0
4180 2.0
4181 2.0
4182 2.0
4183 2.0
4184 2.0
4185 2.0
4186 2.0
4187 2.0
4188 2.0
4189 2.0
4190 2.0
4191 2.0
4192 2.0
4193 2.0
4194 2.0
4195 2.0
4196 2.0
4197 2.0
4198 2.0
4199 2.0
4200 2.0
4201 2.0
4202 2.0
4203 2.0
4204 2.0
4205 2.0
4206 2.0
4207 2.0
4208 2.0
4209 2.0
4210 2.0
4211 2.0
4212 2.0
4213 2.0
4214 2.0
4215 2.0
4216 2.0
4217 2.0
4218 2.0
4219 2.0
4220 2.0
4221 3.0
4222 3.0
4223 2.0
4224 2.0
4225 3.0
4226 3.0
4227 2.0
4228 2.0
4229 3.0
4230 3.0
4231 2.0
4232 2.0
4233 3.0
4234 3.0
4235 2.0
4236 2.0
4237 3.0
4238 3.0
4239 2.0
4240 2.0
4241 3.0
4242 3.0
4243 2.0
4244 2.0
4245 3.0
4246 3.0
4247 2.0
4248 2.0
4249 3.0
4250 3.0
4251 2.0
4252 2.0
4253 3.0
4254 3.0
4255 2.0
4256 2.0
4257 3.0
4258 3.0
4259 2.0
4260 2.0
4261 3.0
4262 3.0
4263 2.0
4264 2.0
4265 3.0
4266 3.0
4267 2.0
4268 2.0
4269 3.0
4270 3.0
4271 2.0
4272 2.0
4273 3.0
4274 3.0
4275 2.0
4276 2.0
4277 3.0
4278 3.0
4279 2.0
4280 2.0
4281 3.0
4282 3.0
4283 2.0
4284 2.0
4285 2.0
4286 3.0
4287 3.0
4288 2.0
4289 3.0
4290 3.0
4291 2.0
4292 3.0
4293 3.0
4294 2.0
4295 3.0
4296 3.0
4297 2.0
4298 3.0
4299 3.0
4300 2.0
4301 3.0
4302 3.0
4303 2.0
4304 3.0
4305 3.0
4306 2.0
4307 3.0
4308 3.0
4309 2.0
4310 3.0
4311 3.0
4312 2.0
4313 3.0
4314 3.0
4315 2.0
4316 3.0
4317 3.0
4318 2.0
4319 3.0
4320 3.0
4321 2.0
4322 3.0
4323 3.0
4324 2.0
4325 3.0
4326 3.0
4327 2.0
4328 3.0
4329 3.0
4330 2.0
4331 3.0
4332 3.0
4333 3.0
4334 3.0
4335 2.0
4336 2.0
4337 2.0
4338 3.0
4339 3.0
4340 2.0
4341 2.0
4342 2.0
4343 3.0
4344 3.0
4345 2.0
4346 2.0
4347 2.0
4348 3.0
4349 3.0
4350 2.0
4351 2.0
4352 2.0
4353 3.0
4354 3.0
4355 2.0
4356 2.0
4357 2.0
4358 3.0
4359 3.0
4360 2.0
4361 2.0
4362 2.0
4363 3.0
4364 3.0
4365 2.0
4366 2.0
4367 2.0
4368 3.0
4369 3.0
4370 2.0
4371 2.0
4372 2.0
4373 3.0
4374 3.0
4375 2.0
4376 2.0
4377 2.0
4378 3.0
4379 3.0
4380 2.0
4381 2.0
4382 2.0
4383 3.0
4384 3.0
4385 2.0
4386 2.0
4387 2.0
4388 3.0
4389 3.0
4390 2.0
4391 2.0
4392 2.0
4393 3.0
4394 3.0
4395 2.0
4396 2.0
4397 2.0
4398 3.0
4399 3.0
4400 2.0
4401 2.0
4402 2.0
4403 3.0
4404 3.0
4405 2.0
4406 2.0
4407 2.0
4408 3.0
4409 3.0
4410 2.0
4411 2.0
4412 2.0
4413 2.0
4414 2.0
4415 2.0
4416 2.0
4417 2.0
4418 2.0
4419 2.0
4420 2.0
4421 2.0
4422 2.0
4423 2.0
4424 2.0
4425 2.0
4426 2.0
4427 2.0
4428 2.0
4429 2.0
4430 2.0
4431 2.0
4432 2.0
4433 2.0
4434 2.0
4435 2.0
4436 2.0
4437 2.0
4438 2.0
4439 2.0
4440 2.0
4441 2.0
4442 2.0
4443 2.0
4444 2.0
4445 2.0
4446 2.0
4447 2.0
4448 2.0
4449 2.0
4450 2.0
4451 2.0
4452 2.0
4453 2.0
4454 2.0
4455 2.0
4456 2.0
4457 2.0
4458 2.0
4459 2.0
4460 2.0
4461 2.0
4462 2.0
4463 2.0
4464 2.0
4465 2.0
4466 2.0
4467 2.0
4468 2.0
4469 2.0
4470 2.0
4471 2.0
4472 2.0
4473 2.0
4474 2.0
4475 2.0
4476 2.0
4477 2.0
4478 2.0
4479 2.0
4480 2.0
4481 2.0
4482 2.0
4483 2.0
4484 2.0
4485 2.0
4486 2.0
4487 2.0
4488 2.0
4489 2.0
4490 2.0
4491 2.0
4492 2.0
4493 2.0
4494 2.0
4495 2.0
4496 2.0
4497 2.0
4498 2.0
4499 2.0
4500 2.0
4501 2.0
4502 2.0
4503 2.0
4504 2.0
4505 2.0
4506 2.0
4507 2.0
4508 2.0
4509 3.0
4510 4.0
4511 3.0
4512 3.0
4513 3.0
4514 3.0
4515 3.0
4516 4.0
4517 3.0
4518 3.0
4519 3.0
4520 3.0
4521 3.0
4522 4.0
4523 3.0
4524 3.0
4525 3.0
4526 3.0
4527 3.0
4528 4.0
4529 3.0
4530 3.0
4531 3.0
4532 3.0
4533 3.0
4534 4.0
4535 3.0
4536 3.0
4537 3.0
4538 3.0
4539 3.0
4540 4.0
4541 3.0
4542 3.0
4543 3.0
4544 3.0
4545 3.0
4546 4.0
4547 3.0
4548 3.0
4549 3.0
4550 3.0
4551 3.0
4552 4.0
4553 3.0
4554 3.0
4555 3.0
4556 3.0
4557 3.0
4558 4.0
4559 3.0
4560 3.0
4561 3.0
4562 3.0
4563 3.0
4564 4.0
4565 3.0
4566 3.0
4567 3.0
4568 3.0
4569 3.0
4570 4.0
4571 3.0
4572 3.0
4573 3.0
4574 3.0
4575 3.0
4576 4.0
4577 3.0
4578 3.0
4579 3.0
4580 3.0
4581 3.0
4582 4.0
4583 3.0
4584 3.0
4585 3.0
4586 3.0
4587 3.0
4588 4.0
4589 3.0
4590 3.0
4591 3.0
4592 3.0
4593 3.0
4594 4.0
4595 3.0
4596 3.0
4597 3.0
4598 3.0
4599 3.0
4600 4.0
4601 3.0
4602 3.0
4603 3.0
4604 3.0
4605 1.0
4606 2.0
4607 2.0
4608 2.0
4609 2.0
4610 2.0
4611 2.0
4612 2.0
4613 2.0
4614 2.0
4615 2.0
4616 2.0
4617 2.0
4618 2.0
4619 2.0
4620 2.0
4621 2.0
4622 2.0
4623 2.0
4624 2.0
4625 2.0
4626 2.0
4627 2.0
4628 2.0
4629 2.0
4630 2.0
4631 2.0
4632 2.0
4633 2.0
4634 2.0
4635 2.0
4636 2.0
4637 2.0
4638 2.0
4639 2.0
4640 2.0
4641 2.0
4642 2.0
4643 2.0
4644 2.0
4645 2.0
4646 2.0
4647 2.0
4648 2.0
4649 2.0
4650 2.0
4651 2.0
4652 2.0
4653 2.0
4654 2.0
4655 2.0
4656 2.0
4657 2.0
4658 2.0
4659 2.0
4660 2.0
4661 2.0
4662 2.0
4663 2.0
4664 2.0
4665 2.0
4666 2.0
4667 2.0
4668 2.0
4669 1.0
4670 3.0
4671 3.0
4672 3.0
4673 3.0
4674 3.0
4675 3.0
4676 3.0
4677 3.0
4678 3.0
4679 3.0
4680 3.0
4681 3.0
4682 3.0
4683 3.0
4684 3.0
4685 3.0
4686 3.0
4687 3.0
4688 3.0
4689 3.0
4690 3.0
4691 3.0
4692 3.0
4693 3.0
4694 3.0
4695 3.0
4696 3.0
4697 3.0
4698 3.0
4699 3.0
4700 3.0
4701 3.0
4702 3.0
4703 3.0
4704 3.0
4705 3.0
4706 3.0
4707 3.0
4708 3.0
4709 3.0
4710 3.0
4711 3.0
4712 3.0
4713 3.0
4714 3.0
4715 3.0
4716 3.0
4717 3.0
4718 3.0
4719 3.0
4720 3.0
4721 3.0
4722 3.0
4723 3.0
4724 3.0
4725 3.0
4726 3.0
4727 3.0
4728 3.0
4729 3.0
4730 3.0
4731 3.0
4732 3.0
4733 3.0
4734 3.0
4735 3.0
4736 3.0
4737 3.0
4738 3.0
4739 3.0
4740 3.0
4741 3.0
4742 3.0
4743 3.0
4744 3.0
4745 3.0
4746 3.0
4747 3.0
4748 3.0
4749 3.0
4750 3.0
4751 3.0
4752 3.0
4753 3.0
4754 3.0
4755 3.0
4756 3.0
4757 3.0
4758 3.0
4759 3.0
4760 3.0
4761 3.0
4762 3.0
4763 3.0
4764 3.0
4765 3.0
4766 2.0
4767 2.0
4768 2.0
4769 2.0
4770 2.0
4771 2.0
4772 2.0
4773 2.0
4774 2.0
4775 2.0
4776 2.0
4777 2.0
4778 2.0
4779 2.0
4780 2.0
4781 2.0
4782 2.0
4783 2.0
4784 2.0
4785 2.0
4786 2.0
4787 2.0
4788 2.0
4789 2.0
4790 2.0
4791 2.0
4792 2.0
4793 2.0
4794 2.0
4795 2.0
4796 2.0
4797 2.0
4798 2.0
4799 2.0
4800 2.0
4801 2.0
4802 2.0
4803 2.0
4804 2.0
4805 2.0
4806 2.0
4807 2.0
4808 2.0
4809 2.0
4810 2.0
4811 2.0
4812 2.0
4813 3.0
4814 3.0
4815 2.0
4816 2.0
4817 3.0
4818 3.0
4819 2.0
4820 2.0
4821 3.0
4822 3.0
4823 2.0
4824 2.0
4825 3.0
4826 3.0
4827 2.0
4828 2.0
4829 3.0
4830 3.0
4831 2.0
4832 2.0
4833 3.0
4834 3.0
4835 2.0
4836 2.0
4837 3.0
4838 3.0
4839 2.0
4840 2.0
4841 3.0
4842 3.0
4843 2.0
4844 2.0
4845 3.0
4846 3.0
4847 2.0
4848 2.0
4849 3.0
4850 3.0
4851 2.0
4852 2.0
4853 3.0
4854 3.0
4855 2.0
4856 2.0
4857 3.0
4858 3.0
4859 2.0
4860 2.0
4861 3.0
4862 3.0
4863 2.0
4864 2.0
4865 3.0
4866 3.0
4867 2.0
4868 2.0
4869 3.0
4870 3.0
4871 2.0
4872 2.0
4873 3.0
4874 3.0
4875 2.0
4876 2.0
4877 2.0
4878 3.0
4879 3.0
4880 2.0
4881 3.0
4882 3.0
4883 2.0
4884 3.0
4885 3.0
4886 2.0
4887 3.0
4888 3.0
4889 2.0
4890 3.0
4891 3.0
4892 2.0
4893 3.0
4894 3.0
4895 2.0
4896 3.0
4897 3.0
4898 2.0
4899 3.0
4900 3.0
4901 2.0
4902 3.0
4903 3.0
4904 2.0
4905 3.0
4906 3.0
4907 2.0
4908 3.0
4909 3.0
4910 2.0
4911 3.0
4912 3.0
4913 2.0
4914 3.0
4915 3.0
4916 2.0
4917 3.0
4918 3.0
4919 2.0
4920 3.0
4921 3.0
4922 2.0
4923 3.0
4924 3.0
4925 3.0
4926 3.0
4927 2.0
4928 2.0
4929 2.0
4930 3.0
4931 3.0
4932 2.0
4933 2.0
4934 2.0
4935 3.0
4936 3.0
4937 2.0
4938 2.0
4939 2.0
4940 3.0
4941 3.0
4942 2.0
4943 2.0
4944 2.0
4945 3.0
4946 3.0
4947 2.0
4948 2.0
4949 2.0
4950 3.0
4951 3.0
4952 2.0
4953 2.0
4954 2.0
4955 3.0
4956 3.0
4957 2.0
4958 2.0
4959 2.0
4960 3.0
4961 3.0
4962 2.0
4963 2.0
4964 2.0
4965 3.0
4966 3.0
4967 2.0
4968 2.0
4969 2.0
4970 3.0
4971 3.0
4972 2.0
4973 2.0
4974 2.0
4975 3.0
4976 3.0
4977 2.0
4978 2.0
4979 2.0
4980 3.0
4981 3.0
4982 2.0
4983 2.0
4984 2.0
4985 3.0
4986 3.0
4987 2.0
4988 2.0
4989 2.0
4990 3.0
4991 3.0
4992 2.0
4993 2.0
4994 2.0
4995 3.0
4996 3.0
4997 2.0
4998 2.0
4999 2.0
5000 3.0
5001 3.0
5002 2.0
5003 2.0
5004 2.0
5005 2.0
5006 2.0
5007 2.0
5008 2.0
5009 2.0
5010 2.0
5011 2.0
5012 2.0
5013 2.0
5014 2.0
5015 2.0
5016 2.0
5017 2.0
5018 2.0
5019 2.0
5020 2.0
5021 2.0
5022 2.0
5023 2.0
5024 2.0
5025 2.0
5026 2.0
5027 2.0
5028 2.0
5029 2.0
5030 2.0
5031 2.0
5032 2.0
5033 2.0
5034 2.0
5035 2.0
5036 2.0
5037 2.0
5038 2.0
5039 2.0
5040 2.0
5041 2.0
5042 2.0
5043 2.0
5044 2.0
5045 2.0
5046 2.0
5047 2.0
5048 2.0
5049 2.0
5050 2.0
5051 2.0
5052 2.0
5053 2.0
5054 2.0
5055 2.0
5056 2.0
5057 2.0
5058 2.0
5059 2.0
5060 2.0
5061 2.0
5062 2.0
5063 2.0
5064 2.0
5065 2.0
5066 2.0
5067 2.0
5068 2.0
5069 2.0
5070 2.0
5071 2.0
5072 2.0
5073 2.0
5074 2.0
5075 2.0
5076 2.0
5077 2.0
5078 2.0
5079 2.0
5080 2.0
5081 2.0
5082 2.0
5083 2.0
5084 2.0
5085 2.0
5086 2.0
5087 2.0
5088 2.0
5089 2.0
5090 2.0
5091 2.0
5092 2.0
5093 2.0
5094 2.0
5095 2.0
5096 2.0
5097 2.0
5098 2.0
5099 2.0
5100 2.0
5101 3.0
5102 4.0
5103 3.0
5104 3.0
5105 3.0
5106 3.0
5107 3.0
5108 4.0
5109 3.0
5110 3.0
5111 3.0
5112 3.0
5113 3.0
5114 4.0
5115 3.0
5116 3.0
5117 3.0
5118 3.0
5119 3.0
5120 4.0
5121 3.0
5122 3.0
5123 3.0
5124 3.0
5125 3.0
5126 4.0
5127 3.0
5128 3.0
5129 3.0
5130 3.0
5131 3.0
5132 4.0
5133 3.0
5134 3.0
5135 3.0
5136 3.0
5137 3.0
5138 4.0
5139 3.0
5140 3.0
5141 3.0
5142 3.0
5143 3.0
5144 4.0
5145 3.0
5146 3.0
5147 3.0
5148 3.0
5149 3.0
5150 4.0
5151 3.0
5152 3.0
5153 3.0
5154 3.0
5155 3.0
5156 4.0
5157 3.0
5158 3.0
5159 3.0
5160 3.0
5161 3.0
5162 4.0
5163 3.0
5164 3.0
5165 3.0
5166 3.0
5167 3.0
5168 4.0
5169 3.0
5170 3.0
5171 3.0
5172 3.0
5173 3.0
5174 4.0
5175 3.0
5176 3.0
5177 3.0
5178 3.0
5179 3.0
5180 4.0
5181 3.0
5182 3.0
5183 3.0
5184 3.0
5185 3.0
5186 4.0
5187 3.0
5188 3.0
5189 3.0
5190 3.0
5191 3.0
5192 4.0
5193 3.0
5194 3.0
5195 3.0
5196 3.0
5197 1.0
5198 2.0
5199 2.0
5200 2.0
5201 2.0
5202 2.0
5203 2.0
5204 2.0
5205 2.0
5206 2.0
5207 2.0
5208 2.0
5209 2.0
5210 2.0
5211 2.0
5212 2.0
5213 2.0
5214 2.0
5215 2.0
5216 2.0
5217 2.0
5218 2.0
5219 2.0
5220 2.0
5221 2.0
5222 2.0
5223 2.0
5224 2.0
5225 2.0
5226 2.0
5227 2.0
5228 2.0
5229 2.0
5230 2.0
5231 2.0
5232 2.0
5233 2.0
5234 2.0
5235 2.0
5236 2.0
5237 2.0
5238 2.0
5239 2.0
5240 2.0
5241 2.0
5242 2.0
5243 2.0
5244 2.0
5245 2.0
5246 2.0
5247 2.0
5248 2.0
5249 2.0
5250 2.0
5251 2.0
5252 2.0
5253 2.0
5254 2.0
5255 2.0
5256 2.0
5257 2.0
5258 2.0
5259 2.0
5260 2.0
5261 1.0
5262 3.0
5263 3.0
5264 3.0
5265 3.0
5266 3.0
5267 3.0
5268 3.0
5269 3.0
5270 3.0
5271 3.0
5272 3.0
5273 3.0
5274 3.0
5275 3.0
5276 3.0
5277 3.0
5278 3.0
5279 3.0
5280 3.0
5281 3.0
5282 3.0
5283 3.0
5284 3.0
5285 3.0
5286 3.0
5287 3.0
5288 3.0
5289 3.0
5290 3.0
5291 3.0
5292 3.0
5293 3.0
5294 3.0
5295 3.0
5296 3.0
5297 3.0
5298 3.0
5299 3.0
5300 3.0
5301 3.0
5302 3.0
5303 3.0
5304 3.0
5305 3.0
5306 3.0
5307 3.0
5308 3.0
5309 3.0
5310 3.0
5311 3.0
5312 3.0
5313 3.0
5314 3.0
5315 3.0
5316 3.0
5317 3.0
5318 3.0
5319 3.0
5320 3.0
5321 3.0
5322 3.0
5323 3.0
5324 3.0
5325 3.0
5326 3.0
5327 3.0
5328 3.0
5329 3.0
5330 3.0
5331 3.0
5332 3.0
5333 3.0
5334 3.0
5335 3.0
5336 3.0
5337 3.0
5338 3.0
5339 3.0
5340 3.0
5341 3.0
5342 3.0
5343 3.0
5344 3.0
5345 3.0
5346 3.0
5347 3.0
5348 3.0
5349 3.0
5350 3.0
5351 3.0
5352 3.0
5353 3.0
5354 3.0
5355 3.0
5356 3.0
5357 3.0
5358 2.0
5359 2.0
5360 2.0
5361 2.0
5362 2.0
5363 2.0
5364 2.0
5365 2.0
5366 2.0
5367 2.0
5368 2.0
5369 2.0
5370 2.0
5371 2.0
5372 2.0
5373 2.0
5374 2.0
5375 2.0
5376 2.0
5377 2.0
5378 2.0
5379 2.0
5380 2.0
5381 2.0
5382 2.0
5383 2.0
5384 2.0
5385 2.0
5386 2.0
5387 2.0
5388 2.0
5389 2.0
5390 2.0
5391 2.0
5392 2.0
5393 2.0
5394 2.0
5395 2.0
5396 2.0
5397 2.0
5398 2.0
5399 2.0
5400 2.0
5401 2.0
5402 2.0
5403 2.0
5404 2.0
5405 3.0
5406 3.0
5407 2.0
5408 2.0
5409 3.0
5410 3.0
5411 2.0
5412 2.0
5413 3.0
5414 3.0
5415 2.0
5416 2.0
5417 3.0
5418 3.0
5419 2.0
5420 2.0
5421 3.0
5422 3.0
5423 2.0
5424 2.0
5425 3.0
5426 3.0
5427 2.0
5428 2.0
5429 3.0
5430 3.0
5431 2.0
5432 2.0
5433 3.0
5434 3.0
5435 2.0
5436 2.0
5437 3.0
5438 3.0
5439 2.0
5440 2.0
5441 3.0
5442 3.0
5443 2.0
5444 2.0
5445 3.0
5446 3.0
5447 2.0
5448 2.0
5449 3.0
5450 3.0
5451 2.0
5452 2.0
5453 3.0
5454 3.0
5455 2.0
5456 2.0
5457 3.0
5458 3.0
5459 2.0
5460 2.0
5461 3.0
5462 3.0
5463 2.0
5464 2.0
5465 3.0
5466 3.0
5467 2.0
5468 2.0
5469 2.0
5470 3.0
5471 3.0
5472 2.0
5473 3.0
5474 3.0
5475 2.0
5476 3.0
5477 3.0
5478 2.0
5479 3.0
5480 3.0
5481 2.0
5482 3.0
5483 3.0
5484 2.0
5485 3.0
5486 3.0
5487 2.0
5488 3.0
5489 3.0
5490 2.0
5491 3.0
5492 3.0
5493 2.0
5494 3.0
5495 3.0
5496 2.0
5497 3.0
5498 3.0
5499 2.0
5500 3.0
5501 3.0
5502 2.0
5503 3.0
5504 3.0
5505 2.0
5506 3.0
5507 3.0
5508 2.0
5509 3.0
5510 3.0
5511 2.0
5512 3.0
5513 3.0
5514 2.0
5515 3.0
5516 3.0
5517 3.0
5518 3.0
5519 2.0
5520 2.0
5521 2.0
5522 3.0
5523 3.0
5524 2.0
5525 2.0
5526 2.0
5527 3.0
5528 3.0
5529 2.0
5530 2.0
5531 2.0
5532 3.0
5533 3.0
5534 2.0
5535 2.0
5536 2.0
5537 3.0
5538 3.0
5539 2.0
5540 2.0
5541 2.0
5542 3.0
5543 3.0
5544 2.0
5545 2.0
5546 2.0
5547 3.0
5548 3.0
5549 2.0
5550 2.0
5551 2.0
5552 3.0
5553 3.0
5554 2.0
5555 2.0
5556 2.0
5557 3.0
5558 3.0
5559 2.0
5560 2.0
5561 2.0
5562 3.0
5563 3.0
5564 2.0
5565 2.0
5566 2.0
5567 3.0
5568 3.0
5569 2.0
5570 2.0
5571 2.0
5572 3.0
5573 3.0
5574 2.0
5575 2.0
5576 2.0
5577 3.0
5578 3.0
5579 2.0
5580 2.0
5581 2.0
5582 3.0
5583 3.0
5584 2.0
5585 2.0
5586 2.0
5587 3.0
5588 3.0
5589 2.0
5590 2.0
5591 2.0
5592 3.0
5593 3.0
5594 2.0
5595 2.0
5596 2.0
5597 2.0
5598 2.0
5599 2.0
5600 2.0
5601 2.0
5602 2.0
5603 2.0
5604 2.0
5605 2.0
5606 2.0
5607 2.0
5608 2.0
5609 2.0
5610 2.0
5611 2.0
5612 2.0
5613 2.0
5614 2.0
5615 2.0
5616 2.0
5617 2.0
5618 2.0
5619 2.0
5620 2.0
5621 2.0
5622 2.0
5623 2.0
5624 2.0
5625 2.0
5626 2.0
5627 2.0
5628 2.0
5629 2.0
5630 2.0
5631 2.0
5632 2.0
5633 2.0
5634 2.0
5635 2.0
5636 2.0
5637 2.0
5638 2.0
5639 2.0
5640 2.0
5641 2.0
5642 2.0
5643 2.0
5644 2.0
5645 2.0
5646 2.0
5647 2.0
5648 2.0
5649 2.0
5650 2.0
5651 2.0
5652 2.0
5653 2.0
5654 2.0
5655 2.0
5656 2.0
5657 2.0
5658 2.0
5659 2.0
5660 2.0
5661 2.0
5662 2.0
5663 2.0
5664 2.0
5665 2.0
5666 2.0
5667 2.0
5668 2.0
5669 2.0
5670 2.0
5671 2.0
5672 2.0
5673 2.0
5674 2.0
5675 2.0
5676 2.0
5677 2.0
5678 2.0
5679 2.0
5680 2.0
5681 2.0
5682 2.0
5683 2.0
5684 2.0
5685 2.0
5686 2.0
5687 2.0
5688 2.0
5689 2.0
5690 2.0
5691 2.0
5692 2.0
5693 3.0
5694 4.0
5695 3.0
5696 3.0
5697 3.0
5698 3.0
5699 3.0
5700 4.0
5701 3.0
5702 3.0
5703 3.0
5704 3.0
5705 3.0
5706 4.0
5707 3.0
5708 3.0
5709 3.0
5710 3.0
5711 3.0
5712 4.0
5713 3.0
5714 3.0
5715 3.0
5716 3.0
5717 3.0
5718 4.0
5719 3.0
5720 3.0
5721 3.0
5722 3.0
5723 3.0
5724 4.0
5725 3.0
5726 3.0
5727 3.0
5728 3.0
5729 3.0
5730 4.0
5731 3.0
5732 3.0
5733 3.0
5734 3.0
5735 3.0
5736 4.0
5737 3.0
5738 3.0
5739 3.0
5740 3.0
5741 3.0
5742 4.0
5743 3.0
5744 3.0
5745 3.0
5746 3.0
5747 3.0
5748 4.0
5749 3.0
5750 3.0
5751 3.0
5752 3.0
5753 3.0
5754 4.0
5755 3.0
5756 3.0
5757 3.0
5758 3.0
5759 3.0
5760 4.0
5761 3.0
5762 3.0
5763 3.0
5764 3.0
5765 3.0
5766 4.0
5767 3.0
5768 3.0
5769 3.0
5770 3.0
5771 3.0
5772 4.0
5773 3.0
5774 3.0
5775 3.0
5776 3.0
5777 3.0
5778 4.0
5779 3.0
5780 3.0
5781 3.0
5782 3.0
5783 3.0
5784 4.0
5785 3.0
5786 3.0
5787 3.0
5788 3.0
5789 1.0
5790 2.0
5791 2.0
5792 2.0
5793 2.0
5794 2.0
5795 2.0
5796 2.0
5797 2.0
5798 2.0
5799 2.0
5800 2.0
5801 2.0
5802 2.0
5803 2.0
5804 2.0
5805 2.0
5806 2.0
5807 2.0
5808 2.0
5809 2.0
5810 2.0
5811 2.0
5812 2.0
5813 2.0
5814 2.0
5815 2.0
5816 2.0
5817 2.0
5818 2.0
5819 2.0
5820 2.0
5821 2.0
5822 2.0
5823 2.0
5824 2.0
5825 2.0
5826 2.0
5827 2.0
5828 2.0
5829 2.0
5830 2.0
5831 2.0
5832 2.0
5833 2.0
5834 2.0
5835 2.0
5836 2.0
5837 2.0
5838 2.0
5839 2.0
5840 2.0
5841 2.0
5842 2.0
5843 2.0
5844 2.0
5845 2.0
5846 2.0
5847 2.0
5848 2.0
5849 2.0
5850 2.0
5851 2.0
5852 2.0
5853 1.0
5854 3.0
5855 3.0
5856 3.0
5857 3.0
5858 3.0
5859 3.0
5860 3.0
5861 3.0
5862 3.0
5863 3.0
5864 3.0
5865 3.0
5866 3.0
5867 3.0
5868 3.0
5869 3.0
5870 3.0
5871 3.0
5872 3.0
5873 3.0
5874 3.0
5875 3.0
5876 3.0
5877 3.0
5878 3.0
5879 3.0
5880 3.0
5881 3.0
5882 3.0
5883 3.0
5884 3.0
5885 3.0
5886 3.0
5887 3.0
5888 3.0
5889 3.0
5890 3.0
5891 3.0
5892 3.0
5893 3.0
5894 3.0
5895 3.0
5896 3.0
5897 3.0
5898 3.0
5899 3.0
5900 3.0
5901 3.0
5902 3.0
5903 3.0
5904 3.0
5905 3.0
5906 3.0
5907 3.0
5908 3.0
5909 3.0
5910 3.0
5911 3.0
5912 3.0
5913 3.0
5914 3.0
5915 3.0
5916 3.0
5917 3.0
5918 3.0
5919 3.0
5920 3.0
5921 3.0
5922 3.0
5923 3.0
5924 3.0
5925 3.0
5926 3.0
5927 3.0
5928 3.0
5929 3.0
5930 3.0
5931 3.0
5932 3.0
5933 3.0
5934 3.0
5935 3.0
5936 3.0
5937 3.0
5938 3.0
5939 3.0
5940 3.0
5941 3.0
5942 3.0
5943 3.0
5944 3.0
5945 3.0
5946 3.0
5947 3.0
5948 3.0
5949 3.0
5950 2.0
5951 2.0
5952 2.0
5953 2.0
5954 2.0
5955 2.0
5956 2.0
5957 2.0
5958 2.0
5959 2.0
5960 2.0
5961 2.0
5962 2.0
5963 2.0
5964 2.0
5965 2.0
5966 2.0
5967 2.0
5968 2.0
5969 2.0
5970 2.0
5971 2.0
5972 2.0
5973 2.0
5974 2.0
5975 2.0
5976 2.0
5977 2.0
5978 2.0
5979 2.0
5980 2.0
5981 2.0
5982 2.0
5983 2.0
5984 2.0
5985 2.0
5986 2.0
5987 2.0
5988 2.0
5989 2.0
5990 2.0
5991 2.0
5992 2.0
5993 2.0
5994 2.0
5995 2.0
5996 2.0
5997 3.0
5998 3.0
5999 2.0
6000 2.0
6001 3.0
6002 3.0
6003 2.0
6004 2.0
6005 3.0
6006 3.0
6007 2.0
6008 2.0
6009 3.0
6010 3.0
6011 2.0
6012 2.0
6013 3.0
6014 3.0
6015 2.0
6016 2.0
6017 3.0
6018 3.0
6019 2.0
6020 2.0
6021 3.0
6022 3.0
6023 2.0
6024 2.0
6025 3.0
6026 3.0
6027 2.0
6028 2.0
6029 3.0
6030 3.0
6031 2.0
6032 2.0
6033 3.0
6034 3.0
6035 2.0
6036 2.0
6037 3.0
6038 3.0
6039 2.0
6040 2.0
6041 3.0
6042 3.0
6043 2.0
6044 2.0
6045 3.0
6046 3.0
6047 2.0
6048 2.0
6049 3.0
6050 3.0
6051 2.0
6052 2.0
6053 3.0
6054 3.0
6055 2.0
6056 2.0
6057 3.0
6058 3.0
6059 2.0
6060 2.0
6061 2.0
6062 3.0
6063 3.0
6064 2.0
6065 3.0
6066 3.0
6067 2.0
6068 3.0
6069 3.0
6070 2.0
6071 3.0
6072 3.0
6073 2.0
6074 3.0
6075 3.0
6076 2.0
6077 3.0
6078 3.0
6079 2.0
6080 3.0
6081 3.0
6082 2.0
6083 3.0
6084 3.0
6085 2.0
6086 3.0
6087 3.0
6088 2.0
6089 3.0
6090 3.0
6091 2.0
6092 3.0
6093 3.0
6094 2.0
6095 3.0
6096 3.0
6097 2.0
6098 3.0
6099 3.0
6100 2.0
6101 3.0
6102 3.0
6103 2.0
6104 3.0
6105 3.0
6106 2.0
6107 3.0
6108 3.0
6109 3.0
6110 3.0
6111 2.0
6112 2.0
6113 2.0
6114 3.0
6115 3.0
6116 2.0
6117 2.0
6118 2.0
6119 3.0
6120 3.0
6121 2.0
6122 2.0
6123 2.0
6124 3.0
6125 3.0
6126 2.0
6127 2.0
6128 2.0
6129 3.0
6130 3.0
6131 2.0
6132 2.0
6133 2.0
6134 3.0
6135 3.0
6136 2.0
6137 2.0
6138 2.0
6139 3.0
6140 3.0
6141 2.0
6142 2.0
6143 2.0
6144 3.0
6145 3.0
6146 2.0
6147 2.0
6148 2.0
6149 3.0
6150 3.0
6151 2.0
6152 2.0
6153 2.0
6154 3.0
6155 3.0
6156 2.0
6157 2.0
6158 2.0
6159 3.0
6160 3.0
6161 2.0
6162 2.0
6163 2.0
6164 3.0
6165 3.0
6166 2.0
6167 2.0
6168 2.0
6169 3.0
6170 3.0
6171 2.0
6172 2.0
6173 2.0
6174 3.0
6175 3.0
6176 2.0
6177 2.0
6178 2.0
6179 3.0
6180 3.0
6181 2.0
6182 2.0
6183 2.0
6184 3.0
6185 3.0
6186 2.0
6187 2.0
6188 2.0
6189 2.0
6190 2.0
6191 2.0
6192 2.0
6193 2.0
6194 2.0
6195 2.0
6196 2.0
6197 2.0
6198 2.0
6199 2.0
6200 2.0
6201 2.0
6202 2.0
6203 2.0
6204 2.0
6205 2.0
6206 2.0
6207 2.0
6208 2.0
6209 2.0
6210 2.0
6211 2.0
6212 2.0
6213 2.0
6214 2.0
6215 2.0
6216 2.0
6217 2.0
6218 2.0
6219 2.0
6220 2.0
6221 2.0
6222 2.0
6223 2.0
6224 2.0
6225 2.0
6226 2.0
6227 2.0
6228 2.0
6229 2.0
6230 2.0
6231 2.0
6232 2.0
6233 2.0
6234 2.0
6235 2.0
6236 2.0
6237 2.0
6238 2.0
6239 2.0
6240 2.0
6241 2.0
6242 2.0
6243 2.0
6244 2.0
6245 2.0
6246 2.0
6247 2.0
6248 2.0
6249 2.0
6250 2.0
6251 2.0
6252 2.0
6253 2.0
6254 2.0
6255 2.0
6256 2.0
6257 2.0
6258 2.0
6259 2.0
6260 2.0
6261 2.0
6262 2.0
6263 2.0
6264 2.0
6265 2.0
6266 2.0
6267 2.0
6268 2.0
6269 2.0
6270 2.0
6271 2.0
6272 2.0
6273 2.0
6274 2.0
6275 2.0
6276 2.0
6277 2.0
6278 2.0
6279 2.0
6280 2.0
6281 2.0
6282 2.0
6283 2.0
6284 2.0
6285 3.0
6286 4.0
6287 3.0
6288 3.0
6289 3.0
6290 3.0
6291 3.0
6292 4.0
6293 3.0
6294 3.0
6295 3.0
6296 3.0
6297 3.0
6298 4.0
6299 3.0
6300 3.0
6301 3.0
6302 3.0
6303 3.0
6304 4.0
6305 3.0
6306 3.0
6307 3.0
6308 3.0
6309 3.0
6310 4.0
6311 3.0
6312 3.0
6313 3.0
6314 3.0
6315 3.0
6316 4.0
6317 3.0
6318 3.0
6319 3.0
6320 3.0
6321 3.0
6322 4.0
6323 3.0
6324 3.0
6325 3.0
6326 3.0
6327 3.0
6328 4.0
6329 3.0
6330 3.0
6331 3.0
6332 3.0
6333 3.0
6334 4.0
6335 3.0
6336 3.0
6337 3.0
6338 3.0
6339 3.0
6340 4.0
6341 3.0
6342 3.0
6343 3.0
6344 3.0
6345 3.0
6346 4.0
6347 3.0
6348 3.0
6349 3.0
6350 3.0
6351 3.0
6352 4.0
6353 3.0
6354 3.0
6355 3.0
6356 3.0
6357 3.0
6358 4.0
6359 3.0
6360 3.0
6361 3.0
6362 3.0
6363 3.0
6364 4.0
6365 3.0
6366 3.0
6367 3.0
6368 3.0
6369 3.0
6370 4.0
6371 3.0
6372 3.0
6373 3.0
6374 3.0
6375 3.0
6376 4.0
6377 3.0
6378 3.0
6379 3.0
6380 3.0
6381 1.0
6382 2.0
6383 2.0
6384 2.0
6385 2.0
6386 2.0
6387 2.0
6388 2.0
6389 2.0
6390 2.0
6391 2.0
6392 2.0
6393 2.0
6394 2.0
6395 2.0
6396 2.0
6397 2.0
6398 2.0
6399 2.0
6400 2.0
6401 2.0
6402 2.0
6403 2.0
6404 2.0
6405 2.0
6406 2.0
6407 2.0
6408 2.0
6409 2.0
6410 2.0
6411 2.0
6412 2.0
6413 2.0
6414 2.0
6415 2.0
6416 2.0
6417 2.0
6418 2.0
6419 2.0
6420 2.0
6421 2.0
6422 2.0
6423 2.0
6424 2.0
6425 2.0
6426 2.0
6427 2.0
6428 2.0
6429 2.0
6430 2.0
6431 2.0
6432 2.0
6433 2.0
6434 2.0
6435 2.0
6436 2.0
6437 2.0
6438 2.0
6439 2.0
6440 2.0
6441 2.0
6442 2.0
6443 2.0
6444 2.0
6445 1.0
6446 3.0
6447 3.0
6448 3.0
6449 3.0
6450 3.0
6451 3.0
6452 3.0
6453 3.0
6454 3.0
6455 3.0
6456 3.0
6457 3.0
6458 3.0
6459 3.0
6460 3.0
6461 3.0
6462 3.0
6463 3.0
6464 3.0
6465 3.0
6466 3.0
6467 3.0
6468 3.0
6469 3.0
6470 3.0
6471 3.0
6472 3.0
6473 3.0
6474 3.0
6475 3.0
6476 3.0
6477 3.0
6478 3.0
6479 3.0
6480 3.0
6481 3.0
6482 3.0
6483 3.0
6484 3.0
6485 3.0
6486 3.0
6487 3.0
6488 3.0
6489 3.0
6490 3.0
6491 3.0
6492 3.0
6493 3.0
6494 3.0
6495 3.0
6496 3.0
6497 3.0
6498 3.0
6499 3.0
6500 3.0
6501 3.0
6502 3.0
6503 3.0
6504 3.0
6505 3.0
6506 3.0
6507 3.0
6508 3.0
6509 3.0
6510 3.0
6511 3.0
6512 3.0
6513 3.0
6514 3.0
6515 3.0
6516 3.0
6517 3.0
6518 3.0
6519 3.0
6520 3.0
6521 3.0
6522 3.0
6523 3.0
6524 3.0
6525 3.0
6526 3.0
6527 3.0
6528 3.0
6529 3.0
6530 3.0
6531 3.0
6532 3.0
6533 3.0
6534 3.0
6535 3.0
6536 3.0
6537 3.0
6538 3.0
6539 3.0
6540 2.0
6541 2.0
6542 2.0
6543 2.0
6544 2.0
6545 2.0
6546 2.0
6547 2.0
6548 2.0
6549 2.0
6550 2.0
6551 2.0
6552 2.0
6553 2.0
6554 2.0
6555 2.0
6556 2.0
6557 2.0
6558 2.0
6559 2.0
6560 2.0
6561 2.0
6562 2.0
6563 2.0
6564 2.0
6565 2.0
6566 2.0
6567 2.0
6568 2.0
6569 2.0
6570 2.0
6571 2.0
6572 2.0
6573 2.0
6574 2.0
6575 2.0
6576 2.0
6577 2.0
6578 2.0
6579 2.0
6580 2.0
6581 2.0
6582 2.0
6583 2.0
6584 2.0
6585 2.0
6586 2.0
6587 3.0
6588 3.0
6589 2.0
6590 2.0
6591 3.0
6592 3.0
6593 2.0
6594 2.0
6595 3.0
6596 3.0
6597 2.0
6598 2.0
6599 3.0
6600 3.0
6601 2.0
6602 2.0
6603 3.0
6604 3.0
6605 2.0
6606 2.0
6607 3.0
6608 3.0
6609 2.0
6610 2.0
6611 3.0
6612 3.0
6613 2.0
6614 2.0
6615 3.0
6616 3.0
6617 2.0
6618 2.0
6619 3.0
6620 3.0
6621 2.0
6622 2.0
6623 3.0
6624 3.0
6625 2.0
6626 2.0
6627 3.0
6628 3.0
6629 2.0
6630 2.0
6631 3.0
6632 3.0
6633 2.0
6634 2.0
6635 3.0
6636 3.0
6637 2.0
6638 2.0
6639 3.0
6640 3.0
6641 2.0
6642 2.0
6643 3.0
6644 3.0
6645 2.0
6646 2.0
6647 3.0
6648 3.0
6649 2.0
6650 2.0
6651 2.0
6652 3.0
6653 3.0
6654 2.0
6655 3.0
6656 3.0
6657 2.0
6658 3.0
6659 3.0
6660 2.0
6661 3.0
6662 3.0
6663 2.0
6664 3.0
6665 3.0
6666 2.0
6667 3.0
6668 3.0
6669 2.0
6670 3.0
6671 3.0
6672 2.0
6673 3.0
6674 3.0
6675 2.0
6676 3.0
6677 3.0
6678 2.0
6679 3.0
6680 3.0
6681 2.0
6682 3.0
6683 3.0
6684 2.0
6685 3.0
6686 3.0
6687 2.0
6688 3.0
6689 3.0
6690 2.0
6691 3.0
6692 3.0
6693 2.0
6694 3.0
6695 3.0
6696 2.0
6697 3.0
6698 3.0
6699 3.0
6700 3.0
6701 2.0
6702 2.0
6703 2.0
6704 3.0
6705 3.0
6706 2.0
6707 2.0
6708 2.0
6709 3.0
6710 3.0
6711 2.0
6712 2.0
6713 2.0
6714 3.0
6715 3.0
6716 2.0
6717 2.0
6718 2.0
6719 3.0
6720 3.0
6721 2.0
6722 2.0
6723 2.0
6724 3.0
6725 3.0
6726 2.0
6727 2.0
6728 2.0
6729 3.0
6730 3.0
6731 2.0
6732 2.0
6733 2.0
6734 3.0
6735 3.0
6736 2.0
6737 2.0
6738 2.0
6739 3.0
6740 3.0
6741 2.0
6742 2.0
6743 2.0
6744 3.0
6745 3.0
6746 2.0
6747 2.0
6748 2.0
6749 3.0
6750 3.0
6751 2.0
6752 2.0
6753 2.0
6754 3.0
6755 3.0
6756 2.0
6757 2.0
6758 2.0
6759 3.0
6760 3.0
6761 2.0
6762 2.0
6763 2.0
6764 3.0
6765 3.0
6766 2.0
6767 2.0
6768 2.0
6769 3.0
6770 3.0
6771 2.0
6772 2.0
6773 2.0
6774 3.0
6775 3.0
6776 2.0
6777 2.0
6778 2.0
6779 2.0
6780 2.0
6781 2.0
6782 2.0
6783 2.0
6784 2.0
6785 2.0
6786 2.0
6787 2.0
6788 2.0
6789 2.0
6790 2.0
6791 2.0
6792 2.0
6793 2.0
6794 2.0
6795 2.0
6796 2.0
6797 2.0
6798 2.0
6799 2.0
6800 2.0
6801 2.0
6802 2.0
6803 2.0
6804 2.0
6805 2.0
6806 2.0
6807 2.0
6808 2.0
6809 2.0
6810 2.0
6811 2.0
6812 2.0
6813 2.0
6814 2.0
6815 2.0
6816 2.0
6817 2.0
6818 2.0
6819 2.0
6820 2.0
6821 2.0
6822 2.0
6823 2.0
6824 2.0
6825 2.0
6826 2.0
6827 2.0
6828 2.0
6829 2.0
6830 2.0
6831 2.0
6832 2.0
6833 2.0
6834 2.0
6835 2.0
6836 2.0
6837 2.0
6838 2.0
6839 2.0
6840 2.0
6841 2.0
6842 2.0
6843 2.0
6844 2.0
6845 2.0
6846 2.0
6847 2.0
6848 2.0
6849 2.0
6850 2.0
6851 2.0
6852 2.0
6853 2.0
6854 2.0
6855 2.0
6856 2.0
6857 2.0
6858 2.0
6859 2.0
6860 2.0
6861 2.0
6862 2.0
6863 2.0
6864 2.0
6865 2.0
6866 2.0
6867 2.0
6868 2.0
6869 2.0
6870 2.0
6871 2.0
6872 2.0
6873 2.0
6874 2.0
6875 3.0
6876 4.0
6877 3.0
6878 3.0
6879 3.0
6880 3.0
6881 3.0
6882 4.0
6883 3.0
6884 3.0
6885 3.0
6886 3.0
6887 3.0
6888 4.0
6889 3.0
6890 3.0
6891 3.0
6892 3.0
6893 3.0
6894 4.0
6895 3.0
6896 3.0
6897 3.0
6898 3.0
6899 3.0
6900 4.0
6901 3.0
6902 3.0
6903 3.0
6904 3.0
6905 3.0
6906 4.0
6907 3.0
6908 3.0
6909 3.0
6910 3.0
6911 3.0
6912 4.0
6913 3.0
6914 3.0
6915 3.0
6916 3.0
6917 3.0
6918 4.0
6919 3.0
6920 3.0
6921 3.0
6922 3.0
6923 3.0
6924 4.0
6925 3.0
6926 3.0
6927 3.0
6928 3.0
6929 3.0
6930 4.0
6931 3.0
6932 3.0
6933 3.0
6934 3.0
6935 3.0
6936 4.0
6937 3.0
6938 3.0
6939 3.0
6940 3.0
6941 3.0
6942 4.0
6943 3.0
6944 3.0
6945 3.0
6946 3.0
6947 3.0
6948 4.0
6949 3.0
6950 3.0
6951 3.0
6952 3.0
6953 3.0
6954 4.0
6955 3.0
6956 3.0
6957 3.0
6958 3.0
6959 3.0
6960 4.0
6961 3.0
6962 3.0
6963 3.0
6964 3.0
6965 3.0
6966 4.0
6967 3.0
6968 3.0
6969 3.0
6970 3.0
6971 1.0
6972 2.0
6973 2.0
6974 2.0
6975 2.0
6976 2.0
6977 2.0
6978 2.0
6979 2.0
6980 2.0
6981 2.0
6982 2.0
6983 2.0
6984 2.0
6985 2.0
6986 2.0
6987 2.0
6988 2.0
6989 2.0
6990 2.0
6991 2.0
6992 2.0
6993 2.0
6994 2.0
6995 2.0
6996 2.0
6997 2.0
6998 2.0
6999 2.0
7000 2.0
7001 2.0
7002 2.0
7003 2.0
7004 2.0
7005 2.0
7006 2.0
7007 2.0
7008 2.0
7009 2.0
7010 2.0
7011 2.0
7012 2.0
7013 2.0
7014 2.0
7015 2.0
7016 2.0
7017 2.0
7018 2.0
7019 2.0
7020 2.0
7021 2.0
7022 2.0
7023 2.0
7024 2.0
7025 2.0
7026 2.0
7027 2.0
7028 2.0
7029 2.0
7030 2.0
7031 2.0
7032 2.0
7033 2.0
7034 2.0
7035 1.0
7036 3.0
7037 3.0
7038 3.0
7039 3.0
7040 3.0
7041 3.0
7042 3.0
7043 3.0
7044 3.0
7045 3.0
7046 3.0
7047 3.0
7048 3.0
7049 3.0
7050 3.0
7051 3.0
7052 3.0
7053 3.0
7054 3.0
7055 3.0
7056 3.0
7057 3.0
7058 3.0
7059 3.0
7060 3.0
7061 3.0
7062 3.0
7063 3.0
7064 3.0
7065 3.0
7066 3.0
7067 3.0
7068 3.0
7069 3.0
7070 3.0
7071 3.0
7072 3.0
7073 3.0
7074 3.0
7075 3.0
7076 3.0
7077 3.0
7078 3.0
7079 3.0
7080 3.0
7081 3.0
7082 3.0
7083 3.0
7084 3.0
7085 3.0
7086 3.0
7087 3.0
7088 3.0
7089 3.0
7090 3.0
7091 3.0
7092 3.0
7093 3.0
7094 3.0
7095 3.0
7096 3.0
7097 3.0
7098 3.0
7099 3.0
7100 3.0
7101 3.0
7102 3.0
7103 3.0
7104 3.0
7105 3.0
7106 3.0
7107 3.0
7108 3.0
7109 3.0
7110 3.0
7111 3.0
7112 3.0
7113 3.0
7114 3.0
7115 3.0
7116 3.0
7117 3.0
7118 3.0
7119 3.0
7120 3.0
7121 3.0
7122 3.0
7123 3.0
7124 3.0
7125 3.0
7126 3.0
7127 3.0
7128 3.0
7129 3.0
7130 3.0
7131 3.0
7132 2.0
7133 2.0
7134 2.0
7135 2.0
7136 2.0
7137 2.0
7138 2.0
7139 2.0
7140 2.0
7141 2.0
7142 2.0
7143 2.0
7144 2.0
7145 2.0
7146 2.0
7147 2.0
7148 2.0
7149 2.0
7150 2.0
7151 2.0
7152 2.0
7153 2.0
7154 2.0
7155 2.0
7156 2.0
7157 2.0
7158 2.0
7159 2.0
7160 2.0
7161 2.0
7162 2.0
7163 2.0
7164 2.0
7165 2.0
7166 2.0
7167 2.0
7168 2.0
7169 2.0
7170 2.0
7171 2.0
7172 2.0
7173 2.0
7174 2.0
7175 2.0
7176 2.0
7177 2.0
7178 2.0
7179 3.0
7180 3.0
7181 2.0
7182 2.0
7183 3.0
7184 3.0
7185 2.0
7186 2.0
7187 3.0
7188 3.0
7189 2.0
7190 2.0
7191 3.0
7192 3.0
7193 2.0
7194 2.0
7195 3.0
7196 3.0
7197 2.0
7198 2.0
7199 3.0
7200 3.0
7201 2.0
7202 2.0
7203 3.0
7204 3.0
7205 2.0
7206 2.0
7207 3.0
7208 3.0
7209 2.0
7210 2.0
7211 3.0
7212 3.0
7213 2.0
7214 2.0
7215 3.0
7216 3.0
7217 2.0
7218 2.0
7219 3.0
7220 3.0
7221 2.0
7222 2.0
7223 3.0
7224 3.0
7225 2.0
7226 2.0
7227 3.0
7228 3.0
7229 2.0
7230 2.0
7231 3.0
7232 3.0
7233 2.0
7234 2.0
7235 3.0
7236 3.0
7237 2.0
7238 2.0
7239 3.0
7240 3.0
7241 2.0
7242 2.0
7243 2.0
7244 3.0
7245 3.0
7246 2.0
7247 3.0
7248 3.0
7249 2.0
7250 3.0
7251 3.0
7252 2.0
7253 3.0
7254 3.0
7255 2.0
7256 3.0
7257 3.0
7258 2.0
7259 3.0
7260 3.0
7261 2.0
7262 3.0
7263 3.0
7264 2.0
7265 3.0
7266 3.0
7267 2.0
7268 3.0
7269 3.0
7270 2.0
7271 3.0
7272 3.0
7273 2.0
7274 3.0
7275 3.0
7276 2.0
7277 3.0
7278 3.0
7279 2.0
7280 3.0
7281 3.0
7282 2.0
7283 3.0
7284 3.0
7285 2.0
7286 3.0
7287 3.0
7288 2.0
7289 3.0
7290 3.0
7291 3.0
7292 3.0
7293 2.0
7294 2.0
7295 2.0
7296 3.0
7297 3.0
7298 2.0
7299 2.0
7300 2.0
7301 3.0
7302 3.0
7303 2.0
7304 2.0
7305 2.0
7306 3.0
7307 3.0
7308 2.0
7309 2.0
7310 2.0
7311 3.0
7312 3.0
7313 2.0
7314 2.0
7315 2.0
7316 3.0
7317 3.0
7318 2.0
7319 2.0
7320 2.0
7321 3.0
7322 3.0
7323 2.0
7324 2.0
7325 2.0
7326 3.0
7327 3.0
7328 2.0
7329 2.0
7330 2.0
7331 3.0
7332 3.0
7333 2.0
7334 2.0
7335 2.0
7336 3.0
7337 3.0
7338 2.0
7339 2.0
7340 2.0
7341 3.0
7342 3.0
7343 2.0
7344 2.0
7345 2.0
7346 3.0
7347 3.0
7348 2.0
7349 2.0
7350 2.0
7351 3.0
7352 3.0
7353 2.0
7354 2.0
7355 2.0
7356 3.0
7357 3.0
7358 2.0
7359 2.0
7360 2.0
7361 3.0
7362 3.0
7363 2.0
7364 2.0
7365 2.0
7366 3.0
7367 3.0
7368 2.0
7369 2.0
7370 2.0
7371 2.0
7372 2.0
7373 2.0
7374 2.0
7375 2.0
7376 2.0
7377 2.0
7378 2.0
7379 2.0
7380 2.0
7381 2.0
7382 2.0
7383 2.0
7384 2.0
7385 2.0
7386 2.0
7387 2.0
7388 2.0
7389 2.0
7390 2.0
7391 2.0
7392 2.0
7393 2.0
7394 2.0
7395 2.0
7396 2.0
7397 2.0
7398 2.0
7399 2.0
7400 2.0
7401 2.0
7402 2.0
7403 2.0
7404 2.0
7405 2.0
7406 2.0
7407 2.0
7408 2.0
7409 2.0
7410 2.0
7411 2.0
7412 2.0
7413 2.0
7414 2.0
7415 2.0
7416 2.0
7417 2.0
7418 2.0
7419 2.0
7420 2.0
7421 2.0
7422 2.0
7423 2.0
7424 2.0
7425 2.0
7426 2.0
7427 2.0
7428 2.0
7429 2.0
7430 2.0
7431 2.0
7432 2.0
7433 2.0
7434 2.0
7435 2.0
7436 2.0
7437 2.0
7438 2.0
7439 2.0
7440 2.0
7441 2.0
7442 2.0
7443 2.0
7444 2.0
7445 2.0
7446 2.0
7447 2.0
7448 2.0
7449 2.0
7450 2.0
7451 2.0
7452 2.0
7453 2.0
7454 2.0
7455 2.0
7456 2.0
7457 2.0
7458 2.0
7459 2.0
7460 2.0
7461 2.0
7462 2.0
7463 2.0
7464 2.0
7465 2.0
7466 2.0
7467 3.0
7468 4.0
7469 3.0
7470 3.0
7471 3.0
7472 3.0
7473 3.0
7474 4.0
7475 3.0
7476 3.0
7477 3.0
7478 3.0
7479 3.0
7480 4.0
7481 3.0
7482 3.0
7483 3.0
7484 3.0
7485 3.0
7486 4.0
7487 3.0
7488 3.0
7489 3.0
7490 3.0
7491 3.0
7492 4.0
7493 3.0
7494 3.0
7495 3.0
7496 3.0
7497 3.0
7498 4.0
7499 3.0
7500 3.0
7501 3.0
7502 3.0
7503 3.0
7504 4.0
7505 3.0
7506 3.0
7507 3.0
7508 3.0
7509 3.0
7510 4.0
7511 3.0
7512 3.0
7513 3.0
7514 3.0
7515 3.0
7516 4.0
7517 3.0
7518 3.0
7519 3.0
7520 3.0
7521 3.0
7522 4.0
7523 3.0
7524 3.0
7525 3.0
7526 3.0
7527 3.0
7528 4.0
7529 3.0
7530 3.0
7531 3.0
7532 3.0
7533 3.0
7534 4.0
7535 3.0
7536 3.0
7537 3.0
7538 3.0
7539 3.0
7540 4.0
7541 3.0
7542 3.0
7543 3.0
7544 3.0
7545 3.0
7546 4.0
7547 3.0
7548 3.0
7549 3.0
7550 3.0
7551 3.0
7552 4.0
7553 3.0
7554 3.0
7555 3.0
7556 3.0
7557 3.0
7558 4.0
7559 3.0
7560 3.0
7561 3.0
7562 3.0
7563 1.0
7564 2.0
7565 2.0
7566 2.0
7567 2.0
7568 2.0
7569 2.0
7570 2.0
7571 2.0
7572 2.0
7573 2.0
7574 2.0
7575 2.0
7576 2.0
7577 2.0
7578 2.0
7579 2.0
7580 2.0
7581 2.0
7582 2.0
7583 2.0
7584 2.0
7585 2.0
7586 2.0
7587 2.0
7588 2.0
7589 2.0
7590 2.0
7591 2.0
7592 2.0
7593 2.0
7594 2.0
7595 2.0
7596 2.0
7597 2.0
7598 2.0
7599 2.0
7600 2.0
7601 2.0
7602 2.0
7603 2.0
7604 2.0
7605 2.0
7606 2.0
7607 2.0
7608 2.0
7609 2.0
7610 2.0
7611 2.0
7612 2.0
7613 2.0
7614 2.0
7615 2.0
7616 2.0
7617 2.0
7618 2.0
7619 2.0
7620 2.0
7621 2.0
7622 2.0
7623 2.0
7624 2.0
7625 2.0
7626 2.0
7627 1.0
7628 3.0
7629 3.0
7630 3.0
7631 3.0
7632 3.0
7633 3.0
7634 3.0
7635 3.0
7636 3.0
7637 3.0
7638 3.0
7639 3.0
7640 3.0
7641 3.0
7642 3.0
7643 3.0
7644 3.0
7645 3.0
7646 3.0
7647 3.0
7648 3.0
7649 3.0
7650 3.0
7651 3.0
7652 3.0
7653 3.0
7654 3.0
7655 3.0
7656 3.0
7657 3.0
7658 3.0
7659 3.0
7660 3.0
7661 3.0
7662 3.0
7663 3.0
7664 3.0
7665 3.0
7666 3.0
7667 3.0
7668 3.0
7669 3.0
7670 3.0
7671 3.0
7672 3.0
7673 3.0
7674 3.0
7675 3.0
7676 3.0
7677 3.0
7678 3.0
7679 3.0
7680 3.0
7681 3.0
7682 3.0
7683 3.0
7684 3.0
7685 3.0
7686 3.0
7687 3.0
7688 3.0
7689 3.0
7690 3.0
7691 3.0
7692 3.0
7693 3.0
7694 3.0
7695 3.0
7696 3.0
7697 3.0
7698 3.0
7699 3.0
7700 3.0
7701 3.0
7702 3.0
7703 3.0
7704 3.0
7705 3.0
7706 3.0
7707 3.0
7708 3.0
7709 3.0
7710 3.0
7711 3.0
7712 3.0
7713 3.0
7714 3.0
7715 3.0
7716 3.0
7717 3.0
7718 3.0
7719 3.0
7720 3.0
7721 3.0
7722 2.0
7723 2.0
7724 2.0
7725 2.0
7726 2.0
7727 2.0
7728 2.0
7729 2.0
7730 2.0
7731 2.0
7732 2.0
7733 2.0
7734 2.0
7735 2.0
7736 2.0
7737 2.0
7738 2.0
7739 2.0
7740 2.0
7741 2.0
7742 2.0
7743 2.0
7744 2.0
7745 2.0
7746 2.0
7747 2.0
7748 2.0
7749 2.0
7750 2.0
7751 2.0
7752 2.0
7753 2.0
7754 2.0
7755 2.0
7756 2.0
7757 2.0
7758 2.0
7759 2.0
7760 2.0
7761 2.0
7762 2.0
7763 2.0
7764 2.0
7765 2.0
7766 2.0
7767 2.0
7768 2.0
7769 3.0
7770 3.0
7771 2.0
7772 2.0
7773 3.0
7774 3.0
7775 2.0
7776 2.0
7777 3.0
7778 3.0
7779 2.0
7780 2.0
7781 3.0
7782 3.0
7783 2.0
7784 2.0
7785 3.0
7786 3.0
7787 2.0
7788 2.0
7789 3.0
7790 3.0
7791 2.0
7792 2.0
7793 3.0
7794 3.0
7795 2.0
7796 2.0
7797 3.0
7798 3.0
7799 2.0
7800 2.0
7801 3.0
7802 3.0
7803 2.0
7804 2.0
7805 3.0
7806 3.0
7807 2.0
7808 2.0
7809 3.0
7810 3.0
7811 2.0
7812 2.0
7813 3.0
7814 3.0
7815 2.0
7816 2.0
7817 3.0
7818 3.0
7819 2.0
7820 2.0
7821 3.0
7822 3.0
7823 2.0
7824 2.0
7825 3.0
7826 3.0
7827 2.0
7828 2.0
7829 3.0
7830 3.0
7831 2.0
7832 2.0
7833 2.0
7834 3.0
7835 3.0
7836 2.0
7837 3.0
7838 3.0
7839 2.0
7840 3.0
7841 3.0
7842 2.0
7843 3.0
7844 3.0
7845 2.0
7846 3.0
7847 3.0
7848 2.0
7849 3.0
7850 3.0
7851 2.0
7852 3.0
7853 3.0
7854 2.0
7855 3.0
7856 3.0
7857 2.0
7858 3.0
7859 3.0
7860 2.0
7861 3.0
7862 3.0
7863 2.0
7864 3.0
7865 3.0
7866 2.0
7867 3.0
7868 3.0
7869 2.0
7870 3.0
7871 3.0
7872 2.0
7873 3.0
7874 3.0
7875 2.0
7876 3.0
7877 3.0
7878 2.0
7879 3.0
7880 3.0
7881 3.0
7882 3.0
7883 2.0
7884 2.0
7885 2.0
7886 3.0
7887 3.0
7888 2.0
7889 2.0
7890 2.0
7891 3.0
7892 3.0
7893 2.0
7894 2.0
7895 2.0
7896 3.0
7897 3.0
7898 2.0
7899 2.0
7900 2.0
7901 3.0
7902 3.0
7903 2.0
7904 2.0
7905 2.0
7906 3.0
7907 3.0
7908 2.0
7909 2.0
7910 2.0
7911 3.0
7912 3.0
7913 2.0
7914 2.0
7915 2.0
7916 3.0
7917 3.0
7918 2.0
7919 2.0
7920 2.0
7921 3.0
7922 3.0
7923 2.0
7924 2.0
7925 2.0
7926 3.0
7927 3.0
7928 2.0
7929 2.0
7930 2.0
7931 3.0
7932 3.0
7933 2.0
7934 2.0
7935 2.0
7936 3.0
7937 3.0
7938 2.0
7939 2.0
7940 2.0
7941 3.0
7942 3.0
7943 2.0
7944 2.0
7945 2.0
7946 3.0
7947 3.0
7948 2.0
7949 2.0
7950 2.0
7951 3.0
7952 3.0
7953 2.0
7954 2.0
7955 2.0
7956 3.0
7957 3.0
7958 2.0
7959 2.0
7960 2.0
7961 2.0
7962 2.0
7963 2.0
7964 2.0
7965 2.0
7966 2.0
7967 2.0
7968 2.0
7969 2.0
7970 2.0
7971 2.0
7972 2.0
7973 2.0
7974 2.0
7975 2.0
7976 2.0
7977 2.0
7978 2.0
7979 2.0
7980 2.0
7981 2.0
7982 2.0
7983 2.0
7984 2.0
7985 2.0
7986 2.0
7987 2.0
7988 2.0
7989 2.0
7990 2.0
7991 2.0
7992 2.0
7993 2.0
7994 2.0
7995 2.0
7996 2.0
7997 2.0
7998 2.0
7999 2.0
8000 2.0
8001 2.0
8002 2.0
8003 2.0
8004 2.0
8005 2.0
8006 2.0
8007 2.0
8008 2.0
8009 2.0
8010 2.0
8011 2.0
8012 2.0
8013 2.0
8014 2.0
8015 2.0
8016 2.0
8017 2.0
8018 2.0
8019 2.0
8020 2.0
8021 2.0
8022 2.0
8023 2.0
8024 2.0
8025 2.0
8026 2.0
8027 2.0
8028 2.0
8029 2.0
8030 2.0
8031 2.0
8032 2.0
8033 2.0
8034 2.0
8035 2.0
8036 2.0
8037 2.0
8038 2.0
8039 2.0
8040 2.0
8041 2.0
8042 2.0
8043 2.0
8044 2.0
8045 2.0
8046 2.0
8047 2.0
8048 2.0
8049 2.0
8050 2.0
8051 2.0
8052 2.0
8053 2.0
8054 2.0
8055 2.0
8056 2.0
8057 3.0
8058 4.0
8059 3.0
8060 3.0
8061 3.0
8062 3.0
8063 3.0
8064 4.0
8065 3.0
8066 3.0
8067 3.0
8068 3.0
8069 3.0
8070 4.0
8071 3.0
8072 3.0
8073 3.0
8074 3.0
8075 3.0
8076 4.0
8077 3.0
8078 3.0
8079 3.0
8080 3.0
8081 3.0
8082 4.0
8083 3.0
8084 3.0
8085 3.0
8086 3.0
8087 3.0
8088 4.0
8089 3.0
8090 3.0
8091 3.0
8092 3.0
8093 3.0
8094 4.0
8095 3.0
8096 3.0
8097 3.0
8098 3.0
8099 3.0
8100 4.0
8101 3.0
8102 3.0
8103 3.0
8104 3.0
8105 3.0
8106 4.0
8107 3.0
8108 3.0
8109 3.0
8110 3.0
8111 3.0
8112 4.0
8113 3.0
8114 3.0
8115 3.0
8116 3.0
8117 3.0
8118 4.0
8119 3.0
8120 3.0
8121 3.0
8122 3.0
8123 3.0
8124 4.0
8125 3.0
8126 3.0
8127 3.0
8128 3.0
8129 3.0
8130 4.0
8131 3.0
8132 3.0
8133 3.0
8134 3.0
8135 3.0
8136 4.0
8137 3.0
8138 3.0
8139 3.0
8140 3.0
8141 3.0
8142 4.0
8143 3.0
8144 3.0
8145 3.0
8146 3.0
8147 3.0
8148 4.0
8149 3.0
8150 3.0
8151 3.0
8152 3.0
8153 1.0
8154 2.0
8155 2.0
8156 2.0
8157 2.0
8158 2.0
8159 2.0
8160 2.0
8161 2.0
8162 2.0
8163 2.0
8164 2.0
8165 2.0
8166 2.0
8167 2.0
8168 2.0
8169 2.0
8170 2.0
8171 2.0
8172 2.0
8173 2.0
8174 2.0
8175 2.0
8176 2.0
8177 2.0
8178 2.0
8179 2.0
8180 2.0
8181 2.0
8182 2.0
8183 2.0
8184 2.0
8185 2.0
8186 2.0
8187 2.0
8188 2.0
8189 2.0
8190 2.0
8191 2.0
8192 2.0
8193 2.0
8194 2.0
8195 2.0
8196 2.0
8197 2.0
8198 2.0
8199 2.0
8200 2.0
8201 2.0
8202 2.0
8203 2.0
8204 2.0
8205 2.0
8206 2.0
8207 2.0
8208 2.0
8209 2.0
8210 2.0
8211 2.0
8212 2.0
8213 2.0
8214 2.0
8215 2.0
8216 2.0
8217 1.0
8218 3.0
8219 3.0
8220 3.0
8221 3.0
8222 3.0
8223 3.0
8224 3.0
8225 3.0
8226 3.0
8227 3.0
8228 3.0
8229 3.0
8230 3.0
8231 3.0
8232 3.0
8233 3.0
8234 3.0
8235 3.0
8236 3.0
8237 3.0
8238 3.0
8239 3.0
8240 3.0
8241 3.0
8242 3.0
8243 3.0
8244 3.0
8245 3.0
8246 3.0
8247 3.0
8248 3.0
8249 3.0
8250 3.0
8251 3.0
8252 3.0
8253 3.0
8254 3.0
8255 3.0
8256 3.0
8257 3.0
8258 3.0
8259 3.0
8260 3.0
8261 3.0
8262 3.0
8263 3.0
8264 3.0
8265 3.0
8266 3.0
8267 3.0
8268 3.0
8269 3.0
8270 3.0
8271 3.0
8272 3.0
8273 3.0
8274 3.0
8275 3.0
8276 3.0
8277 3.0
8278 3.0
8279 3.0
8280 3.0
8281 3.0
8282 3.0
8283 3.0
8284 3.0
8285 3.0
8286 3.0
8287 3.0
8288 3.0
8289 3.0
8290 3.0
8291 3.0
8292 3.0
8293 3.0
8294 3.0
8295 3.0
8296 3.0
8297 3.0
8298 3.0
8299 3.0
8300 3.0
8301 3.0
8302 3.0
8303 3.0
8304 3.0
8305 3.0
8306 3.0
8307 3.0
8308 3.0
8309 3.0
8310 3.0
8311 3.0
8312 2.0
8313 2.0
8314 2.0
8315 2.0
8316 2.0
8317 2.0
8318 2.0
8319 2.0
8320 2.0
8321 2.0
8322 2.0
8323 2.0
8324 2.0
8325 2.0
8326 2.0
8327 2.0
8328 2.0
8329 2.0
8330 2.0
8331 2.0
8332 2.0
8333 2.0
8334 2.0
8335 2.0
8336 2.0
8337 2.0
8338 2.0
8339 2.0
8340 2.0
8341 2.0
8342 2.0
8343 2.0
8344 2.0
8345 2.0
8346 2.0
8347 2.0
8348 2.0
8349 2.0
8350 2.0
8351 2.0
8352 2.0
8353 2.0
8354 2.0
8355 2.0
8356 2.0
8357 2.0
8358 2.0
8359 3.0
8360 3.0
8361 2.0
8362 2.0
8363 3.0
8364 3.0
8365 2.0
8366 2.0
8367 3.0
8368 3.0
8369 2.0
8370 2.0
8371 3.0
8372 3.0
8373 2.0
8374 2.0
8375 3.0
8376 3.0
8377 2.0
8378 2.0
8379 3.0
8380 3.0
8381 2.0
8382 2.0
8383 3.0
8384 3.0
8385 2.0
8386 2.0
8387 3.0
8388 3.0
8389 2.0
8390 2.0
8391 3.0
8392 3.0
8393 2.0
8394 2.0
8395 3.0
8396 3.0
8397 2.0
8398 2.0
8399 3.0
8400 3.0
8401 2.0
8402 2.0
8403 3.0
8404 3.0
8405 2.0
8406 2.0
8407 3.0
8408 3.0
8409 2.0
8410 2.0
8411 3.0
8412 3.0
8413 2.0
8414 2.0
8415 3.0
8416 3.0
8417 2.0
8418 2.0
8419 3.0
8420 3.0
8421 2.0
8422 2.0
8423 2.0
8424 3.0
8425 3.0
8426 2.0
8427 3.0
8428 3.0
8429 2.0
8430 3.0
8431 3.0
8432 2.0
8433 3.0
8434 3.0
8435 2.0
8436 3.0
8437 3.0
8438 2.0
8439 3.0
8440 3.0
8441 2.0
8442 3.0
8443 3.0
8444 2.0
8445 3.0
8446 3.0
8447 2.0
8448 3.0
8449 3.0
8450 2.0
8451 3.0
8452 3.0
8453 2.0
8454 3.0
8455 3.0
8456 2.0
8457 3.0
8458 3.0
8459 2.0
8460 3.0
8461 3.0
8462 2.0
8463 3.0
8464 3.0
8465 2.0
8466 3.0
8467 3.0
8468 2.0
8469 3.0
8470 3.0
8471 3.0
8472 3.0
8473 2.0
8474 2.0
8475 2.0
8476 3.0
8477 3.0
8478 2.0
8479 2.0
8480 2.0
8481 3.0
8482 3.0
8483 2.0
8484 2.0
8485 2.0
8486 3.0
8487 3.0
8488 2.0
8489 2.0
8490 2.0
8491 3.0
8492 3.0
8493 2.0
8494 2.0
8495 2.0
8496 3.0
8497 3.0
8498 2.0
8499 2.0
8500 2.0
8501 3.0
8502 3.0
8503 2.0
8504 2.0
8505 2.0
8506 3.0
8507 3.0
8508 2.0
8509 2.0
8510 2.0
8511 3.0
8512 3.0
8513 2.0
8514 2.0
8515 2.0
8516 3.0
8517 3.0
8518 2.0
8519 2.0
8520 2.0
8521 3.0
8522 3.0
8523 2.0
8524 2.0
8525 2.0
8526 3.0
8527 3.0
8528 2.0
8529 2.0
8530 2.0
8531 3.0
8532 3.0
8533 2.0
8534 2.0
8535 2.0
8536 3.0
8537 3.0
8538 2.0
8539 2.0
8540 2.0
8541 3.0
8542 3.0
8543 2.0
8544 2.0
8545 2.0
8546 3.0
8547 3.0
8548 2.0
8549 2.0
8550 2.0
8551 2.0
8552 2.0
8553 2.0
8554 2.0
8555 2.0
8556 2.0
8557 2.0
8558 2.0
8559 2.0
8560 2.0
8561 2.0
8562 2.0
8563 2.0
8564 2.0
8565 2.0
8566 2.0
8567 2.0
8568 2.0
8569 2.0
8570 2.0
8571 2.0
8572 2.0
8573 2.0
8574 2.0
8575 2.0
8576 2.0
8577 2.0
8578 2.0
8579 2.0
8580 2.0
8581 2.0
8582 2.0
8583 2.0
8584 2.0
8585 2.0
8586 2.0
8587 2.0
8588 2.0
8589 2.0
8590 2.0
8591 2.0
8592 2.0
8593 2.0
8594 2.0
8595 2.0
8596 2.0
8597 2.0
8598 2.0
8599 2.0
8600 2.0
8601 2.0
8602 2.0
8603 2.0
8604 2.0
8605 2.0
8606 2.0
8607 2.0
8608 2.0
8609 2.0
8610 2.0
8611 2.0
8612 2.0
8613 2.0
8614 2.0
8615 2.0
8616 2.0
8617 2.0
8618 2.0
8619 2.0
8620 2.0
8621 2.0
8622 2.0
8623 2.0
8624 2.0
8625 2.0
8626 2.0
8627 2.0
8628 2.0
8629 2.0
8630 2.0
8631 2.0
8632 2.0
8633 2.0
8634 2.0
8635 2.0
8636 2.0
8637 2.0
8638 2.0
8639 2.0
8640 2.0
8641 2.0
8642 2.0
8643 2.0
8644 2.0
8645 2.0
8646 2.0
8647 3.0
8648 4.0
8649 3.0
8650 3.0
8651 3.0
8652 3.0
8653 3.0
8654 4.0
8655 3.0
8656 3.0
8657 3.0
8658 3.0
8659 3.0
8660 4.0
8661 3.0
8662 3.0
8663 3.0
8664 3.0
8665 3.0
8666 4.0
8667 3.0
8668 3.0
8669 3.0
8670 3.0
8671 3.0
8672 4.0
8673 3.0
8674 3.0
8675 3.0
8676 3.0
8677 3.0
8678 4.0
8679 3.0
8680 3.0
8681 3.0
8682 3.0
8683 3.0
8684 4.0
8685 3.0
8686 3.0
8687 3.0
8688 3.0
8689 3.0
8690 4.0
8691 3.0
8692 3.0
8693 3.0
8694 3.0
8695 3.0
8696 4.0
8697 3.0
8698 3.0
8699 3.0
8700 3.0
8701 3.0
8702 4.0
8703 3.0
8704 3.0
8705 3.0
8706 3.0
8707 3.0
8708 4.0
8709 3.0
8710 3.0
8711 3.0
8712 3.0
8713 3.0
8714 4.0
8715 3.0
8716 3.0
8717 3.0
8718 3.0
8719 3.0
8720 4.0
8721 3.0
8722 3.0
8723 3.0
8724 3.0
8725 3.0
8726 4.0
8727 3.0
8728 3.0
8729 3.0
8730 3.0
8731 3.0
8732 4.0
8733 3.0
8734 3.0
8735 3.0
8736 3.0
8737 3.0
8738 4.0
8739 3.0
8740 3.0
8741 3.0
8742 3.0
8743 1.0
8744 2.0
8745 2.0
8746 2.0
8747 2.0
8748 2.0
8749 2.0
8750 2.0
8751 2.0
8752 2.0
8753 2.0
8754 2.0
8755 2.0
8756 2.0
8757 2.0
8758 2.0
8759 2.0
8760 2.0
8761 2.0
8762 2.0
8763 2.0
8764 2.0
8765 2.0
8766 2.0
8767 2.0
8768 2.0
8769 2.0
8770 2.0
8771 2.0
8772 2.0
8773 2.0
8774 2.0
8775 2.0
8776 2.0
8777 2.0
8778 2.0
8779 2.0
8780 2.0
8781 2.0
8782 2.0
8783 2.0
8784 2.0
8785 2.0
8786 2.0
8787 2.0
8788 2.0
8789 2.0
8790 2.0
8791 2.0
8792 2.0
8793 2.0
8794 2.0
8795 2.0
8796 2.0
8797 2.0
8798 2.0
8799 2.0
8800 2.0
8801 2.0
8802 2.0
8803 2.0
8804 2.0
8805 2.0
8806 2.0
8807 1.0
8808 3.0
8809 3.0
8810 3.0
8811 3.0
8812 3.0
8813 3.0
8814 3.0
8815 3.0
8816 3.0
8817 3.0
8818 3.0
8819 3.0
8820 3.0
8821 3.0
8822 3.0
8823 3.0
8824 3.0
8825 3.0
8826 3.0
8827 3.0
8828 3.0
8829 3.0
8830 3.0
8831 3.0
8832 3.0
8833 3.0
8834 3.0
8835 3.0
8836 3.0
8837 3.0
8838 3.0
8839 3.0
8840 3.0
8841 3.0
8842 3.0
8843 3.0
8844 3.0
8845 3.0
8846 3.0
8847 3.0
8848 3.0
8849 3.0
8850 3.0
8851 3.0
8852 3.0
8853 3.0
8854 3.0
8855 3.0
8856 3.0
8857 3.0
8858 3.0
8859 3.0
8860 3.0
8861 3.0
8862 3.0
8863 3.0
8864 3.0
8865 3.0
8866 3.0
8867 3.0
8868 3.0
8869 3.0
8870 3.0
8871 3.0
8872 3.0
8873 3.0
8874 3.0
8875 3.0
8876 3.0
8877 3.0
8878 3.0
8879 3.0
8880 3.0
8881 3.0
8882 3.0
8883 3.0
8884 3.0
8885 3.0
8886 3.0
8887 3.0
8888 3.0
8889 3.0
8890 3.0
8891 3.0
8892 3.0
8893 3.0
8894 3.0
8895 3.0
8896 3.0
8897 3.0
8898 3.0
8899 3.0
8900 3.0
8901 3.0
8902 3.0
8903 3.0
8904 2.0
8905 2.0
8906 2.0
8907 2.0
8908 2.0
8909 2.0
8910 2.0
8911 2.0
8912 2.0
8913 2.0
8914 2.0
8915 2.0
8916 2.0
8917 2.0
8918 2.0
8919 2.0
8920 2.0
8921 2.0
8922 2.0
8923 2.0
8924 2.0
8925 2.0
8926 2.0
8927 2.0
8928 2.0
8929 2.0
8930 2.0
8931 2.0
8932 2.0
8933 2.0
8934 2.0
8935 2.0
8936 2.0
8937 2.0
8938 2.0
8939 2.0
8940 2.0
8941 2.0
8942 2.0
8943 2.0
8944 2.0
8945 2.0
8946 2.0
8947 2.0
8948 2.0
8949 2.0
8950 2.0
8951 3.0
8952 3.0
8953 2.0
8954 2.0
8955 3.0
8956 3.0
8957 2.0
8958 2.0
8959 3.0
8960 3.0
8961 2.0
8962 2.0
8963 3.0
8964 3.0
8965 2.0
8966 2.0
8967 3.0
8968 3.0
8969 2.0
8970 2.0
8971 3.0
8972 3.0
8973 2.0
8974 2.0
8975 3.0
8976 3.0
8977 2.0
8978 2.0
8979 3.0
8980 3.0
8981 2.0
8982 2.0
8983 3.0
8984 3.0
8985 2.0
8986 2.0
8987 3.0
8988 3.0
8989 2.0
8990 2.0
8991 3.0
8992 3.0
8993 2.0
8994 2.0
8995 3.0
8996 3.0
8997 2.0
8998 2.0
8999 3.0
9000 3.0
9001 2.0
9002 2.0
9003 3.0
9004 3.0
9005 2.0
9006 2.0
9007 3.0
9008 3.0
9009 2.0
9010 2.0
9011 3.0
9012 3.0
9013 2.0
9014 2.0
9015 2.0
9016 3.0
9017 3.0
9018 2.0
9019 3.0
9020 3.0
9021 2.0
9022 3.0
9023 3.0
9024 2.0
9025 3.0
9026 3.0
9027 2.0
9028 3.0
9029 3.0
9030 2.0
9031 3.0
9032 3.0
9033 2.0
9034 3.0
9035 3.0
9036 2.0
9037 3.0
9038 3.0
9039 2.0
9040 3.0
9041 3.0
9042 2.0
9043 3.0
9044 3.0
9045 2.0
9046 3.0
9047 3.0
9048 2.0
9049 3.0
9050 3.0
9051 2.0
9052 3.0
9053 3.0
9054 2.0
9055 3.0
9056 3.0
9057 2.0
9058 3.0
9059 3.0
9060 2.0
9061 3.0
9062 3.0
9063 3.0
9064 3.0
9065 2.0
9066 2.0
9067 2.0
9068 3.0
9069 3.0
9070 2.0
9071 2.0
9072 2.0
9073 3.0
9074 3.0
9075 2.0
9076 2.0
9077 2.0
9078 3.0
9079 3.0
9080 2.0
9081 2.0
9082 2.0
9083 3.0
9084 3.0
9085 2.0
9086 2.0
9087 2.0
9088 3.0
9089 3.0
9090 2.0
9091 2.0
9092 2.0
9093 3.0
9094 3.0
9095 2.0
9096 2.0
9097 2.0
9098 3.0
9099 3.0
9100 2.0
9101 2.0
9102 2.0
9103 3.0
9104 3.0
9105 2.0
9106 2.0
9107 2.0
9108 3.0
9109 3.0
9110 2.0
9111 2.0
9112 2.0
9113 3.0
9114 3.0
9115 2.0
9116 2.0
9117 2.0
9118 3.0
9119 3.0
9120 2.0
9121 2.0
9122 2.0
9123 3.0
9124 3.0
9125 2.0
9126 2.0
9127 2.0
9128 3.0
9129 3.0
9130 2.0
9131 2.0
9132 2.0
9133 3.0
9134 3.0
9135 2.0
9136 2.0
9137 2.0
9138 3.0
9139 3.0
9140 2.0
9141 2.0
9142 2.0
9143 2.0
9144 2.0
9145 2.0
9146 2.0
9147 2.0
9148 2.0
9149 2.0
9150 2.0
9151 2.0
9152 2.0
9153 2.0
9154 2.0
9155 2.0
9156 2.0
9157 2.0
9158 2.0
9159 2.0
9160 2.0
9161 2.0
9162 2.0
9163 2.0
9164 2.0
9165 2.0
9166 2.0
9167 2.0
9168 2.0
9169 2.0
9170 2.0
9171 2.0
9172 2.0
9173 2.0
9174 2.0
9175 2.0
9176 2.0
9177 2.0
9178 2.0
9179 2.0
9180 2.0
9181 2.0
9182 2.0
9183 2.0
9184 2.0
9185 2.0
9186 2.0
9187 2.0
9188 2.0
9189 2.0
9190 2.0
9191 2.0
9192 2.0
9193 2.0
9194 2.0
9195 2.0
9196 2.0
9197 2.0
9198 2.0
9199 2.0
9200 2.0
9201 2.0
9202 2.0
9203 2.0
9204 2.0
9205 2.0
9206 2.0
9207 2.0
9208 2.0
9209 2.0
9210 2.0
9211 2.0
9212 2.0
9213 2.0
9214 2.0
9215 2.0
9216 2.0
9217 2.0
9218 2.0
9219 2.0
9220 2.0
9221 2.0
9222 2.0
9223 2.0
9224 2.0
9225 2.0
9226 2.0
9227 2.0
9228 2.0
9229 2.0
9230 2.0
9231 2.0
9232 2.0
9233 2.0
9234 2.0
9235 2.0
9236 2.0
9237 2.0
9238 2.0
9239 3.0
9240 4.0
9241 3.0
9242 3.0
9243 3.0
9244 3.0
9245 3.0
9246 4.0
9247 3.0
9248 3.0
9249 3.0
9250 3.0
9251 3.0
9252 4.0
9253 3.0
9254 3.0
9255 3.0
9256 3.0
9257 3.0
9258 4.0
9259 3.0
9260 3.0
9261 3.0
9262 3.0
9263 3.0
9264 4.0
9265 3.0
9266 3.0
9267 3.0
9268 3.0
9269 3.0
9270 4.0
9271 3.0
9272 3.0
9273 3.0
9274 3.0
9275 3.0
9276 4.0
9277 3.0
9278 3.0
9279 3.0
9280 3.0
9281 3.0
9282 4.0
9283 3.0
9284 3.0
9285 3.0
9286 3.0
9287 3.0
9288 4.0
9289 3.0
9290 3.0
9291 3.0
9292 3.0
9293 3.0
9294 4.0
9295 3.0
9296 3.0
9297 3.0
9298 3.0
9299 3.0
9300 4.0
9301 3.0
9302 3.0
9303 3.0
9304 3.0
9305 3.0
9306 4.0
9307 3.0
9308 3.0
9309 3.0
9310 3.0
9311 3.0
9312 4.0
9313 3.0
9314 3.0
9315 3.0
9316 3.0
9317 3.0
9318 4.0
9319 3.0
9320 3.0
9321 3.0
9322 3.0
9323 3.0
9324 4.0
9325 3.0
9326 3.0
9327 3.0
9328 3.0
9329 3.0
9330 4.0
9331 3.0
9332 3.0
9333 3.0
9334 3.0
9335 1.0
9336 2.0
9337 2.0
9338 2.0
9339 2.0
9340 2.0
9341 2.0
9342 2.0
9343 2.0
9344 2.0
9345 2.0
9346 2.0
9347 2.0
9348 2.0
9349 2.0
9350 2.0
9351 2.0
9352 2.0
9353 2.0
9354 2.0
9355 2.0
9356 2.0
9357 2.0
9358 2.0
9359 2.0
9360 2.0
9361 2.0
9362 2.0
9363 2.0
9364 2.0
9365 2.0
9366 2.0
9367 2.0
9368 2.0
9369 2.0
9370 2.0
9371 2.0
9372 2.0
9373 2.0
9374 2.0
9375 2.0
9376 2.0
9377 2.0
9378 2.0
9379 2.0
9380 2.0
9381 2.0
9382 2.0
9383 2.0
9384 2.0
9385 2.0
9386 2.0
9387 2.0
9388 2.0
9389 2.0
9390 2.0
9391 2.0
9392 2.0
9393 2.0
9394 2.0
9395 2.0
9396 2.0
9397 2.0
9398 2.0
9399 1.0
9400 3.0
9401 3.0
9402 3.0
9403 3.0
9404 3.0
9405 3.0
9406 3.0
9407 3.0
9408 3.0
9409 3.0
9410 3.0
9411 3.0
9412 3.0
9413 3.0
9414 3.0
9415 3.0
9416 3.0
9417 3.0
9418 3.0
9419 3.0
9420 3.0
9421 3.0
9422 3.0
9423 3.0
9424 3.0
9425 3.0
9426 3.0
9427 3.0
9428 3.0
9429 3.0
9430 3.0
9431 3.0
9432 3.0
9433 3.0
9434 3.0
9435 3.0
9436 3.0
9437 3.0
9438 3.0
9439 3.0
9440 3.0
9441 3.0
9442 3.0
9443 3.0
9444 3.0
9445 3.0
9446 3.0
9447 3.0
9448 3.0
9449 3.0
9450 3.0
9451 3.0
9452 3.0
9453 3.0
9454 3.0
9455 3.0
9456 3.0
9457 3.0
9458 3.0
9459 3.0
9460 3.0
9461 3.0
9462 3.0
9463 3.0
9464 3.0
9465 3.0
9466 3.0
9467 3.0
9468 3.0
9469 3.0
9470 3.0
9471 3.0
9472 3.0
9473 3.0
9474 1.0
9475 1.0
9476 1.0
9477 1.0
9478 1.0
9479 1.0
9480 1.0
9481 1.0
9482 1.0
9483 1.0
9484 1.0
9485 1.0
9486 1.0
9487 1.0
9488 1.0
9489 1.0

edges:
1 2
1 47
2 31
3 4
3 50
4 32
5 6
5 53
6 33
7 8
7 56
8 34
9 10
9 59
10 35
11 12
11 62
12 36
13 14
13 65
14 37
15 16
15 68
16 38
17 18
17 71
18 39
19 20
19 74
20 40
21 22
21 77
22 41
23 24
23 80
24 42
25 26
25 83
26 43
27 28
27 86
28 44
29 30
29 89
30 45
31 48
32 51
33 54
34 57
35 60
36 63
37 66
38 69
39 72
40 75
41 78
42 81
43 84
44 87
45 90
46 92
46 93
47 157
47 158
48 159
49 96
49 97
50 160
50 161
51 162
52 100
52 101
53 163
53 164
54 165
55 104
55 105
56 166
56 167
57 168
58 108
58 109
59 169
59 170
60 171
61 112
61 113
62 172
62 173
63 174
64 116
64 117
65 175
65 176
66 177
67 120
67 121
68 178
68 179
69 180
70 124
70 125
71 181
71 182
72 183
73 128
73 129
74 184
74 185
75 186
76 132
76 133
77 187
77 188
78 189
79 136
79 137
80 190
80 191
81 192
82 140
82 141
83 193
83 194
84 195
85 144
85 145
86 196
86 197
87 198
88 148
88 149
89 199
89 200
90 201
91 152
91 153
92 93
92 156
92 204
92 205
93 94
93 204
93 205
94 157
94 205
94 206
95 158
95 207
95 208
96 97
96 159
96 209
96 210
97 98
97 209
97 210
98 160
98 210
98 211
99 161
99 212
99 213
100 101
100 162
100 214
100 215
101 102
101 214
101 215
102 163
102 215
102 216
103 164
103 217
103 218
104 105
104 165
104 219
104 220
105 106
105 219
105 220
106 166
106 220
106 221
107 167
107 222
107 223
108 109
108 168
108 224
108 225
109 110
109 224
109 225
110 169
110 225
110 226
111 170
111 227
111 228
112 113
112 171
112 229
112 230
113 114
113 229
113 230
114 172
114 230
114 231
115 173
115 232
115 233
116 117
116 174
116 234
116 235
117 118
117 234
117 235
118 175
118 235
118 236
119 176
119 237
119 238
120 121
120 177
120 239
120 240
121 122
121 239
121 240
122 178
122 240
122 241
123 179
123 242
123 243
124 125
124 180
124 244
124 245
125 126
125 244
125 245
126 181
126 245
126 246
127 182
127 247
127 248
128 129
128 183
128 249
128 250
129 130
129 249
129 250
130 184
130 250
130 251
131 185
131 252
131 253
132 133
132 186
132 254
132 255
133 134
133 254
133 255
134 187
134 255
134 256
135 188
135 257
135 258
136 137
136 189
136 259
136 260
137 138
137 259
137 260
138 190
138 260
138 261
139 191
139 262
139 263
140 141
140 192
140 264
140 265
141 142
141 264
141 265
142 193
142 265
142 266
143 194
143 267
143 268
144 145
144 195
144 269
144 270
145 146
145 269
145 270
146 196
146 270
146 271
147 197
147 272
147 273
148 149
148 198
148 274
148 275
149 150
149 274
149 275
150 199
150 275
150 276
151 200
151 277
151 278
152 153
152 201
152 279
152 280
153 154
153 279
153 280
154 202
154 280
154 281
155 203
155 282
155 283
156 204
157 158
157 206
157 284
157 285
158 207
158 284
158 285
159 209
160 161
160 211
160 286
160 287
161 212
161 286
161 287
162 214
163 164
163 216
163 288
163 289
164 217
164 288
164 289
165 219
166 167
166 221
166 290
166 291
167 222
167 290
167 291
168 224
169 170
169 226
169 292
169 293
170 227
170 292
170 293
171 229
172 173
172 231
172 294
172 295
173 232
173 294
173 295
174 234
175 176
175 236
175 296
175 297
176 237
176 296
176 297
177 239
178 179
178 241
178 298
178 299
179 242
179 298
179 299
180 244
181 182
181 246
181 300
181 301
182 247
182 300
182 301
183 249
184 185
184 251
184 302
184 303
185 252
185 302
185 303
186 254
187 188
187 256
187 304
187 305
188 257
188 304
188 305
189 259
190 191
190 261
190 306
190 307
191 262
191 306
191 307
192 264
193 194
193 266
193 308
193 309
194 267
194 308
194 309
195 269
196 197
196 271
196 310
196 311
197 272
197 310
197 311
198 274
199 200
199 276
199 312
199 313
200 277
200 312
200 313
201 279
202 203
202 281
202 314
202 315
203 282
203 314
203 315
204 205
204 316
205 316
206 284
206 317
207 285
207 318
208 319
209 210
209 320
210 320
211 286
211 321
212 287
212 322
213 323
214 215
214 324
215 324
216 288
216 325
217 289
217 326
218 327
219 220
219 328
220 328
221 290
221 329
222 291
222 330
223 331
224 225
224 332
225 332
226 292
226 333
227 293
227 334
228 335
229 230
229 336
230 336
231 294
231 337
232 295
232 338
233 339
234 235
234 340
235 340
236 296
236 341
237 297
237 342
238 343
239 240
239 344
240 344
241 298
241 345
242 299
242 346
243 347
244 245
244 348
245 348
246 300
246 349
247 301
247 350
248 351
249 250
249 352
250 352
251 302
251 353
252 303
252 354
253 355
254 255
254 356
255 356
256 304
256 357
257 305
257 358
258 359
259 260
259 360
260 360
261 306
261 361
262 307
262 362
263 363
264 265
264 364
265 364
266 308
266 365
267 309
267 366
268 367
269 270
269 368
270 368
271 310
271 369
272 311
272 370
273 371
274 275
274 372
275 372
276 312
276 373
277 313
277 374
278 375
279 280
279 376
280 376
281 314
281 377
282 315
282 378
283 379
284 285
284 317
285 318
286 287
286 321
287 322
288 289
288 325
289 326
290 291
290 329
291 330
292 293
292 333
293 334
294 295
294 337
295 338
296 297
296 341
297 342
298 299
298 345
299 346
300 301
300 349
301 350
302 303
302 353
303 354
304 305
304 357
305 358
306 307
306 361
307 362
308 309
308 365
309 366
310 311
310 369
311 370
312 313
312 373
313 374
314 315
314 377
315 378
316 380
316 381
317 381
318 382
318 383
319 384
319 385
320 386
320 387
321 387
322 388
322 389
323 390
323 391
324 392
324 393
325 393
326 394
326 395
327 396
327 397
328 398
328 399
329 399
330 400
330 401
331 402
331 403
332 404
332 405
333 405
334 406
334 407
335 408
335 409
336 410
336 411
337 411
338 412
338 413
339 414
339 415
340 416
340 417
341 417
342 418
342 419
343 420
343 421
344 422
344 423
345 423
346 424
346 425
347 426
347 427
348 428
348 429
349 429
350 430
350 431
351 432
351 433
352 434
352 435
353 435
354 436
354 437
355 438
355 439
356 440
356 441
357 441
358 442
358 443
359 444
359 445
360 446
360 447
361 447
362 448
362 449
363 450
363 451
364 452
364 453
365 453
366 454
366 455
367 456
367 457
368 458
368 459
369 459
370 460
370 461
371 462
371 463
372 464
372 465
373 465
374 466
374 467
375 468
375 469
376 470
376 471
377 471
378 472
378 473
379 474
379 475
380 381
380 476
380 541
380 542
381 477
381 541
381 542
382 383
382 478
382 543
382 544
383 479
383 543
383 544
384 385
384 479
384 545
384 546
385 480
385 545
385 546
386 387
386 480
386 547
386 548
387 481
387 547
387 548
388 389
388 482
388 549
388 550
389 483
389 549
389 550
390 391
390 483
390 551
390 552
391 484
391 551
391 552
392 393
392 484
392 553
392 554
393 485
393 553
393 554
394 395
394 486
394 555
394 556
395 487
395 555
395 556
396 397
396 487
396 557
396 558
397 488
397 557
397 558
398 399
398 488
398 559
398 560
399 489
399 559
399 560
400 401
400 490
400 561
400 562
401 491
401 561
401 562
402 403
402 491
402 563
402 564
403 492
403 563
403 564
404 405
404 492
404 565
404 566
405 493
405 565
405 566
406 407
406 494
406 567
406 568
407 495
407 567
407 568
408 409
408 495
408 569
408 570
409 496
409 569
409 570
410 411
410 496
410 571
410 572
411 497
411 571
411 572
412 413
412 498
412 573
412 574
413 499
413 573
413 574
414 415
414 499
414 575
414 576
415 500
415 575
415 576
416 417
416 500
416 577
416 578
417 501
417 577
417 578
418 419
418 502
418 579
418 580
419 503
419 579
419 580
420 421
420 503
420 581
420 582
421 504
421 581
421 582
422 423
422 504
422 583
422 584
423 505
423 583
423 584
424 425
424 506
424 585
424 586
425 507
425 585
425 586
426 427
426 507
426 587
426 588
427 508
427 587
427 588
428 429
428 508
428 589
428 590
429 509
429 589
429 590
430 431
430 510
430 591
430 592
431 511
431 591
431 592
432 433
432 511
432 593
432 594
433 512
433 593
433 594
434 435
434 512
434 595
434 596
435 513
435 595
435 596
436 437
436 514
436 597
436 598
437 515
437 597
437 598
438 439
438 515
438 599
438 600
439 516
439 599
439 600
440 441
440 516
440 601
440 602
441 517
441 601
441 602
442 443
442 518
442 603
442 604
443 519
443 603
443 604
444 445
444 519
444 605
444 606
445 520
445 605
445 606
446 447
446 520
446 607
446 608
447 521
447 607
447 608
448 449
448 522
448 609
448 610
449 523
449 609
449 610
450 451
450 523
450 611
450 612
451 524
451 611
451 612
452 453
452 524
452 613
452 614
453 525
453 613
453 614
454 455
454 526
454 615
454 616
455 527
455 615
455 616
456 457
456 527
456 617
456 618
457 528
457 617
457 618
458 459
458 528
458 619
458 620
459 529
459 619
459 620
460 461
460 530
460 621
460 622
461 531
461 621
461 622
462 463
462 531
462 623
462 624
463 532
463 623
463 624
464 465
464 532
464 625
464 626
465 533
465 625
465 626
466 467
466 534
466 627
466 628
467 535
467 627
467 628
468 469
468 535
468 629
468 630
469 536
469 629
469 630
470 471
470 536
470 631
470 632
471 537
471 631
471 632
472 473
472 538
472 633
472 634
473 539
473 633
473 634
474 475
474 539
475 540
476 541
477 478
477 542
478 543
479 544
479 545
480 546
480 547
481 482
481 548
482 549
483 550
483 551
484 552
484 553
485 486
485 554
486 555
487 556
487 557
488 558
488 559
489 490
489 560
490 561
491 562
491 563
492 564
492 565
493 494
493 566
494 567
495 568
495 569
496 570
496 571
497 498
497 572
498 573
499 574
499 575
500 576
500 577
501 502
501 578
502 579
503 580
503 581
504 582
504 583
505 506
505 584
506 585
507 586
507 587
508 588
508 589
509 510
509 590
510 591
511 592
511 593
512 594
512 595
513 514
513 596
514 597
515 598
515 599
516 600
516 601
517 518
517 602
518 603
519 604
519 605
520 606
520 607
521 522
521 608
522 609
523 610
523 611
524 612
524 613
525 526
525 614
526 615
527 616
527 617
528 618
528 619
529 530
529 620
530 621
531 622
531 623
532 624
532 625
533 534
533 626
534 627
535 628
535 629
536 630
536 631
537 538
537 632
538 633
539 634
541 542
541 635
542 635
543 544
543 636
544 636
545 546
545 637
546 637
547 548
547 638
548 638
549 550
549 639
550 639
551 552
551 640
552 640
553 554
553 641
554 641
555 556
555 642
556 642
557 558
557 643
558 643
559 560
559 644
560 644
561 562
561 645
562 645
563 564
563 646
564 646
565 566
565 647
566 647
567 568
567 648
568 648
569 570
569 649
570 649
571 572
571 650
572 650
573 574
573 651
574 651
575 576
575 652
576 652
577 578
577 653
578 653
579 580
579 654
580 654
581 582
581 655
582 655
583 584
583 656
584 656
585 586
585 657
586 657
587 588
587 658
588 658
589 590
589 659
590 659
591 592
591 660
592 660
593 594
593 661
594 661
595 596
595 662
596 662
597 598
597 663
598 663
599 600
599 664
600 664
601 602
601 665
602 665
603 604
603 666
604 666
605 606
605 667
606 667
607 608
607 668
608 668
609 610
609 669
610 669
611 612
611 670
612 670
613 614
613 671
614 671
615 616
615 672
616 672
617 618
617 673
618 673
619 620
619 674
620 674
621 622
621 675
622 675
623 624
623 676
624 676
625 626
625 677
626 677
627 628
627 678
628 678
629 630
629 679
630 679
631 632
631 680
632 680
633 634
633 681
634 681
635 682
635 683
636 747
636 748
637 749
638 686
638 687
639 750
639 751
640 752
641 690
641 691
642 753
642 754
643 755
644 694
644 695
645 756
645 757
646 758
647 698
647 699
648 759
648 760
649 761
650 702
650 703
651 762
651 763
652 764
653 706
653 707
654 765
654 766
655 767
656 710
656 711
657 768
657 769
658 770
659 714
659 715
660 771
660 772
661 773
662 718
662 719
663 774
663 775
664 776
665 722
665 723
666 777
666 778
667 779
668 726
668 727
669 780
669 781
670 782
671 730
671 731
672 783
672 784
673 785
674 734
674 735
675 786
675 787
676 788
677 738
677 739
678 789
678 790
679 791
680 742
680 743
681 792
681 793
682 683
682 746
682 794
682 795
683 684
683 794
683 795
684 747
684 795
684 796
685 748
685 797
685 798
686 687
686 749
686 799
686 800
687 688
687 799
687 800
688 750
688 800
688 801
689 751
689 802
689 803
690 691
690 752
690 804
690 805
691 692
691 804
691 805
692 753
692 805
692 806
693 754
693 807
693 808
694 695
694 755
694 809
694 810
695 696
695 809
695 810
696 756
696 810
696 811
697 757
697 812
697 813
698 699
698 758
698 814
698 815
699 700
699 814
699 815
700 759
700 815
700 816
701 760
701 817
701 818
702 703
702 761
702 819
702 820
703 704
703 819
703 820
704 762
704 820
704 821
705 763
705 822
705 823
706 707
706 764
706 824
706 825
707 708
707 824
707 825
708 765
708 825
708 826
709 766
709 827
709 828
710 711
710 767
710 829
710 830
711 712
711 829
711 830
712 768
712 830
712 831
713 769
713 832
713 833
714 715
714 770
714 834
714 835
715 716
715 834
715 835
716 771
716 835
716 836
717 772
717 837
717 838
718 719
718 773
718 839
718 840
719 720
719 839
719 840
720 774
720 840
720 841
721 775
721 842
721 843
722 723
722 776
722 844
722 845
723 724
723 844
723 845
724 777
724 845
724 846
725 778
725 847
725 848
726 727
726 779
726 849
726 850
727 728
727 849
727 850
728 780
728 850
728 851
729 781
729 852
729 853
730 731
730 782
730 854
730 855
731 732
731 854
731 855
732 783
732 855
732 856
733 784
733 857
733 858
734 735
734 785
734 859
734 860
735 736
735 859
735 860
736 786
736 860
736 861
737 787
737 862
737 863
738 739
738 788
738 864
738 865
739 740
739 864
739 865
740 789
740 865
740 866
741 790
741 867
741 868
742 743
742 791
742 869
742 870
743 744
743 869
743 870
744 792
744 870
744 871
745 793
745 872
745 873
746 794
747 748
747 796
747 874
747 875
748 797
748 874
748 875
749 799
750 751
750 801
750 876
750 877
751 802
751 876
751 877
752 804
753 754
753 806
753 878
753 879
754 807
754 878
754 879
755 809
756 757
756 811
756 880
756 881
757 812
757 880
757 881
758 814
759 760
759 816
759 882
759 883
760 817
760 882
760 883
761 819
762 763
762 821
762 884
762 885
763 822
763 884
763 885
764 824
765 766
765 826
765 886
765 887
766 827
766 886
766 887
767 829
768 769
768 831
768 888
768 889
769 832
769 888
769 889
770 834
771 772
771 836
771 890
771 891
772 837
772 890
772 891
773 839
774 775
774 841
774 892
774 893
775 842
775 892
775 893
776 844
777 778
777 846
777 894
777 895
778 847
778 894
778 895
779 849
780 781
780 851
780 896
780 897
781 852
781 896
781 897
782 854
783 784
783 856
783 898
783 899
784 857
784 898
784 899
785 859
786 787
786 861
786 900
786 901
787 862
787 900
787 901
788 864
789 790
789 866
789 902
789 903
790 867
790 902
790 903
791 869
792 793
792 871
792 904
792 905
793 872
793 904
793 905
794 795
794 906
795 906
796 874
796 907
797 875
797 908
798 909
799 800
799 910
800 910
801 876
801 911
802 877
802 912
803 913
804 805
804 914
805 914
806 878
806 915
807 879
807 916
808 917
809 810
809 918
810 918
811 880
811 919
812 881
812 920
813 921
814 815
814 922
815 922
816 882
816 923
817 883
817 924
818 925
819 820
819 926
820 926
821 884
821 927
822 885
822 928
823 929
824 825
824 930
825 930
826 886
826 931
827 887
827 932
828 933
829 830
829 934
830 934
831 888
831 935
832 889
832 936
833 937
834 835
834 938
835 938
836 890
836 939
837 891
837 940
838 941
839 840
839 942
840 942
841 892
841 943
842 893
842 944
843 945
844 845
844 946
845 946
846 894
846 947
847 895
847 948
848 949
849 850
849 950
850 950
851 896
851 951
852 897
852 952
853 953
854 855
854 954
855 954
856 898
856 955
857 899
857 956
858 957
859 860
859 958
860 958
861 900
861 959
862 901
862 960
863 961
864 865
864 962
865 962
866 902
866 963
867 903
867 964
868 965
869 870
869 966
870 966
871 904
871 967
872 905
872 968
873 969
874 875
874 907
875 908
876 877
876 911
877 912
878 879
878 915
879 916
880 881
880 919
881 920
882 883
882 923
883 924
884 885
884 927
885 928
886 887
886 931
887 932
888 889
888 935
889 936
890 891
890 939
891 940
892 893
892 943
893 944
894 895
894 947
895 948
896 897
896 951
897 952
898 899
898 955
899 956
900 901
900 959
901 960
902 903
902 963
903 964
904 905
904 967
905 968
906 970
906 971
907 971
908 972
908 973
909 974
909 975
910 976
910 977
911 977
912 978
912 979
913 980
913 981
914 982
914 983
915 983
916 984
916 985
917 986
917 987
918 988
918 989
919 989
920 990
920 991
921 992
921 993
922 994
922 995
923 995
924 996
924 997
925 998
925 999
926 1000
926 1001
927 1001
928 1002
928 1003
929 1004
929 1005
930 1006
930 1007
931 1007
932 1008
932 1009
933 1010
933 1011
934 1012
934 1013
935 1013
936 1014
936 1015
937 1016
937 1017
938 1018
938 1019
939 1019
940 1020
940 1021
941 1022
941 1023
942 1024
942 1025
943 1025
944 1026
944 1027
945 1028
945 1029
946 1030
946 1031
947 1031
948 1032
948 1033
949 1034
949 1035
950 1036
950 1037
951 1037
952 1038
952 1039
953 1040
953 1041
954 1042
954 1043
955 1043
956 1044
956 1045
957 1046
957 1047
958 1048
958 1049
959 1049
960 1050
960 1051
961 1052
961 1053
962 1054
962 1055
963 1055
964 1056
964 1057
965 1058
965 1059
966 1060
966 1061
967 1061
968 1062
968 1063
969 1064
969 1065
970 971
970 1066
970 1131
970 1132
971 1067
971 1131
971 1132
972 973
972 1068
972 1133
972 1134
973 1069
973 1133
973 1134
974 975
974 1069
974 1135
974 1136
975 1070
975 1135
975 1136
976 977
976 1070
976 1137
976 1138
977 1071
977 1137
977 1138
978 979
978 1072
978 1139
978 1140
979 1073
979 1139
979 1140
980 981
980 1073
980 1141
980 1142
981 1074
981 1141
981 1142
982 983
982 1074
982 1143
982 1144
983 1075
983 1143
983 1144
984 985
984 1076
984 1145
984 1146
985 1077
985 1145
985 1146
986 987
986 1077
986 1147
986 1148
987 1078
987 1147
987 1148
988 989
988 1078
988 1149
988 1150
989 1079
989 1149
989 1150
990 991
990 1080
990 1151
990 1152
991 1081
991 1151
991 1152
992 993
992 1081
992 1153
992 1154
993 1082
993 1153
993 1154
994 995
994 1082
994 1155
994 1156
995 1083
995 1155
995 1156
996 997
996 1084
996 1157
996 1158
997 1085
997 1157
997 1158
998 999
998 1085
998 1159
998 1160
999 1086
999 1159
999 1160
1000 1001
1000 1086
1000 1161
1000 1162
1001 1087
1001 1161
1001 1162
1002 1003
1002 1088
1002 1163
1002 1164
1003 1089
1003 1163
1003 1164
1004 1005
1004 1089
1004 1165
1004 1166
1005 1090
1005 1165
1005 1166
1006 1007
1006 1090
1006 1167
1006 1168
1007 1091
1007 1167
1007 1168
1008 1009
1008 1092
1008 1169
1008 1170
1009 1093
1009 1169
1009 1170
1010 1011
1010 1093
1010 1171
1010 1172
1011 1094
1011 1171
1011 1172
1012 1013
1012 1094
1012 1173
1012 1174
1013 1095
1013 1173
1013 1174
1014 1015
1014 1096
1014 1175
1014 1176
1015 1097
1015 1175
1015 1176
1016 1017
1016 1097
1016 1177
1016 1178
1017 1098
1017 1177
1017 1178
1018 1019
1018 1098
1018 1179
1018 1180
1019 1099
1019 1179
1019 1180
1020 1021
1020 1100
1020 1181
1020 1182
1021 1101
1021 1181
1021 1182
1022 1023
1022 1101
1022 1183
1022 1184
1023 1102
1023 1183
1023 1184
1024 1025
1024 1102
1024 1185
1024 1186
1025 1103
1025 1185
1025 1186
1026 1027
1026 1104
1026 1187
1026 1188
1027 1105
1027 1187
1027 1188
1028 1029
1028 1105
1028 1189
1028 1190
1029 1106
1029 1189
1029 1190
1030 1031
1030 1106
1030 1191
1030 1192
1031 1107
1031 1191
1031 1192
1032 1033
1032 1108
1032 1193
1032 1194
1033 1109
1033 1193
1033 1194
1034 1035
1034 1109
1034 1195
1034 1196
1035 1110
1035 1195
1035 1196
1036 1037
1036 1110
1036 1197
1036 1198
1037 1111
1037 1197
1037 1198
1038 1039
1038 1112
1038 1199
1038 1200
1039 1113
1039 1199
1039 1200
1040 1041
1040 1113
1040 1201
1040 1202
1041 1114
1041 1201
1041 1202
1042 1043
1042 1114
1042 1203
1042 1204
1043 1115
1043 1203
1043 1204
1044 1045
1044 1116
1044 1205
1044 1206
1045 1117
1045 1205
1045 1206
1046 1047
1046 1117
1046 1207
1046 1208
1047 1118
1047 1207
1047 1208
1048 1049
1048 1118
1048 1209
1048 1210
1049 1119
1049 1209
1049 1210
1050 1051
1050 1120
1050 1211
1050 1212
1051 1121
1051 1211
1051 1212
1052 1053
1052 1121
1052 1213
1052 1214
1053 1122
1053 1213
1053 1214
1054 1055
1054 1122
1054 1215
1054 1216
1055 1123
1055 1215
1055 1216
1056 1057
1056 1124
1056 1217
1056 1218
1057 1125
1057 1217
1057 1218
1058 1059
1058 1125
1058 1219
1058 1220
1059 1126
1059 1219
1059 1220
1060 1061
1060 1126
1060 1221
1060 1222
1061 1127
1061 1221
1061 1222
1062 1063
1062 1128
1062 1223
1062 1224
1063 1129
1063 1223
1063 1224
1064 1065
1064 1129
1065 1130
1066 1131
1067 1068
1067 1132
1068 1133
1069 1134
1069 1135
1070 1136
1070 1137
1071 1072
1071 1138
1072 1139
1073 1140
1073 1141
1074 1142
1074 1143
1075 1076
1075 1144
1076 1145
1077 1146
1077 1147
1078 1148
1078 1149
1079 1080
1079 1150
1080 1151
1081 1152
1081 1153
1082 1154
1082 1155
1083 1084
1083 1156
1084 1157
1085 1158
1085 1159
1086 1160
1086 1161
1087 1088
1087 1162
1088 1163
1089 1164
1089 1165
1090 1166
1090 1167
1091 1092
1091 1168
1092 1169
1093 1170
1093 1171
1094 1172
1094 1173
1095 1096
1095 1174
1096 1175
1097 1176
1097 1177
1098 1178
1098 1179
1099 1100
1099 1180
1100 1181
1101 1182
1101 1183
1102 1184
1102 1185
1103 1104
1103 1186
1104 1187
1105 1188
1105 1189
1106 1190
1106 1191
1107 1108
1107 1192
1108 1193
1109 1194
1109 1195
1110 1196
1110 1197
1111 1112
1111 1198
1112 1199
1113 1200
1113 1201
1114 1202
1114 1203
1115 1116
1115 1204
1116 1205
1117 1206
1117 1207
1118 1208
1118 1209
1119 1120
1119 1210
1120 1211
1121 1212
1121 1213
1122 1214
1122 1215
1123 1124
1123 1216
1124 1217
1125 1218
1125 1219
1126 1220
1126 1221
1127 1128
1127 1222
1128 1223
1129 1224
1131 1132
1131 1225
1132 1225
1133 1134
1133 1226
1134 1226
1135 1136
1135 1227
1136 1227
1137 1138
1137 1228
1138 1228
1139 1140
1139 1229
1140 1229
1141 1142
1141 1230
1142 1230
1143 1144
1143 1231
1144 1231
1145 1146
1145 1232
1146 1232
1147 1148
1147 1233
1148 1233
1149 1150
1149 1234
1150 1234
1151 1152
1151 1235
1152 1235
1153 1154
1153 1236
1154 1236
1155 1156
1155 1237
1156 1237
1157 1158
1157 1238
1158 1238
1159 1160
1159 1239
1160 1239
1161 1162
1161 1240
1162 1240
1163 1164
1163 1241
1164 1241
1165 1166
1165 1242
1166 1242
1167 1168
1167 1243
1168 1243
1169 1170
1169 1244
1170 1244
1171 1172
1171 1245
1172 1245
1173 1174
1173 1246
1174 1246
1175 1176
1175 1247
1176 1247
1177 1178
1177 1248
1178 1248
1179 1180
1179 1249
1180 1249
1181 1182
1181 1250
1182 1250
1183 1184
1183 1251
1184 1251
1185 1186
1185 1252
1186 1252
1187 1188
1187 1253
1188 1253
1189 1190
1189 1254
1190 1254
1191 1192
1191 1255
1192 1255
1193 1194
1193 1256
1194 1256
1195 1196
1195 1257
1196 1257
1197 1198
1197 1258
1198 1258
1199 1200
1199 1259
1200 1259
1201 1202
1201 1260
1202 1260
1203 1204
1203 1261
1204 1261
1205 1206
1205 1262
1206 1262
1207 1208
1207 1263
1208 1263
1209 1210
1209 1264
1210 1264
1211 1212
1211 1265
1212 1265
1213 1214
1213 1266
1214 1266
1215 1216
1215 1267
1216 1267
1217 1218
1217 1268
1218 1268
1219 1220
1219 1269
1220 1269
1221 1222
1221 1270
1222 1270
1223 1224
1223 1271
1224 1271
1225 1272
1225 1273
1226 1337
1226 1338
1227 1339
1228 1276
1228 1277
1229 1340
1229 1341
1230 1342
1231 1280
1231 1281
1232 1343
1232 1344
1233 1345
1234 1284
1234 1285
1235 1346
1235 1347
1236 1348
1237 1288
1237 1289
1238 1349
1238 1350
1239 1351
1240 1292
1240 1293
1241 1352
1241 1353
1242 1354
1243 1296
1243 1297
1244 1355
1244 1356
1245 1357
1246 1300
1246 1301
1247 1358
1247 1359
1248 1360
1249 1304
1249 1305
1250 1361
1250 1362
1251 1363
1252 1308
1252 1309
1253 1364
1253 1365
1254 1366
1255 1312
1255 1313
1256 1367
1256 1368
1257 1369
1258 1316
1258 1317
1259 1370
1259 1371
1260 1372
1261 1320
1261 1321
1262 1373
1262 1374
1263 1375
1264 1324
1264 1325
1265 1376
1265 1377
1266 1378
1267 1328
1267 1329
1268 1379
1268 1380
1269 1381
1270 1332
1270 1333
1271 1382
1271 1383
1272 1273
1272 1336
1272 1384
1272 1385
1273 1274
1273 1384
1273 1385
1274 1337
1274 1385
1274 1386
1275 1338
1275 1387
1275 1388
1276 1277
1276 1339
1276 1389
1276 1390
1277 1278
1277 1389
1277 1390
1278 1340
1278 1390
1278 1391
1279 1341
1279 1392
1279 1393
1280 1281
1280 1342
1280 1394
1280 1395
1281 1282
1281 1394
1281 1395
1282 1343
1282 1395
1282 1396
1283 1344
1283 1397
1283 1398
1284 1285
1284 1345
1284 1399
1284 1400
1285 1286
1285 1399
1285 1400
1286 1346
1286 1400
1286 1401
1287 1347
1287 1402
1287 1403
1288 1289
1288 1348
1288 1404
1288 1405
1289 1290
1289 1404
1289 1405
1290 1349
1290 1405
1290 1406
1291 1350
1291 1407
1291 1408
1292 1293
1292 1351
1292 1409
1292 1410
1293 1294
1293 1409
1293 1410
1294 1352
1294 1410
1294 1411
1295 1353
1295 1412
1295 1413
1296 1297
1296 1354
1296 1414
1296 1415
1297 1298
1297 1414
1297 1415
1298 1355
1298 1415
1298 1416
1299 1356
1299 1417
1299 1418
1300 1301
1300 1357
1300 1419
1300 1420
1301 1302
1301 1419
1301 1420
1302 1358
1302 1420
1302 1421
1303 1359
1303 1422
1303 1423
1304 1305
1304 1360
1304 1424
1304 1425
1305 1306
1305 1424
1305 1425
1306 1361
1306 1425
1306 1426
1307 1362
1307 1427
1307 1428
1308 1309
1308 1363
1308 1429
1308 1430
1309 1310
1309 1429
1309 1430
1310 1364
1310 1430
1310 1431
1311 1365
1311 1432
1311 1433
1312 1313
1312 1366
1312 1434
1312 1435
1313 1314
1313 1434
1313 1435
1314 1367
1314 1435
1314 1436
1315 1368
1315 1437
1315 1438
1316 1317
1316 1369
1316 1439
1316 1440
1317 1318
1317 1439
1317 1440
1318 1370
1318 1440
1318 1441
1319 1371
1319 1442
1319 1443
1320 1321
1320 1372
1320 1444
1320 1445
1321 1322
1321 1444
1321 1445
1322 1373
1322 1445
1322 1446
1323 1374
1323 1447
1323 1448
1324 1325
1324 1375
1324 1449
1324 1450
1325 1326
1325 1449
1325 1450
1326 1376
1326 1450
1326 1451
1327 1377
1327 1452
1327 1453
1328 1329
1328 1378
1328 1454
1328 1455
1329 1330
1329 1454
1329 1455
1330 1379
1330 1455
1330 1456
1331 1380
1331 1457
1331 1458
1332 1333
1332 1381
1332 1459
1332 1460
1333 1334
1333 1459
1333 1460
1334 1382
1334 1460
1334 1461
1335 1383
1335 1462
1335 1463
1336 1384
1337 1338
1337 1386
1337 1464
1337 1465
1338 1387
1338 1464
1338 1465
1339 1389
1340 1341
1340 1391
1340 1466
1340 1467
1341 1392
1341 1466
1341 1467
1342 1394
1343 1344
1343 1396
1343 1468
1343 1469
1344 1397
1344 1468
1344 1469
1345 1399
1346 1347
1346 1401
1346 1470
1346 1471
1347 1402
1347 1470
1347 1471
1348 1404
1349 1350
1349 1406
1349 1472
1349 1473
1350 1407
1350 1472
1350 1473
1351 1409
1352 1353
1352 1411
1352 1474
1352 1475
1353 1412
1353 1474
1353 1475
1354 1414
1355 1356
1355 1416
1355 1476
1355 1477
1356 1417
1356 1476
1356 1477
1357 1419
1358 1359
1358 1421
1358 1478
1358 1479
1359 1422
1359 1478
1359 1479
1360 1424
1361 1362
1361 1426
1361 1480
1361 1481
1362 1427
1362 1480
1362 1481
1363 1429
1364 1365
1364 1431
1364 1482
1364 1483
1365 1432
1365 1482
1365 1483
1366 1434
1367 1368
1367 1436
1367 1484
1367 1485
1368 1437
1368 1484
1368 1485
1369 1439
1370 1371
1370 1441
1370 1486
1370 1487
1371 1442
1371 1486
1371 1487
1372 1444
1373 1374
1373 1446
1373 1488
1373 1489
1374 1447
1374 1488
1374 1489
1375 1449
1376 1377
1376 1451
1376 1490
1376 1491
1377 1452
1377 1490
1377 1491
1378 1454
1379 1380
1379 1456
1379 1492
1379 1493
1380 1457
1380 1492
1380 1493
1381 1459
1382 1383
1382 1461
1382 1494
1382 1495
1383 1462
1383 1494
1383 1495
1384 1385
1384 1496
1385 1496
1386 1464
1386 1497
1387 1465
1387 1498
1388 1499
1389 1390
1389 1500
1390 1500
1391 1466
1391 1501
1392 1467
1392 1502
1393 1503
1394 1395
1394 1504
1395 1504
1396 1468
1396 1505
1397 1469
1397 1506
1398 1507
1399 1400
1399 1508
1400 1508
1401 1470
1401 1509
1402 1471
1402 1510
1403 1511
1404 1405
1404 1512
1405 1512
1406 1472
1406 1513
1407 1473
1407 1514
1408 1515
1409 1410
1409 1516
1410 1516
1411 1474
1411 1517
1412 1475
1412 1518
1413 1519
1414 1415
1414 1520
1415 1520
1416 1476
1416 1521
1417 1477
1417 1522
1418 1523
1419 1420
1419 1524
1420 1524
1421 1478
1421 1525
1422 1479
1422 1526
1423 1527
1424 1425
1424 1528
1425 1528
1426 1480
1426 1529
1427 1481
1427 1530
1428 1531
1429 1430
1429 1532
1430 1532
1431 1482
1431 1533
1432 1483
1432 1534
1433 1535
1434 1435
1434 1536
1435 1536
1436 1484
1436 1537
1437 1485
1437 1538
1438 1539
1439 1440
1439 1540
1440 1540
1441 1486
1441 1541
1442 1487
1442 1542
1443 1543
1444 1445
1444 1544
1445 1544
1446 1488
1446 1545
1447 1489
1447 1546
1448 1547
1449 1450
1449 1548
1450 1548
1451 1490
1451 1549
1452 1491
1452 1550
1453 1551
1454 1455
1454 1552
1455 1552
1456 1492
1456 1553
1457 1493
1457 1554
1458 1555
1459 1460
1459 1556
1460 1556
1461 1494
1461 1557
1462 1495
1462 1558
1463 1559
1464 1465
1464 1497
1465 1498
1466 1467
1466 1501
1467 1502
1468 1469
1468 1505
1469 1506
1470 1471
1470 1509
1471 1510
1472 1473
1472 1513
1473 1514
1474 1475
1474 1517
1475 1518
1476 1477
1476 1521
1477 1522
1478 1479
1478 1525
1479 1526
1480 1481
1480 1529
1481 1530
1482 1483
1482 1533
1483 1534
1484 1485
1484 1537
1485 1538
1486 1487
1486 1541
1487 1542
1488 1489
1488 1545
1489 1546
1490 1491
1490 1549
1491 1550
1492 1493
1492 1553
1493 1554
1494 1495
1494 1557
1495 1558
1496 1560
1496 1561
1497 1561
1498 1562
1498 1563
1499 1564
1499 1565
1500 1566
1500 1567
1501 1567
1502 1568
1502 1569
1503 1570
1503 1571
1504 1572
1504 1573
1505 1573
1506 1574
1506 1575
1507 1576
1507 1577
1508 1578
1508 1579
1509 1579
1510 1580
1510 1581
1511 1582
1511 1583
1512 1584
1512 1585
1513 1585
1514 1586
1514 1587
1515 1588
1515 1589
1516 1590
1516 1591
1517 1591
1518 1592
1518 1593
1519 1594
1519 1595
1520 1596
1520 1597
1521 1597
1522 1598
1522 1599
1523 1600
1523 1601
1524 1602
1524 1603
1525 1603
1526 1604
1526 1605
1527 1606
1527 1607
1528 1608
1528 1609
1529 1609
1530 1610
1530 1611
1531 1612
1531 1613
1532 1614
1532 1615
1533 1615
1534 1616
1534 1617
1535 1618
1535 1619
1536 1620
1536 1621
1537 1621
1538 1622
1538 1623
1539 1624
1539 1625
1540 1626
1540 1627
1541 1627
1542 1628
1542 1629
1543 1630
1543 1631
1544 1632
1544 1633
1545 1633
1546 1634
1546 1635
1547 1636
1547 1637
1548 1638
1548 1639
1549 1639
1550 1640
1550 1641
1551 1642
1551 1643
1552 1644
1552 1645
1553 1645
1554 1646
1554 1647
1555 1648
1555 1649
1556 1650
1556 1651
1557 1651
1558 1652
1558 1653
1559 1654
1559 1655
1560 1561
1560 1656
1560 1721
1560 1722
1561 1657
1561 1721
1561 1722
1562 1563
1562 1658
1562 1723
1562 1724
1563 1659
1563 1723
1563 1724
1564 1565
1564 1659
1564 1725
1564 1726
1565 1660
1565 1725
1565 1726
1566 1567
1566 1660
1566 1727
1566 1728
1567 1661
1567 1727
1567 1728
1568 1569
1568 1662
1568 1729
1568 1730
1569 1663
1569 1729
1569 1730
1570 1571
1570 1663
1570 1731
1570 1732
1571 1664
1571 1731
1571 1732
1572 1573
1572 1664
1572 1733
1572 1734
1573 1665
1573 1733
1573 1734
1574 1575
1574 1666
1574 1735
1574 1736
1575 1667
1575 1735
1575 1736
1576 1577
1576 1667
1576 1737
1576 1738
1577 1668
1577 1737
1577 1738
1578 1579
1578 1668
1578 1739
1578 1740
1579 1669
1579 1739
1579 1740
1580 1581
1580 1670
1580 1741
1580 1742
1581 1671
1581 1741
1581 1742
1582 1583
1582 1671
1582 1743
1582 1744
1583 1672
1583 1743
1583 1744
1584 1585
1584 1672
1584 1745
1584 1746
1585 1673
1585 1745
1585 1746
1586 1587
1586 1674
1586 1747
1586 1748
1587 1675
1587 1747
1587 1748
1588 1589
1588 1675
1588 1749
1588 1750
1589 1676
1589 1749
1589 1750
1590 1591
1590 1676
1590 1751
1590 1752
1591 1677
1591 1751
1591 1752
1592 1593
1592 1678
1592 1753
1592 1754
1593 1679
1593 1753
1593 1754
1594 1595
1594 1679
1594 1755
1594 1756
1595 1680
1595 1755
1595 1756
1596 1597
1596 1680
1596 1757
1596 1758
1597 1681
1597 1757
1597 1758
1598 1599
1598 1682
1598 1759
1598 1760
1599 1683
1599 1759
1599 1760
1600 1601
1600 1683
1600 1761
1600 1762
1601 1684
1601 1761
1601 1762
1602 1603
1602 1684
1602 1763
1602 1764
1603 1685
1603 1763
1603 1764
1604 1605
1604 1686
1604 1765
1604 1766
1605 1687
1605 1765
1605 1766
1606 1607
1606 1687
1606 1767
1606 1768
1607 1688
1607 1767
1607 1768
1608 1609
1608 1688
1608 1769
1608 1770
1609 1689
1609 1769
1609 1770
1610 1611
1610 1690
1610 1771
1610 1772
1611 1691
1611 1771
1611 1772
1612 1613
1612 1691
1612 1773
1612 1774
1613 1692
1613 1773
1613 1774
1614 1615
1614 1692
1614 1775
1614 1776
1615 1693
1615 1775
1615 1776
1616 1617
1616 1694
1616 1777
1616 1778
1617 1695
1617 1777
1617 1778
1618 1619
1618 1695
1618 1779
1618 1780
1619 1696
1619 1779
1619 1780
1620 1621
1620 1696
1620 1781
1620 1782
1621 1697
1621 1781
1621 1782
1622 1623
1622 1698
1622 1783
1622 1784
1623 1699
1623 1783
1623 1784
1624 1625
1624 1699
1624 1785
1624 1786
1625 1700
1625 1785
1625 1786
1626 1627
1626 1700
1626 1787
1626 1788
1627 1701
1627 1787
1627 1788
1628 1629
1628 1702
1628 1789
1628 1790
1629 1703
1629 1789
1629 1790
1630 1631
1630 1703
1630 1791
1630 1792
1631 1704
1631 1791
1631 1792
1632 1633
1632 1704
1632 1793
1632 1794
1633 1705
1633 1793
1633 1794
1634 1635
1634 1706
1634 1795
1634 1796
1635 1707
1635 1795
1635 1796
1636 1637
1636 1707
1636 1797
1636 1798
1637 1708
1637 1797
1637 1798
1638 1639
1638 1708
1638 1799
1638 1800
1639 1709
1639 1799
1639 1800
1640 1641
1640 1710
1640 1801
1640 1802
1641 1711
1641 1801
1641 1802
1642 1643
1642 1711
1642 1803
1642 1804
1643 1712
1643 1803
1643 1804
1644 1645
1644 1712
1644 1805
1644 1806
1645 1713
1645 1805
1645 1806
1646 1647
1646 1714
1646 1807
1646 1808
1647 1715
1647 1807
1647 1808
1648 1649
1648 1715
1648 1809
1648 1810
1649 1716
1649 1809
1649 1810
1650 1651
1650 1716
1650 1811
1650 1812
1651 1717
1651 1811
1651 1812
1652 1653
1652 1718
1652 1813
1652 1814
1653 1719
1653 1813
1653 1814
1654 1655
1654 1719
1655 1720
1656 1721
1657 1658
1657 1722
1658 1723
1659 1724
1659 1725
1660 1726
1660 1727
1661 1662
1661 1728
1662 1729
1663 1730
1663 1731
1664 1732
1664 1733
1665 1666
1665 1734
1666 1735
1667 1736
1667 1737
1668 1738
1668 1739
1669 1670
1669 1740
1670 1741
1671 1742
1671 1743
1672 1744
1672 1745
1673 1674
1673 1746
1674 1747
1675 1748
1675 1749
1676 1750
1676 1751
1677 1678
1677 1752
1678 1753
1679 1754
1679 1755
1680 1756
1680 1757
1681 1682
1681 1758
1682 1759
1683 1760
1683 1761
1684 1762
1684 1763
1685 1686
1685 1764
1686 1765
1687 1766
1687 1767
1688 1768
1688 1769
1689 1690
1689 1770
1690 1771
1691 1772
1691 1773
1692 1774
1692 1775
1693 1694
1693 1776
1694 1777
1695 1778
1695 1779
1696 1780
1696 1781
1697 1698
1697 1782
1698 1783
1699 1784
1699 1785
1700 1786
1700 1787
1701 1702
1701 1788
1702 1789
1703 1790
1703 1791
1704 1792
1704 1793
1705 1706
1705 1794
1706 1795
1707 1796
1707 1797
1708 1798
1708 1799
1709 1710
1709 1800
1710 1801
1711 1802
1711 1803
1712 1804
1712 1805
1713 1714
1713 1806
1714 1807
1715 1808
1715 1809
1716 1810
1716 1811
1717 1718
1717 1812
1718 1813
1719 1814
1721 1722
1721 1815
1722 1815
1723 1724
1723 1816
1724 1816
1725 1726
1725 1817
1726 1817
1727 1728
1727 1818
1728 1818
1729 1730
1729 1819
1730 1819
1731 1732
1731 1820
1732 1820
1733 1734
1733 1821
1734 1821
1735 1736
1735 1822
1736 1822
1737 1738
1737 1823
1738 1823
1739 1740
1739 1824
1740 1824
1741 1742
1741 1825
1742 1825
1743 1744
1743 1826
1744 1826
1745 1746
1745 1827
1746 1827
1747 1748
1747 1828
1748 1828
1749 1750
1749 1829
1750 1829
1751 1752
1751 1830
1752 1830
1753 1754
1753 1831
1754 1831
1755 1756
1755 1832
1756 1832
1757 1758
1757 1833
1758 1833
1759 1760
1759 1834
1760 1834
1761 1762
1761 1835
1762 1835
1763 1764
1763 1836
1764 1836
1765 1766
1765 1837
1766 1837
1767 1768
1767 1838
1768 1838
1769 1770
1769 1839
1770 1839
1771 1772
1771 1840
1772 1840
1773 1774
1773 1841
1774 1841
1775 1776
1775 1842
1776 1842
1777 1778
1777 1843
1778 1843
1779 1780
1779 1844
1780 1844
1781 1782
1781 1845
1782 1845
1783 1784
1783 1846
1784 1846
1785 1786
1785 1847
1786 1847
1787 1788
1787 1848
1788 1848
1789 1790
1789 1849
1790 1849
1791 1792
1791 1850
1792 1850
1793 1794
1793 1851
1794 1851
1795 1796
1795 1852
1796 1852
1797 1798
1797 1853
1798 1853
1799 1800
1799 1854
1800 1854
1801 1802
1801 1855
1802 1855
1803 1804
1803 1856
1804 1856
1805 1806
1805 1857
1806 1857
1807 1808
1807 1858
1808 1858
1809 1810
1809 1859
1810 1859
1811 1812
1811 1860
1812 1860
1813 1814
1813 1861
1814 1861
1815 1862
1815 1863
1816 1927
1816 1928
1817 1929
1818 1866
1818 1867
1819 1930
1819 1931
1820 1932
1821 1870
1821 1871
1822 1933
1822 1934
1823 1935
1824 1874
1824 1875
1825 1936
1825 1937
1826 1938
1827 1878
1827 1879
1828 1939
1828 1940
1829 1941
1830 1882
1830 1883
1831 1942
1831 1943
1832 1944
1833 1886
1833 1887
1834 1945
1834 1946
1835 1947
1836 1890
1836 1891
1837 1948
1837 1949
1838 1950
1839 1894
1839 1895
1840 1951
1840 1952
1841 1953
1842 1898
1842 1899
1843 1954
1843 1955
1844 1956
1845 1902
1845 1903
1846 1957
1846 1958
1847 1959
1848 1906
1848 1907
1849 1960
1849 1961
1850 1962
1851 1910
1851 1911
1852 1963
1852 1964
1853 1965
1854 1914
1854 1915
1855 1966
1855 1967
1856 1968
1857 1918
1857 1919
1858 1969
1858 1970
1859 1971
1860 1922
1860 1923
1861 1972
1861 1973
1862 1863
1862 1926
1862 1974
1862 1975
1863 1864
1863 1974
1863 1975
1864 1927
1864 1975
1864 1976
1865 1928
1865 1977
1865 1978
1866 1867
1866 1929
1866 1979
1866 1980
1867 1868
1867 1979
1867 1980
1868 1930
1868 1980
1868 1981
1869 1931
1869 1982
1869 1983
1870 1871
1870 1932
1870 1984
1870 1985
1871 1872
1871 1984
1871 1985
1872 1933
1872 1985
1872 1986
1873 1934
1873 1987
1873 1988
1874 1875
1874 1935
1874 1989
1874 1990
1875 1876
1875 1989
1875 1990
1876 1936
1876 1990
1876 1991
1877 1937
1877 1992
1877 1993
1878 1879
1878 1938
1878 1994
1878 1995
1879 1880
1879 1994
1879 1995
1880 1939
1880 1995
1880 1996
1881 1940
1881 1997
1881 1998
1882 1883
1882 1941
1882 1999
1882 2000
1883 1884
1883 1999
1883 2000
1884 1942
1884 2000
1884 2001
1885 1943
1885 2002
1885 2003
1886 1887
1886 1944
1886 2004
1886 2005
1887 1888
1887 2004
1887 2005
1888 1945
1888 2005
1888 2006
1889 1946
1889 2007
1889 2008
1890 1891
1890 1947
1890 2009
1890 2010
1891 1892
1891 2009
1891 2010
1892 1948
1892 2010
1892 2011
1893 1949
1893 2012
1893 2013
1894 1895
1894 1950
1894 2014
1894 2015
1895 1896
1895 2014
1895 2015
1896 1951
1896 2015
1896 2016
1897 1952
1897 2017
1897 2018
1898 1899
1898 1953
1898 2019
1898 2020
1899 1900
1899 2019
1899 2020
1900 1954
1900 2020
1900 2021
1901 1955
1901 2022
1901 2023
1902 1903
1902 1956
1902 2024
1902 2025
1903 1904
1903 2024
1903 2025
1904 1957
1904 2025
1904 2026
1905 1958
1905 2027
1905 2028
1906 1907
1906 1959
1906 2029
1906 2030
1907 1908
1907 2029
1907 2030
1908 1960
1908 2030
1908 2031
1909 1961
1909 2032
1909 2033
1910 1911
1910 1962
1910 2034
1910 2035
1911 1912
1911 2034
1911 2035
1912 1963
1912 2035
1912 2036
1913 1964
1913 2037
1913 2038
1914 1915
1914 1965
1914 2039
1914 2040
1915 1916
1915 2039
1915 2040
1916 1966
1916 2040
1916 2041
1917 1967
1917 2042
1917 2043
1918 1919
1918 1968
1918 2044
1918 2045
1919 1920
1919 2044
1919 2045
1920 1969
1920 2045
1920 2046
1921 1970
1921 2047
1921 2048
1922 1923
1922 1971
1922 2049
1922 2050
1923 1924
1923 2049
1923 2050
1924 1972
1924 2050
1924 2051
1925 1973
1925 2052
1925 2053
1926 1974
1927 1928
1927 1976
1927 2054
1927 2055
1928 1977
1928 2054
1928 2055
1929 1979
1930 1931
1930 1981
1930 2056
1930 2057
1931 1982
1931 2056
1931 2057
1932 1984
1933 1934
1933 1986
1933 2058
1933 2059
1934 1987
1934 2058
1934 2059
1935 1989
1936 1937
1936 1991
1936 2060
1936 2061
1937 1992
1937 2060
1937 2061
1938 1994
1939 1940
1939 1996
1939 2062
1939 2063
1940 1997
1940 2062
1940 2063
1941 1999
1942 1943
1942 2001
1942 2064
1942 2065
1943 2002
1943 2064
1943 2065
1944 2004
1945 1946
1945 2006
1945 2066
1945 2067
1946 2007
1946 2066
1946 2067
1947 2009
1948 1949
1948 2011
1948 2068
1948 2069
1949 2012
1949 2068
1949 2069
1950 2014
1951 1952
1951 2016
1951 2070
1951 2071
1952 2017
1952 2070
1952 2071
1953 2019
1954 1955
1954 2021
1954 2072
1954 2073
1955 2022
1955 2072
1955 2073
1956 2024
1957 1958
1957 2026
1957 2074
1957 2075
1958 2027
1958 2074
1958 2075
1959 2029
1960 1961
1960 2031
1960 2076
1960 2077
1961 2032
1961 2076
1961 2077
1962 2034
1963 1964
1963 2036
1963 2078
1963 2079
1964 2037
1964 2078
1964 2079
1965 2039
1966 1967
1966 2041
1966 2080
1966 2081
1967 2042
1967 2080
1967 2081
1968 2044
1969 1970
1969 2046
1969 2082
1969 2083
1970 2047
1970 2082
1970 2083
1971 2049
1972 1973
1972 2051
1972 2084
1972 2085
1973 2052
1973 2084
1973 2085
1974 1975
1974 2086
1975 2086
1976 2054
1976 2087
1977 2055
1977 2088
1978 2089
1979 1980
1979 2090
1980 2090
1981 2056
1981 2091
1982 2057
1982 2092
1983 2093
1984 1985
1984 2094
1985 2094
1986 2058
1986 2095
1987 2059
1987 2096
1988 2097
1989 1990
1989 2098
1990 2098
1991 2060
1991 2099
1992 2061
1992 2100
1993 2101
1994 1995
1994 2102
1995 2102
1996 2062
1996 2103
1997 2063
1997 2104
1998 2105
1999 2000
1999 2106
2000 2106
2001 2064
2001 2107
2002 2065
2002 2108
2003 2109
2004 2005
2004 2110
2005 2110
2006 2066
2006 2111
2007 2067
2007 2112
2008 2113
2009 2010
2009 2114
2010 2114
2011 2068
2011 2115
2012 2069
2012 2116
2013 2117
2014 2015
2014 2118
2015 2118
2016 2070
2016 2119
2017 2071
2017 2120
2018 2121
2019 2020
2019 2122
2020 2122
2021 2072
2021 2123
2022 2073
2022 2124
2023 2125
2024 2025
2024 2126
2025 2126
2026 2074
2026 2127
2027 2075
2027 2128
2028 2129
2029 2030
2029 2130
2030 2130
2031 2076
2031 2131
2032 2077
2032 2132
2033 2133
2034 2035
2034 2134
2035 2134
2036 2078
2036 2135
2037 2079
2037 2136
2038 2137
2039 2040
2039 2138
2040 2138
2041 2080
2041 2139
2042 2081
2042 2140
2043 2141
2044 2045
2044 2142
2045 2142
2046 2082
2046 2143
2047 2083
2047 2144
2048 2145
2049 2050
2049 2146
2050 2146
2051 2084
2051 2147
2052 2085
2052 2148
2053 2149
2054 2055
2054 2087
2055 2088
2056 2057
2056 2091
2057 2092
2058 2059
2058 2095
2059 2096
2060 2061
2060 2099
2061 2100
2062 2063
2062 2103
2063 2104
2064 2065
2064 2107
2065 2108
2066 2067
2066 2111
2067 2112
2068 2069
2068 2115
2069 2116
2070 2071
2070 2119
2071 2120
2072 2073
2072 2123
2073 2124
2074 2075
2074 2127
2075 2128
2076 2077
2076 2131
2077 2132
2078 2079
2078 2135
2079 2136
2080 2081
2080 2139
2081 2140
2082 2083
2082 2143
2083 2144
2084 2085
2084 2147
2085 2148
2086 2150
2086 2151
2087 2151
2088 2152
2088 2153
2089 2154
2089 2155
2090 2156
2090 2157
2091 2157
2092 2158
2092 2159
2093 2160
2093 2161
2094 2162
2094 2163
2095 2163
2096 2164
2096 2165
2097 2166
2097 2167
2098 2168
2098 2169
2099 2169
2100 2170
2100 2171
2101 2172
2101 2173
2102 2174
2102 2175
2103 2175
2104 2176
2104 2177
2105 2178
2105 2179
2106 2180
2106 2181
2107 2181
2108 2182
2108 2183
2109 2184
2109 2185
2110 2186
2110 2187
2111 2187
2112 2188
2112 2189
2113 2190
2113 2191
2114 2192
2114 2193
2115 2193
2116 2194
2116 2195
2117 2196
2117 2197
2118 2198
2118 2199
2119 2199
2120 2200
2120 2201
2121 2202
2121 2203
2122 2204
2122 2205
2123 2205
2124 2206
2124 2207
2125 2208
2125 2209
2126 2210
2126 2211
2127 2211
2128 2212
2128 2213
2129 2214
2129 2215
2130 2216
2130 2217
2131 2217
2132 2218
2132 2219
2133 2220
2133 2221
2134 2222
2134 2223
2135 2223
2136 2224
2136 2225
2137 2226
2137 2227
2138 2228
2138 2229
2139 2229
2140 2230
2140 2231
2141 2232
2141 2233
2142 2234
2142 2235
2143 2235
2144 2236
2144 2237
2145 2238
2145 2239
2146 2240
2146 2241
2147 2241
2148 2242
2148 2243
2149 2244
2149 2245
2150 2151
2150 2246
2150 2311
2150 2312
2151 2247
2151 2311
2151 2312
2152 2153
2152 2248
2152 2313
2152 2314
2153 2249
2153 2313
2153 2314
2154 2155
2154 2249
2154 2315
2154 2316
2155 2250
2155 2315
2155 2316
2156 2157
2156 2250
2156 2317
2156 2318
2157 2251
2157 2317
2157 2318
2158 2159
2158 2252
2158 2319
2158 2320
2159 2253
2159 2319
2159 2320
2160 2161
2160 2253
2160 2321
2160 2322
2161 2254
2161 2321
2161 2322
2162 2163
2162 2254
2162 2323
2162 2324
2163 2255
2163 2323
2163 2324
2164 2165
2164 2256
2164 2325
2164 2326
2165 2257
2165 2325
2165 2326
2166 2167
2166 2257
2166 2327
2166 2328
2167 2258
2167 2327
2167 2328
2168 2169
2168 2258
2168 2329
2168 2330
2169 2259
2169 2329
2169 2330
2170 2171
2170 2260
2170 2331
2170 2332
2171 2261
2171 2331
2171 2332
2172 2173
2172 2261
2172 2333
2172 2334
2173 2262
2173 2333
2173 2334
2174 2175
2174 2262
2174 2335
2174 2336
2175 2263
2175 2335
2175 2336
2176 2177
2176 2264
2176 2337
2176 2338
2177 2265
2177 2337
2177 2338
2178 2179
2178 2265
2178 2339
2178 2340
2179 2266
2179 2339
2179 2340
2180 2181
2180 2266
2180 2341
2180 2342
2181 2267
2181 2341
2181 2342
2182 2183
2182 2268
2182 2343
2182 2344
2183 2269
2183 2343
2183 2344
2184 2185
2184 2269
2184 2345
2184 2346
2185 2270
2185 2345
2185 2346
2186 2187
2186 2270
2186 2347
2186 2348
2187 2271
2187 2347
2187 2348
2188 2189
2188 2272
2188 2349
2188 2350
2189 2273
2189 2349
2189 2350
2190 2191
2190 2273
2190 2351
2190 2352
2191 2274
2191 2351
2191 2352
2192 2193
2192 2274
2192 2353
2192 2354
2193 2275
2193 2353
2193 2354
2194 2195
2194 2276
2194 2355
2194 2356
2195 2277
2195 2355
2195 2356
2196 2197
2196 2277
2196 2357
2196 2358
2197 2278
2197 2357
2197 2358
2198 2199
2198 2278
2198 2359
2198 2360
2199 2279
2199 2359
2199 2360
2200 2201
2200 2280
2200 2361
2200 2362
2201 2281
2201 2361
2201 2362
2202 2203
2202 2281
2202 2363
2202 2364
2203 2282
2203 2363
2203 2364
2204 2205
2204 2282
2204 2365
2204 2366
2205 2283
2205 2365
2205 2366
2206 2207
2206 2284
2206 2367
2206 2368
2207 2285
2207 2367
2207 2368
2208 2209
2208 2285
2208 2369
2208 2370
2209 2286
2209 2369
2209 2370
2210 2211
2210 2286
2210 2371
2210 2372
2211 2287
2211 2371
2211 2372
2212 2213
2212 2288
2212 2373
2212 2374
2213 2289
2213 2373
2213 2374
2214 2215
2214 2289
2214 2375
2214 2376
2215 2290
2215 2375
2215 2376
2216 2217
2216 2290
2216 2377
2216 2378
2217 2291
2217 2377
2217 2378
2218 2219
2218 2292
2218 2379
2218 2380
2219 2293
2219 2379
2219 2380
2220 2221
2220 2293
2220 2381
2220 2382
2221 2294
2221 2381
2221 2382
2222 2223
2222 2294
2222 2383
2222 2384
2223 2295
2223 2383
2223 2384
2224 2225
2224 2296
2224 2385
2224 2386
2225 2297
2225 2385
2225 2386
2226 2227
2226 2297
2226 2387
2226 2388
2227 2298
2227 2387
2227 2388
2228 2229
2228 2298
2228 2389
2228 2390
2229 2299
2229 2389
2229 2390
2230 2231
2230 2300
2230 2391
2230 2392
2231 2301
2231 2391
2231 2392
2232 2233
2232 2301
2232 2393
2232 2394
2233 2302
2233 2393
2233 2394
2234 2235
2234 2302
2234 2395
2234 2396
2235 2303
2235 2395
2235 2396
2236 2237
2236 2304
2236 2397
2236 2398
2237 2305
2237 2397
2237 2398
2238 2239
2238 2305
2238 2399
2238 2400
2239 2306
2239 2399
2239 2400
2240 2241
2240 2306
2240 2401
2240 2402
2241 2307
2241 2401
2241 2402
2242 2243
2242 2308
2242 2403
2242 2404
2243 2309
2243 2403
2243 2404
2244 2245
2244 2309
2245 2310
2246 2311
2247 2248
2247 2312
2248 2313
2249 2314
2249 2315
2250 2316
2250 2317
2251 2252
2251 2318
2252 2319
2253 2320
2253 2321
2254 2322
2254 2323
2255 2256
2255 2324
2256 2325
2257 2326
2257 2327
2258 2328
2258 2329
2259 2260
2259 2330
2260 2331
2261 2332
2261 2333
2262 2334
2262 2335
2263 2264
2263 2336
2264 2337
2265 2338
2265 2339
2266 2340
2266 2341
2267 2268
2267 2342
2268 2343
2269 2344
2269 2345
2270 2346
2270 2347
2271 2272
2271 2348
2272 2349
2273 2350
2273 2351
2274 2352
2274 2353
2275 2276
2275 2354
2276 2355
2277 2356
2277 2357
2278 2358
2278 2359
2279 2280
2279 2360
2280 2361
2281 2362
2281 2363
2282 2364
2282 2365
2283 2284
2283 2366
2284 2367
2285 2368
2285 2369
2286 2370
2286 2371
2287 2288
2287 2372
2288 2373
2289 2374
2289 2375
2290 2376
2290 2377
2291 2292
2291 2378
2292 2379
2293 2380
2293 2381
2294 2382
2294 2383
2295 2296
2295 2384
2296 2385
2297 2386
2297 2387
2298 2388
2298 2389
2299 2300
2299 2390
2300 2391
2301 2392
2301 2393
2302 2394
2302 2395
2303 2304
2303 2396
2304 2397
2305 2398
2305 2399
2306 2400
2306 2401
2307 2308
2307 2402
2308 2403
2309 2404
2311 2312
2311 2405
2312 2405
2313 2314
2313 2406
2314 2406
2315 2316
2315 2407
2316 2407
2317 2318
2317 2408
2318 2408
2319 2320
2319 2409
2320 2409
2321 2322
2321 2410
2322 2410
2323 2324
2323 2411
2324 2411
2325 2326
2325 2412
2326 2412
2327 2328
2327 2413
2328 2413
2329 2330
2329 2414
2330 2414
2331 2332
2331 2415
2332 2415
2333 2334
2333 2416
2334 2416
2335 2336
2335 2417
2336 2417
2337 2338
2337 2418
2338 2418
2339 2340
2339 2419
2340 2419
2341 2342
2341 2420
2342 2420
2343 2344
2343 2421
2344 2421
2345 2346
2345 2422
2346 2422
2347 2348
2347 2423
2348 2423
2349 2350
2349 2424
2350 2424
2351 2352
2351 2425
2352 2425
2353 2354
2353 2426
2354 2426
2355 2356
2355 2427
2356 2427
2357 2358
2357 2428
2358 2428
2359 2360
2359 2429
2360 2429
2361 2362
2361 2430
2362 2430
2363 2364
2363 2431
2364 2431
2365 2366
2365 2432
2366 2432
2367 2368
2367 2433
2368 2433
2369 2370
2369 2434
2370 2434
2371 2372
2371 2435
2372 2435
2373 2374
2373 2436
2374 2436
2375 2376
2375 2437
2376 2437
2377 2378
2377 2438
2378 2438
2379 2380
2379 2439
2380 2439
2381 2382
2381 2440
2382 2440
2383 2384
2383 2441
2384 2441
2385 2386
2385 2442
2386 2442
2387 2388
2387 2443
2388 2443
2389 2390
2389 2444
2390 2444
2391 2392
2391 2445
2392 2445
2393 2394
2393 2446
2394 2446
2395 2396
2395 2447
2396 2447
2397 2398
2397 2448
2398 2448
2399 2400
2399 2449
2400 2449
2401 2402
2401 2450
2402 2450
2403 2404
2403 2451
2404 2451
2405 2452
2405 2453
2406 2517
2406 2518
2407 2519
2408 2456
2408 2457
2409 2520
2409 2521
2410 2522
2411 2460
2411 2461
2412 2523
2412 2524
2413 2525
2414 2464
2414 2465
2415 2526
2415 2527
2416 2528
2417 2468
2417 2469
2418 2529
2418 2530
2419 2531
2420 2472
2420 2473
2421 2532
2421 2533
2422 2534
2423 2476
2423 2477
2424 2535
2424 2536
2425 2537
2426 2480
2426 2481
2427 2538
2427 2539
2428 2540
2429 2484
2429 2485
2430 2541
2430 2542
2431 2543
2432 2488
2432 2489
2433 2544
2433 2545
2434 2546
2435 2492
2435 2493
2436 2547
2436 2548
2437 2549
2438 2496
2438 2497
2439 2550
2439 2551
2440 2552
2441 2500
2441 2501
2442 2553
2442 2554
2443 2555
2444 2504
2444 2505
2445 2556
2445 2557
2446 2558
2447 2508
2447 2509
2448 2559
2448 2560
2449 2561
2450 2512
2450 2513
2451 2562
2451 2563
2452 2453
2452 2516
2452 2564
2452 2565
2453 2454
2453 2564
2453 2565
2454 2517
2454 2565
2454 2566
2455 2518
2455 2567
2455 2568
2456 2457
2456 2519
2456 2569
2456 2570
2457 2458
2457 2569
2457 2570
2458 2520
2458 2570
2458 2571
2459 2521
2459 2572
2459 2573
2460 2461
2460 2522
2460 2574
2460 2575
2461 2462
2461 2574
2461 2575
2462 2523
2462 2575
2462 2576
2463 2524
2463 2577
2463 2578
2464 2465
2464 2525
2464 2579
2464 2580
2465 2466
2465 2579
2465 2580
2466 2526
2466 2580
2466 2581
2467 2527
2467 2582
2467 2583
2468 2469
2468 2528
2468 2584
2468 2585
2469 2470
2469 2584
2469 2585
2470 2529
2470 2585
2470 2586
2471 2530
2471 2587
2471 2588
2472 2473
2472 2531
2472 2589
2472 2590
2473 2474
2473 2589
2473 2590
2474 2532
2474 2590
2474 2591
2475 2533
2475 2592
2475 2593
2476 2477
2476 2534
2476 2594
2476 2595
2477 2478
2477 2594
2477 2595
2478 2535
2478 2595
2478 2596
2479 2536
2479 2597
2479 2598
2480 2481
2480 2537
2480 2599
2480 2600
2481 2482
2481 2599
2481 2600
2482 2538
2482 2600
2482 2601
2483 2539
2483 2602
2483 2603
2484 2485
2484 2540
2484 2604
2484 2605
2485 2486
2485 2604
2485 2605
2486 2541
2486 2605
2486 2606
2487 2542
2487 2607
2487 2608
2488 2489
2488 2543
2488 2609
2488 2610
2489 2490
2489 2609
2489 2610
2490 2544
2490 2610
2490 2611
2491 2545
2491 2612
2491 2613
2492 2493
2492 2546
2492 2614
2492 2615
2493 2494
2493 2614
2493 2615
2494 2547
2494 2615
2494 2616
2495 2548
2495 2617
2495 2618
2496 2497
2496 2549
2496 2619
2496 2620
2497 2498
2497 2619
2497 2620
2498 2550
2498 2620
2498 2621
2499 2551
2499 2622
2499 2623
2500 2501
2500 2552
2500 2624
2500 2625
2501 2502
2501 2624
2501 2625
2502 2553
2502 2625
2502 2626
2503 2554
2503 2627
2503 2628
2504 2505
2504 2555
2504 2629
2504 2630
2505 2506
2505 2629
2505 2630
2506 2556
2506 2630
2506 2631
2507 2557
2507 2632
2507 2633
2508 2509
2508 2558
2508 2634
2508 2635
2509 2510
2509 2634
2509 2635
2510 2559
2510 2635
2510 2636
2511 2560
2511 2637
2511 2638
2512 2513
2512 2561
2512 2639
2512 2640
2513 2514
2513 2639
2513 2640
2514 2562
2514 2640
2514 2641
2515 2563
2515 2642
2515 2643
2516 2564
2517 2518
2517 2566
2517 2644
2517 2645
2518 2567
2518 2644
2518 2645
2519 2569
2520 2521
2520 2571
2520 2646
2520 2647
2521 2572
2521 2646
2521 2647
2522 2574
2523 2524
2523 2576
2523 2648
2523 2649
2524 2577
2524 2648
2524 2649
2525 2579
2526 2527
2526 2581
2526 2650
2526 2651
2527 2582
2527 2650
2527 2651
2528 2584
2529 2530
2529 2586
2529 2652
2529 2653
2530 2587
2530 2652
2530 2653
2531 2589
2532 2533
2532 2591
2532 2654
2532 2655
2533 2592
2533 2654
2533 2655
2534 2594
2535 2536
2535 2596
2535 2656
2535 2657
2536 2597
2536 2656
2536 2657
2537 2599
2538 2539
2538 2601
2538 2658
2538 2659
2539 2602
2539 2658
2539 2659
2540 2604
2541 2542
2541 2606
2541 2660
2541 2661
2542 2607
2542 2660
2542 2661
2543 2609
2544 2545
2544 2611
2544 2662
2544 2663
2545 2612
2545 2662
2545 2663
2546 2614
2547 2548
2547 2616
2547 2664
2547 2665
2548 2617
2548 2664
2548 2665
2549 2619
2550 2551
2550 2621
2550 2666
2550 2667
2551 2622
2551 2666
2551 2667
2552 2624
2553 2554
2553 2626
2553 2668
2553 2669
2554 2627
2554 2668
2554 2669
2555 2629
2556 2557
2556 2631
2556 2670
2556 2671
2557 2632
2557 2670
2557 2671
2558 2634
2559 2560
2559 2636
2559 2672
2559 2673
2560 2637
2560 2672
2560 2673
2561 2639
2562 2563
2562 2641
2562 2674
2562 2675
2563 2642
2563 2674
2563 2675
2564 2565
2564 2676
2565 2676
2566 2644
2566 2677
2567 2645
2567 2678
2568 2679
2569 2570
2569 2680
2570 2680
2571 2646
2571 2681
2572 2647
2572 2682
2573 2683
2574 2575
2574 2684
2575 2684
2576 2648
2576 2685
2577 2649
2577 2686
2578 2687
2579 2580
2579 2688
2580 2688
2581 2650
2581 2689
2582 2651
2582 2690
2583 2691
2584 2585
2584 2692
2585 2692
2586 2652
2586 2693
2587 2653
2587 2694
2588 2695
2589 2590
2589 2696
2590 2696
2591 2654
2591 2697
2592 2655
2592 2698
2593 2699
2594 2595
2594 2700
2595 2700
2596 2656
2596 2701
2597 2657
2597 2702
2598 2703
2599 2600
2599 2704
2600 2704
2601 2658
2601 2705
2602 2659
2602 2706
2603 2707
2604 2605
2604 2708
2605 2708
2606 2660
2606 2709
2607 2661
2607 2710
2608 2711
2609 2610
2609 2712
2610 2712
2611 2662
2611 2713
2612 2663
2612 2714
2613 2715
2614 2615
2614 2716
2615 2716
2616 2664
2616 2717
2617 2665
2617 2718
2618 2719
2619 2620
2619 2720
2620 2720
2621 2666
2621 2721
2622 2667
2622 2722
2623 2723
2624 2625
2624 2724
2625 2724
2626 2668
2626 2725
2627 2669
2627 2726
2628 2727
2629 2630
2629 2728
2630 2728
2631 2670
2631 2729
2632 2671
2632 2730
2633 2731
2634 2635
2634 2732
2635 2732
2636 2672
2636 2733
2637 2673
2637 2734
2638 2735
2639 2640
2639 2736
2640 2736
2641 2674
2641 2737
2642 2675
2642 2738
2643 2739
2644 2645
2644 2677
2645 2678
2646 2647
2646 2681
2647 2682
2648 2649
2648 2685
2649 2686
2650 2651
2650 2689
2651 2690
2652 2653
2652 2693
2653 2694
2654 2655
2654 2697
2655 2698
2656 2657
2656 2701
2657 2702
2658 2659
2658 2705
2659 2706
2660 2661
2660 2709
2661 2710
2662 2663
2662 2713
2663 2714
2664 2665
2664 2717
2665 2718
2666 2667
2666 2721
2667 2722
2668 2669
2668 2725
2669 2726
2670 2671
2670 2729
2671 2730
2672 2673
2672 2733
2673 2734
2674 2675
2674 2737
2675 2738
2676 2740
2676 2741
2677 2741
2678 2742
2678 2743
2679 2744
2679 2745
2680 2746
2680 2747
2681 2747
2682 2748
2682 2749
2683 2750
2683 2751
2684 2752
2684 2753
2685 2753
2686 2754
2686 2755
2687 2756
2687 2757
2688 2758
2688 2759
2689 2759
2690 2760
2690 2761
2691 2762
2691 2763
2692 2764
2692 2765
2693 2765
2694 2766
2694 2767
2695 2768
2695 2769
2696 2770
2696 2771
2697 2771
2698 2772
2698 2773
2699 2774
2699 2775
2700 2776
2700 2777
2701 2777
2702 2778
2702 2779
2703 2780
2703 2781
2704 2782
2704 2783
2705 2783
2706 2784
2706 2785
2707 2786
2707 2787
2708 2788
2708 2789
2709 2789
2710 2790
2710 2791
2711 2792
2711 2793
2712 2794
2712 2795
2713 2795
2714 2796
2714 2797
2715 2798
2715 2799
2716 2800
2716 2801
2717 2801
2718 2802
2718 2803
2719 2804
2719 2805
2720 2806
2720 2807
2721 2807
2722 2808
2722 2809
2723 2810
2723 2811
2724 2812
2724 2813
2725 2813
2726 2814
2726 2815
2727 2816
2727 2817
2728 2818
2728 2819
2729 2819
2730 2820
2730 2821
2731 2822
2731 2823
2732 2824
2732 2825
2733 2825
2734 2826
2734 2827
2735 2828
2735 2829
2736 2830
2736 2831
2737 2831
2738 2832
2738 2833
2739 2834
2739 2835
2740 2741
2740 2836
2740 2901
2740 2902
2741 2837
2741 2901
2741 2902
2742 2743
2742 2838
2742 2903
2742 2904
2743 2839
2743 2903
2743 2904
2744 2745
2744 2839
2744 2905
2744 2906
2745 2840
2745 2905
2745 2906
2746 2747
2746 2840
2746 2907
2746 2908
2747 2841
2747 2907
2747 2908
2748 2749
2748 2842
2748 2909
2748 2910
2749 2843
2749 2909
2749 2910
2750 2751
2750 2843
2750 2911
2750 2912
2751 2844
2751 2911
2751 2912
2752 2753
2752 2844
2752 2913
2752 2914
2753 2845
2753 2913
2753 2914
2754 2755
2754 2846
2754 2915
2754 2916
2755 2847
2755 2915
2755 2916
2756 2757
2756 2847
2756 2917
2756 2918
2757 2848
2757 2917
2757 2918
2758 2759
2758 2848
2758 2919
2758 2920
2759 2849
2759 2919
2759 2920
2760 2761
2760 2850
2760 2921
2760 2922
2761 2851
2761 2921
2761 2922
2762 2763
2762 2851
2762 2923
2762 2924
2763 2852
2763 2923
2763 2924
2764 2765
2764 2852
2764 2925
2764 2926
2765 2853
2765 2925
2765 2926
2766 2767
2766 2854
2766 2927
2766 2928
2767 2855
2767 2927
2767 2928
2768 2769
2768 2855
2768 2929
2768 2930
2769 2856
2769 2929
2769 2930
2770 2771
2770 2856
2770 2931
2770 2932
2771 2857
2771 2931
2771 2932
2772 2773
2772 2858
2772 2933
2772 2934
2773 2859
2773 2933
2773 2934
2774 2775
2774 2859
2774 2935
2774 2936
2775 2860
2775 2935
2775 2936
2776 2777
2776 2860
2776 2937
2776 2938
2777 2861
2777 2937
2777 2938
2778 2779
2778 2862
2778 2939
2778 2940
2779 2863
2779 2939
2779 2940
2780 2781
2780 2863
2780 2941
2780 2942
2781 2864
2781 2941
2781 2942
2782 2783
2782 2864
2782 2943
2782 2944
2783 2865
2783 2943
2783 2944
2784 2785
2784 2866
2784 2945
2784 2946
2785 2867
2785 2945
2785 2946
2786 2787
2786 2867
2786 2947
2786 2948
2787 2868
2787 2947
2787 2948
2788 2789
2788 2868
2788 2949
2788 2950
2789 2869
2789 2949
2789 2950
2790 2791
2790 2870
2790 2951
2790 2952
2791 2871
2791 2951
2791 2952
2792 2793
2792 2871
2792 2953
2792 2954
2793 2872
2793 2953
2793 2954
2794 2795
2794 2872
2794 2955
2794 2956
2795 2873
2795 2955
2795 2956
2796 2797
2796 2874
2796 2957
2796 2958
2797 2875
2797 2957
2797 2958
2798 2799
2798 2875
2798 2959
2798 2960
2799 2876
2799 2959
2799 2960
2800 2801
2800 2876
2800 2961
2800 2962
2801 2877
2801 2961
2801 2962
2802 2803
2802 2878
2802 2963
2802 2964
2803 2879
2803 2963
2803 2964
2804 2805
2804 2879
2804 2965
2804 2966
2805 2880
2805 2965
2805 2966
2806 2807
2806 2880
2806 2967
2806 2968
2807 2881
2807 2967
2807 2968
2808 2809
2808 2882
2808 2969
2808 2970
2809 2883
2809 2969
2809 2970
2810 2811
2810 2883
2810 2971
2810 2972
2811 2884
2811 2971
2811 2972
2812 2813
2812 2884
2812 2973
2812 2974
2813 2885
2813 2973
2813 2974
2814 2815
2814 2886
2814 2975
2814 2976
2815 2887
2815 2975
2815 2976
2816 2817
2816 2887
2816 2977
2816 2978
2817 2888
2817 2977
2817 2978
2818 2819
2818 2888
2818 2979
2818 2980
2819 2889
2819 2979
2819 2980
2820 2821
2820 2890
2820 2981
2820 2982
2821 2891
2821 2981
2821 2982
2822 2823
2822 2891
2822 2983
2822 2984
2823 2892
2823 2983
2823 2984
2824 2825
2824 2892
2824 2985
2824 2986
2825 2893
2825 2985
2825 2986
2826 2827
2826 2894
2826 2987
2826 2988
2827 2895
2827 2987
2827 2988
2828 2829
2828 2895
2828 2989
2828 2990
2829 2896
2829 2989
2829 2990
2830 2831
2830 2896
2830 2991
2830 2992
2831 2897
2831 2991
2831 2992
2832 2833
2832 2898
2832 2993
2832 2994
2833 2899
2833 2993
2833 2994
2834 2835
2834 2899
2835 2900
2836 2901
2837 2838
2837 2902
2838 2903
2839 2904
2839 2905
2840 2906
2840 2907
2841 2842
2841 2908
2842 2909
2843 2910
2843 2911
2844 2912
2844 2913
2845 2846
2845 2914
2846 2915
2847 2916
2847 2917
2848 2918
2848 2919
2849 2850
2849 2920
2850 2921
2851 2922
2851 2923
2852 2924
2852 2925
2853 2854
2853 2926
2854 2927
2855 2928
2855 2929
2856 2930
2856 2931
2857 2858
2857 2932
2858 2933
2859 2934
2859 2935
2860 2936
2860 2937
2861 2862
2861 2938
2862 2939
2863 2940
2863 2941
2864 2942
2864 2943
2865 2866
2865 2944
2866 2945
2867 2946
2867 2947
2868 2948
2868 2949
2869 2870
2869 2950
2870 2951
2871 2952
2871 2953
2872 2954
2872 2955
2873 2874
2873 2956
2874 2957
2875 2958
2875 2959
2876 2960
2876 2961
2877 2878
2877 2962
2878 2963
2879 2964
2879 2965
2880 2966
2880 2967
2881 2882
2881 2968
2882 2969
2883 2970
2883 2971
2884 2972
2884 2973
2885 2886
2885 2974
2886 2975
2887 2976
2887 2977
2888 2978
2888 2979
2889 2890
2889 2980
2890 2981
2891 2982
2891 2983
2892 2984
2892 2985
2893 2894
2893 2986
2894 2987
2895 2988
2895 2989
2896 2990
2896 2991
2897 2898
2897 2992
2898 2993
2899 2994
2901 2902
2901 2995
2902 2995
2903 2904
2903 2996
2904 2996
2905 2906
2905 2997
2906 2997
2907 2908
2907 2998
2908 2998
2909 2910
2909 2999
2910 2999
2911 2912
2911 3000
2912 3000
2913 2914
2913 3001
2914 3001
2915 2916
2915 3002
2916 3002
2917 2918
2917 3003
2918 3003
2919 2920
2919 3004
2920 3004
2921 2922
2921 3005
2922 3005
2923 2924
2923 3006
2924 3006
2925 2926
2925 3007
2926 3007
2927 2928
2927 3008
2928 3008
2929 2930
2929 3009
2930 3009
2931 2932
2931 3010
2932 3010
2933 2934
2933 3011
2934 3011
2935 2936
2935 3012
2936 3012
2937 2938
2937 3013
2938 3013
2939 2940
2939 3014
2940 3014
2941 2942
2941 3015
2942 3015
2943 2944
2943 3016
2944 3016
2945 2946
2945 3017
2946 3017
2947 2948
2947 3018
2948 3018
2949 2950
2949 3019
2950 3019
2951 2952
2951 3020
2952 3020
2953 2954
2953 3021
2954 3021
2955 2956
2955 3022
2956 3022
2957 2958
2957 3023
2958 3023
2959 2960
2959 3024
2960 3024
2961 2962
2961 3025
2962 3025
2963 2964
2963 3026
2964 3026
2965 2966
2965 3027
2966 3027
2967 2968
2967 3028
2968 3028
2969 2970
2969 3029
2970 3029
2971 2972
2971 3030
2972 3030
2973 2974
2973 3031
2974 3031
2975 2976
2975 3032
2976 3032
2977 2978
2977 3033
2978 3033
2979 2980
2979 3034
2980 3034
2981 2982
2981 3035
2982 3035
2983 2984
2983 3036
2984 3036
2985 2986
2985 3037
2986 3037
2987 2988
2987 3038
2988 3038
2989 2990
2989 3039
2990 3039
2991 2992
2991 3040
2992 3040
2993 2994
2993 3041
2994 3041
2995 3042
2995 3043
2996 3107
2996 3108
2997 3109
2998 3046
2998 3047
2999 3110
2999 3111
3000 3112
3001 3050
3001 3051
3002 3113
3002 3114
3003 3115
3004 3054
3004 3055
3005 3116
3005 3117
3006 3118
3007 3058
3007 3059
3008 3119
3008 3120
3009 3121
3010 3062
3010 3063
3011 3122
3011 3123
3012 3124
3013 3066
3013 3067
3014 3125
3014 3126
3015 3127
3016 3070
3016 3071
3017 3128
3017 3129
3018 3130
3019 3074
3019 3075
3020 3131
3020 3132
3021 3133
3022 3078
3022 3079
3023 3134
3023 3135
3024 3136
3025 3082
3025 3083
3026 3137
3026 3138
3027 3139
3028 3086
3028 3087
3029 3140
3029 3141
3030 3142
3031 3090
3031 3091
3032 3143
3032 3144
3033 3145
3034 3094
3034 3095
3035 3146
3035 3147
3036 3148
3037 3098
3037 3099
3038 3149
3038 3150
3039 3151
3040 3102
3040 3103
3041 3152
3041 3153
3042 3043
3042 3106
3042 3154
3042 3155
3043 3044
3043 3154
3043 3155
3044 3107
3044 3155
3044 3156
3045 3108
3045 3157
3045 3158
3046 3047
3046 3109
3046 3159
3046 3160
3047 3048
3047 3159
3047 3160
3048 3110
3048 3160
3048 3161
3049 3111
3049 3162
3049 3163
3050 3051
3050 3112
3050 3164
3050 3165
3051 3052
3051 3164
3051 3165
3052 3113
3052 3165
3052 3166
3053 3114
3053 3167
3053 3168
3054 3055
3054 3115
3054 3169
3054 3170
3055 3056
3055 3169
3055 3170
3056 3116
3056 3170
3056 3171
3057 3117
3057 3172
3057 3173
3058 3059
3058 3118
3058 3174
3058 3175
3059 3060
3059 3174
3059 3175
3060 3119
3060 3175
3060 3176
3061 3120
3061 3177
3061 3178
3062 3063
3062 3121
3062 3179
3062 3180
3063 3064
3063 3179
3063 3180
3064 3122
3064 3180
3064 3181
3065 3123
3065 3182
3065 3183
3066 3067
3066 3124
3066 3184
3066 3185
3067 3068
3067 3184
3067 3185
3068 3125
3068 3185
3068 3186
3069 3126
3069 3187
3069 3188
3070 3071
3070 3127
3070 3189
3070 3190
3071 3072
3071 3189
3071 3190
3072 3128
3072 3190
3072 3191
3073 3129
3073 3192
3073 3193
3074 3075
3074 3130
3074 3194
3074 3195
3075 3076
3075 3194
3075 3195
3076 3131
3076 3195
3076 3196
3077 3132
3077 3197
3077 3198
3078 3079
3078 3133
3078 3199
3078 3200
3079 3080
3079 3199
3079 3200
3080 3134
3080 3200
3080 3201
3081 3135
3081 3202
3081 3203
3082 3083
3082 3136
3082 3204
3082 3205
3083 3084
3083 3204
3083 3205
3084 3137
3084 3205
3084 3206
3085 3138
3085 3207
3085 3208
3086 3087
3086 3139
3086 3209
3086 3210
3087 3088
3087 3209
3087 3210
3088 3140
3088 3210
3088 3211
3089 3141
3089 3212
3089 3213
3090 3091
3090 3142
3090 3214
3090 3215
3091 3092
3091 3214
3091 3215
3092 3143
3092 3215
3092 3216
3093 3144
3093 3217
3093 3218
3094 3095
3094 3145
3094 3219
3094 3220
3095 3096
3095 3219
3095 3220
3096 3146
3096 3220
3096 3221
3097 3147
3097 3222
3097 3223
3098 3099
3098 3148
3098 3224
3098 3225
3099 3100
3099 3224
3099 3225
3100 3149
3100 3225
3100 3226
3101 3150
3101 3227
3101 3228
3102 3103
3102 3151
3102 3229
3102 3230
3103 3104
3103 3229
3103 3230
3104 3152
3104 3230
3104 3231
3105 3153
3105 3232
3105 3233
3106 3154
3107 3108
3107 3156
3107 3234
3107 3235
3108 3157
3108 3234
3108 3235
3109 3159
3110 3111
3110 3161
3110 3236
3110 3237
3111 3162
3111 3236
3111 3237
3112 3164
3113 3114
3113 3166
3113 3238
3113 3239
3114 3167
3114 3238
3114 3239
3115 3169
3116 3117
3116 3171
3116 3240
3116 3241
3117 3172
3117 3240
3117 3241
3118 3174
3119 3120
3119 3176
3119 3242
3119 3243
3120 3177
3120 3242
3120 3243
3121 3179
3122 3123
3122 3181
3122 3244
3122 3245
3123 3182
3123 3244
3123 3245
3124 3184
3125 3126
3125 3186
3125 3246
3125 3247
3126 3187
3126 3246
3126 3247
3127 3189
3128 3129
3128 3191
3128 3248
3128 3249
3129 3192
3129 3248
3129 3249
3130 3194
3131 3132
3131 3196
3131 3250
3131 3251
3132 3197
3132 3250
3132 3251
3133 3199
3134 3135
3134 3201
3134 3252
3134 3253
3135 3202
3135 3252
3135 3253
3136 3204
3137 3138
3137 3206
3137 3254
3137 3255
3138 3207
3138 3254
3138 3255
3139 3209
3140 3141
3140 3211
3140 3256
3140 3257
3141 3212
3141 3256
3141 3257
3142 3214
3143 3144
3143 3216
3143 3258
3143 3259
3144 3217
3144 3258
3144 3259
3145 3219
3146 3147
3146 3221
3146 3260
3146 3261
3147 3222
3147 3260
3147 3261
3148 3224
3149 3150
3149 3226
3149 3262
3149 3263
3150 3227
3150 3262
3150 3263
3151 3229
3152 3153
3152 3231
3152 3264
3152 3265
3153 3232
3153 3264
3153 3265
3154 3155
3154 3266
3155 3266
3156 3234
3156 3267
3157 3235
3157 3268
3158 3269
3159 3160
3159 3270
3160 3270
3161 3236
3161 3271
3162 3237
3162 3272
3163 3273
3164 3165
3164 3274
3165 3274
3166 3238
3166 3275
3167 3239
3167 3276
3168 3277
3169 3170
3169 3278
3170 3278
3171 3240
3171 3279
3172 3241
3172 3280
3173 3281
3174 3175
3174 3282
3175 3282
3176 3242
3176 3283
3177 3243
3177 3284
3178 3285
3179 3180
3179 3286
3180 3286
3181 3244
3181 3287
3182 3245
3182 3288
3183 3289
3184 3185
3184 3290
3185 3290
3186 3246
3186 3291
3187 3247
3187 3292
3188 3293
3189 3190
3189 3294
3190 3294
3191 3248
3191 3295
3192 3249
3192 3296
3193 3297
3194 3195
3194 3298
3195 3298
3196 3250
3196 3299
3197 3251
3197 3300
3198 3301
3199 3200
3199 3302
3200 3302
3201 3252
3201 3303
3202 3253
3202 3304
3203 3305
3204 3205
3204 3306
3205 3306
3206 3254
3206 3307
3207 3255
3207 3308
3208 3309
3209 3210
3209 3310
3210 3310
3211 3256
3211 3311
3212 3257
3212 3312
3213 3313
3214 3215
3214 3314
3215 3314
3216 3258
3216 3315
3217 3259
3217 3316
3218 3317
3219 3220
3219 3318
3220 3318
3221 3260
3221 3319
3222 3261
3222 3320
3223 3321
3224 3225
3224 3322
3225 3322
3226 3262
3226 3323
3227 3263
3227 3324
3228 3325
3229 3230
3229 3326
3230 3326
3231 3264
3231 3327
3232 3265
3232 3328
3233 3329
3234 3235
3234 3267
3235 3268
3236 3237
3236 3271
3237 3272
3238 3239
3238 3275
3239 3276
3240 3241
3240 3279
3241 3280
3242 3243
3242 3283
3243 3284
3244 3245
3244 3287
3245 3288
3246 3247
3246 3291
3247 3292
3248 3249
3248 3295
3249 3296
3250 3251
3250 3299
3251 3300
3252 3253
3252 3303
3253 3304
3254 3255
3254 3307
3255 3308
3256 3257
3256 3311
3257 3312
3258 3259
3258 3315
3259 3316
3260 3261
3260 3319
3261 3320
3262 3263
3262 3323
3263 3324
3264 3265
3264 3327
3265 3328
3266 3330
3266 3331
3267 3331
3268 3332
3268 3333
3269 3334
3269 3335
3270 3336
3270 3337
3271 3337
3272 3338
3272 3339
3273 3340
3273 3341
3274 3342
3274 3343
3275 3343
3276 3344
3276 3345
3277 3346
3277 3347
3278 3348
3278 3349
3279 3349
3280 3350
3280 3351
3281 3352
3281 3353
3282 3354
3282 3355
3283 3355
3284 3356
3284 3357
3285 3358
3285 3359
3286 3360
3286 3361
3287 3361
3288 3362
3288 3363
3289 3364
3289 3365
3290 3366
3290 3367
3291 3367
3292 3368
3292 3369
3293 3370
3293 3371
3294 3372
3294 3373
3295 3373
3296 3374
3296 3375
3297 3376
3297 3377
3298 3378
3298 3379
3299 3379
3300 3380
3300 3381
3301 3382
3301 3383
3302 3384
3302 3385
3303 3385
3304 3386
3304 3387
3305 3388
3305 3389
3306 3390
3306 3391
3307 3391
3308 3392
3308 3393
3309 3394
3309 3395
3310 3396
3310 3397
3311 3397
3312 3398
3312 3399
3313 3400
3313 3401
3314 3402
3314 3403
3315 3403
3316 3404
3316 3405
3317 3406
3317 3407
3318 3408
3318 3409
3319 3409
3320 3410
3320 3411
3321 3412
3321 3413
3322 3414
3322 3415
3323 3415
3324 3416
3324 3417
3325 3418
3325 3419
3326 3420
3326 3421
3327 3421
3328 3422
3328 3423
3329 3424
3329 3425
3330 3331
3330 3426
3330 3491
3330 3492
3331 3427
3331 3491
3331 3492
3332 3333
3332 3428
3332 3493
3332 3494
3333 3429
3333 3493
3333 3494
3334 3335
3334 3429
3334 3495
3334 3496
3335 3430
3335 3495
3335 3496
3336 3337
3336 3430
3336 3497
3336 3498
3337 3431
3337 3497
3337 3498
3338 3339
3338 3432
3338 3499
3338 3500
3339 3433
3339 3499
3339 3500
3340 3341
3340 3433
3340 3501
3340 3502
3341 3434
3341 3501
3341 3502
3342 3343
3342 3434
3342 3503
3342 3504
3343 3435
3343 3503
3343 3504
3344 3345
3344 3436
3344 3505
3344 3506
3345 3437
3345 3505
3345 3506
3346 3347
3346 3437
3346 3507
3346 3508
3347 3438
3347 3507
3347 3508
3348 3349
3348 3438
3348 3509
3348 3510
3349 3439
3349 3509
3349 3510
3350 3351
3350 3440
3350 3511
3350 3512
3351 3441
3351 3511
3351 3512
3352 3353
3352 3441
3352 3513
3352 3514
3353 3442
3353 3513
3353 3514
3354 3355
3354 3442
3354 3515
3354 3516
3355 3443
3355 3515
3355 3516
3356 3357
3356 3444
3356 3517
3356 3518
3357 3445
3357 3517
3357 3518
3358 3359
3358 3445
3358 3519
3358 3520
3359 3446
3359 3519
3359 3520
3360 3361
3360 3446
3360 3521
3360 3522
3361 3447
3361 3521
3361 3522
3362 3363
3362 3448
3362 3523
3362 3524
3363 3449
3363 3523
3363 3524
3364 3365
3364 3449
3364 3525
3364 3526
3365 3450
3365 3525
3365 3526
3366 3367
3366 3450
3366 3527
3366 3528
3367 3451
3367 3527
3367 3528
3368 3369
3368 3452
3368 3529
3368 3530
3369 3453
3369 3529
3369 3530
3370 3371
3370 3453
3370 3531
3370 3532
3371 3454
3371 3531
3371 3532
3372 3373
3372 3454
3372 3533
3372 3534
3373 3455
3373 3533
3373 3534
3374 3375
3374 3456
3374 3535
3374 3536
3375 3457
3375 3535
3375 3536
3376 3377
3376 3457
3376 3537
3376 3538
3377 3458
3377 3537
3377 3538
3378 3379
3378 3458
3378 3539
3378 3540
3379 3459
3379 3539
3379 3540
3380 3381
3380 3460
3380 3541
3380 3542
3381 3461
3381 3541
3381 3542
3382 3383
3382 3461
3382 3543
3382 3544
3383 3462
3383 3543
3383 3544
3384 3385
3384 3462
3384 3545
3384 3546
3385 3463
3385 3545
3385 3546
3386 3387
3386 3464
3386 3547
3386 3548
3387 3465
3387 3547
3387 3548
3388 3389
3388 3465
3388 3549
3388 3550
3389 3466
3389 3549
3389 3550
3390 3391
3390 3466
3390 3551
3390 3552
3391 3467
3391 3551
3391 3552
3392 3393
3392 3468
3392 3553
3392 3554
3393 3469
3393 3553
3393 3554
3394 3395
3394 3469
3394 3555
3394 3556
3395 3470
3395 3555
3395 3556
3396 3397
3396 3470
3396 3557
3396 3558
3397 3471
3397 3557
3397 3558
3398 3399
3398 3472
3398 3559
3398 3560
3399 3473
3399 3559
3399 3560
3400 3401
3400 3473
3400 3561
3400 3562
3401 3474
3401 3561
3401 3562
3402 3403
3402 3474
3402 3563
3402 3564
3403 3475
3403 3563
3403 3564
3404 3405
3404 3476
3404 3565
3404 3566
3405 3477
3405 3565
3405 3566
3406 3407
3406 3477
3406 3567
3406 3568
3407 3478
3407 3567
3407 3568
3408 3409
3408 3478
3408 3569
3408 3570
3409 3479
3409 3569
3409 3570
3410 3411
3410 3480
3410 3571
3410 3572
3411 3481
3411 3571
3411 3572
3412 3413
3412 3481
3412 3573
3412 3574
3413 3482
3413 3573
3413 3574
3414 3415
3414 3482
3414 3575
3414 3576
3415 3483
3415 3575
3415 3576
3416 3417
3416 3484
3416 3577
3416 3578
3417 3485
3417 3577
3417 3578
3418 3419
3418 3485
3418 3579
3418 3580
3419 3486
3419 3579
3419 3580
3420 3421
3420 3486
3420 3581
3420 3582
3421 3487
3421 3581
3421 3582
3422 3423
3422 3488
3422 3583
3422 3584
3423 3489
3423 3583
3423 3584
3424 3425
3424 3489
3425 3490
3426 3491
3427 3428
3427 3492
3428 3493
3429 3494
3429 3495
3430 3496
3430 3497
3431 3432
3431 3498
3432 3499
3433 3500
3433 3501
3434 3502
3434 3503
3435 3436
3435 3504
3436 3505
3437 3506
3437 3507
3438 3508
3438 3509
3439 3440
3439 3510
3440 3511
3441 3512
3441 3513
3442 3514
3442 3515
3443 3444
3443 3516
3444 3517
3445 3518
3445 3519
3446 3520
3446 3521
3447 3448
3447 3522
3448 3523
3449 3524
3449 3525
3450 3526
3450 3527
3451 3452
3451 3528
3452 3529
3453 3530
3453 3531
3454 3532
3454 3533
3455 3456
3455 3534
3456 3535
3457 3536
3457 3537
3458 3538
3458 3539
3459 3460
3459 3540
3460 3541
3461 3542
3461 3543
3462 3544
3462 3545
3463 3464
3463 3546
3464 3547
3465 3548
3465 3549
3466 3550
3466 3551
3467 3468
3467 3552
3468 3553
3469 3554
3469 3555
3470 3556
3470 3557
3471 3472
3471 3558
3472 3559
3473 3560
3473 3561
3474 3562
3474 3563
3475 3476
3475 3564
3476 3565
3477 3566
3477 3567
3478 3568
3478 3569
3479 3480
3479 3570
3480 3571
3481 3572
3481 3573
3482 3574
3482 3575
3483 3484
3483 3576
3484 3577
3485 3578
3485 3579
3486 3580
3486 3581
3487 3488
3487 3582
3488 3583
3489 3584
3491 3492
3491 3585
3492 3585
3493 3494
3493 3586
3494 3586
3495 3496
3495 3587
3496 3587
3497 3498
3497 3588
3498 3588
3499 3500
3499 3589
3500 3589
3501 3502
3501 3590
3502 3590
3503 3504
3503 3591
3504 3591
3505 3506
3505 3592
3506 3592
3507 3508
3507 3593
3508 3593
3509 3510
3509 3594
3510 3594
3511 3512
3511 3595
3512 3595
3513 3514
3513 3596
3514 3596
3515 3516
3515 3597
3516 3597
3517 3518
3517 3598
3518 3598
3519 3520
3519 3599
3520 3599
3521 3522
3521 3600
3522 3600
3523 3524
3523 3601
3524 3601
3525 3526
3525 3602
3526 3602
3527 3528
3527 3603
3528 3603
3529 3530
3529 3604
3530 3604
3531 3532
3531 3605
3532 3605
3533 3534
3533 3606
3534 3606
3535 3536
3535 3607
3536 3607
3537 3538
3537 3608
3538 3608
3539 3540
3539 3609
3540 3609
3541 3542
3541 3610
3542 3610
3543 3544
3543 3611
3544 3611
3545 3546
3545 3612
3546 3612
3547 3548
3547 3613
3548 3613
3549 3550
3549 3614
3550 3614
3551 3552
3551 3615
3552 3615
3553 3554
3553 3616
3554 3616
3555 3556
3555 3617
3556 3617
3557 3558
3557 3618
3558 3618
3559 3560
3559 3619
3560 3619
3561 3562
3561 3620
3562 3620
3563 3564
3563 3621
3564 3621
3565 3566
3565 3622
3566 3622
3567 3568
3567 3623
3568 3623
3569 3570
3569 3624
3570 3624
3571 3572
3571 3625
3572 3625
3573 3574
3573 3626
3574 3626
3575 3576
3575 3627
3576 3627
3577 3578
3577 3628
3578 3628
3579 3580
3579 3629
3580 3629
3581 3582
3581 3630
3582 3630
3583 3584
3583 3631
3584 3631
3585 3632
3585 3633
3586 3697
3586 3698
3587 3699
3588 3636
3588 3637
3589 3700
3589 3701
3590 3702
3591 3640
3591 3641
3592 3703
3592 3704
3593 3705
3594 3644
3594 3645
3595 3706
3595 3707
3596 3708
3597 3648
3597 3649
3598 3709
3598 3710
3599 3711
3600 3652
3600 3653
3601 3712
3601 3713
3602 3714
3603 3656
3603 3657
3604 3715
3604 3716
3605 3717
3606 3660
3606 3661
3607 3718
3607 3719
3608 3720
3609 3664
3609 3665
3610 3721
3610 3722
3611 3723
3612 3668
3612 3669
3613 3724
3613 3725
3614 3726
3615 3672
3615 3673
3616 3727
3616 3728
3617 3729
3618 3676
3618 3677
3619 3730
3619 3731
3620 3732
3621 3680
3621 3681
3622 3733
3622 3734
3623 3735
3624 3684
3624 3685
3625 3736
3625 3737
3626 3738
3627 3688
3627 3689
3628 3739
3628 3740
3629 3741
3630 3692
3630 3693
3631 3742
3631 3743
3632 3633
3632 3696
3632 3744
3632 3745
3633 3634
3633 3744
3633 3745
3634 3697
3634 3745
3634 3746
3635 3698
3635 3747
3635 3748
3636 3637
3636 3699
3636 3749
3636 3750
3637 3638
3637 3749
3637 3750
3638 3700
3638 3750
3638 3751
3639 3701
3639 3752
3639 3753
3640 3641
3640 3702
3640 3754
3640 3755
3641 3642
3641 3754
3641 3755
3642 3703
3642 3755
3642 3756
3643 3704
3643 3757
3643 3758
3644 3645
3644 3705
3644 3759
3644 3760
3645 3646
3645 3759
3645 3760
3646 3706
3646 3760
3646 3761
3647 3707
3647 3762
3647 3763
3648 3649
3648 3708
3648 3764
3648 3765
3649 3650
3649 3764
3649 3765
3650 3709
3650 3765
3650 3766
3651 3710
3651 3767
3651 3768
3652 3653
3652 3711
3652 3769
3652 3770
3653 3654
3653 3769
3653 3770
3654 3712
3654 3770
3654 3771
3655 3713
3655 3772
3655 3773
3656 3657
3656 3714
3656 3774
3656 3775
3657 3658
3657 3774
3657 3775
3658 3715
3658 3775
3658 3776
3659 3716
3659 3777
3659 3778
3660 3661
3660 3717
3660 3779
3660 3780
3661 3662
3661 3779
3661 3780
3662 3718
3662 3780
3662 3781
3663 3719
3663 3782
3663 3783
3664 3665
3664 3720
3664 3784
3664 3785
3665 3666
3665 3784
3665 3785
3666 3721
3666 3785
3666 3786
3667 3722
3667 3787
3667 3788
3668 3669
3668 3723
3668 3789
3668 3790
3669 3670
3669 3789
3669 3790
3670 3724
3670 3790
3670 3791
3671 3725
3671 3792
3671 3793
3672 3673
3672 3726
3672 3794
3672 3795
3673 3674
3673 3794
3673 3795
3674 3727
3674 3795
3674 3796
3675 3728
3675 3797
3675 3798
3676 3677
3676 3729
3676 3799
3676 3800
3677 3678
3677 3799
3677 3800
3678 3730
3678 3800
3678 3801
3679 3731
3679 3802
3679 3803
3680 3681
3680 3732
3680 3804
3680 3805
3681 3682
3681 3804
3681 3805
3682 3733
3682 3805
3682 3806
3683 3734
3683 3807
3683 3808
3684 3685
3684 3735
3684 3809
3684 3810
3685 3686
3685 3809
3685 3810
3686 3736
3686 3810
3686 3811
3687 3737
3687 3812
3687 3813
3688 3689
3688 3738
3688 3814
3688 3815
3689 3690
3689 3814
3689 3815
3690 3739
3690 3815
3690 3816
3691 3740
3691 3817
3691 3818
3692 3693
3692 3741
3692 3819
3692 3820
3693 3694
3693 3819
3693 3820
3694 3742
3694 3820
3694 3821
3695 3743
3695 3822
3695 3823
3696 3744
3697 3698
3697 3746
3697 3824
3697 3825
3698 3747
3698 3824
3698 3825
3699 3749
3700 3701
3700 3751
3700 3826
3700 3827
3701 3752
3701 3826
3701 3827
3702 3754
3703 3704
3703 3756
3703 3828
3703 3829
3704 3757
3704 3828
3704 3829
3705 3759
3706 3707
3706 3761
3706 3830
3706 3831
3707 3762
3707 3830
3707 3831
3708 3764
3709 3710
3709 3766
3709 3832
3709 3833
3710 3767
3710 3832
3710 3833
3711 3769
3712 3713
3712 3771
3712 3834
3712 3835
3713 3772
3713 3834
3713 3835
3714 3774
3715 3716
3715 3776
3715 3836
3715 3837
3716 3777
3716 3836
3716 3837
3717 3779
3718 3719
3718 3781
3718 3838
3718 3839
3719 3782
3719 3838
3719 3839
3720 3784
3721 3722
3721 3786
3721 3840
3721 3841
3722 3787
3722 3840
3722 3841
3723 3789
3724 3725
3724 3791
3724 3842
3724 3843
3725 3792
3725 3842
3725 3843
3726 3794
3727 3728
3727 3796
3727 3844
3727 3845
3728 3797
3728 3844
3728 3845
3729 3799
3730 3731
3730 3801
3730 3846
3730 3847
3731 3802
3731 3846
3731 3847
3732 3804
3733 3734
3733 3806
3733 3848
3733 3849
3734 3807
3734 3848
3734 3849
3735 3809
3736 3737
3736 3811
3736 3850
3736 3851
3737 3812
3737 3850
3737 3851
3738 3814
3739 3740
3739 3816
3739 3852
3739 3853
3740 3817
3740 3852
3740 3853
3741 3819
3742 3743
3742 3821
3742 3854
3742 3855
3743 3822
3743 3854
3743 3855
3744 3745
3744 3856
3745 3856
3746 3824
3746 3857
3747 3825
3747 3858
3748 3859
3749 3750
3749 3860
3750 3860
3751 3826
3751 3861
3752 3827
3752 3862
3753 3863
3754 3755
3754 3864
3755 3864
3756 3828
3756 3865
3757 3829
3757 3866
3758 3867
3759 3760
3759 3868
3760 3868
3761 3830
3761 3869
3762 3831
3762 3870
3763 3871
3764 3765
3764 3872
3765 3872
3766 3832
3766 3873
3767 3833
3767 3874
3768 3875
3769 3770
3769 3876
3770 3876
3771 3834
3771 3877
3772 3835
3772 3878
3773 3879
3774 3775
3774 3880
3775 3880
3776 3836
3776 3881
3777 3837
3777 3882
3778 3883
3779 3780
3779 3884
3780 3884
3781 3838
3781 3885
3782 3839
3782 3886
3783 3887
3784 3785
3784 3888
3785 3888
3786 3840
3786 3889
3787 3841
3787 3890
3788 3891
3789 3790
3789 3892
3790 3892
3791 3842
3791 3893
3792 3843
3792 3894
3793 3895
3794 3795
3794 3896
3795 3896
3796 3844
3796 3897
3797 3845
3797 3898
3798 3899
3799 3800
3799 3900
3800 3900
3801 3846
3801 3901
3802 3847
3802 3902
3803 3903
3804 3805
3804 3904
3805 3904
3806 3848
3806 3905
3807 3849
3807 3906
3808 3907
3809 3810
3809 3908
3810 3908
3811 3850
3811 3909
3812 3851
3812 3910
3813 3911
3814 3815
3814 3912
3815 3912
3816 3852
3816 3913
3817 3853
3817 3914
3818 3915
3819 3820
3819 3916
3820 3916
3821 3854
3821 3917
3822 3855
3822 3918
3823 3919
3824 3825
3824 3857
3825 3858
3826 3827
3826 3861
3827 3862
3828 3829
3828 3865
3829 3866
3830 3831
3830 3869
3831 3870
3832 3833
3832 3873
3833 3874
3834 3835
3834 3877
3835 3878
3836 3837
3836 3881
3837 3882
3838 3839
3838 3885
3839 3886
3840 3841
3840 3889
3841 3890
3842 3843
3842 3893
3843 3894
3844 3845
3844 3897
3845 3898
3846 3847
3846 3901
3847 3902
3848 3849
3848 3905
3849 3906
3850 3851
3850 3909
3851 3910
3852 3853
3852 3913
3853 3914
3854 3855
3854 3917
3855 3918
3856 3920
3856 3921
3857 3921
3858 3922
3858 3923
3859 3924
3859 3925
3860 3926
3860 3927
3861 3927
3862 3928
3862 3929
3863 3930
3863 3931
3864 3932
3864 3933
3865 3933
3866 3934
3866 3935
3867 3936
3867 3937
3868 3938
3868 3939
3869 3939
3870 3940
3870 3941
3871 3942
3871 3943
3872 3944
3872 3945
3873 3945
3874 3946
3874 3947
3875 3948
3875 3949
3876 3950
3876 3951
3877 3951
3878 3952
3878 3953
3879 3954
3879 3955
3880 3956
3880 3957
3881 3957
3882 3958
3882 3959
3883 3960
3883 3961
3884 3962
3884 3963
3885 3963
3886 3964
3886 3965
3887 3966
3887 3967
3888 3968
3888 3969
3889 3969
3890 3970
3890 3971
3891 3972
3891 3973
3892 3974
3892 3975
3893 3975
3894 3976
3894 3977
3895 3978
3895 3979
3896 3980
3896 3981
3897 3981
3898 3982
3898 3983
3899 3984
3899 3985
3900 3986
3900 3987
3901 3987
3902 3988
3902 3989
3903 3990
3903 3991
3904 3992
3904 3993
3905 3993
3906 3994
3906 3995
3907 3996
3907 3997
3908 3998
3908 3999
3909 3999
3910 4000
3910 4001
3911 4002
3911 4003
3912 4004
3912 4005
3913 4005
3914 4006
3914 4007
3915 4008
3915 4009
3916 4010
3916 4011
3917 4011
3918 4012
3918 4013
3919 4014
3919 4015
3920 3921
3920 4016
3920 4081
3920 4082
3921 4017
3921 4081
3921 4082
3922 3923
3922 4018
3922 4083
3922 4084
3923 4019
3923 4083
3923 4084
3924 3925
3924 4019
3924 4085
3924 4086
3925 4020
3925 4085
3925 4086
3926 3927
3926 4020
3926 4087
3926 4088
3927 4021
3927 4087
3927 4088
3928 3929
3928 4022
3928 4089
3928 4090
3929 4023
3929 4089
3929 4090
3930 3931
3930 4023
3930 4091
3930 4092
3931 4024
3931 4091
3931 4092
3932 3933
3932 4024
3932 4093
3932 4094
3933 4025
3933 4093
3933 4094
3934 3935
3934 4026
3934 4095
3934 4096
3935 4027
3935 4095
3935 4096
3936 3937
3936 4027
3936 4097
3936 4098
3937 4028
3937 4097
3937 4098
3938 3939
3938 4028
3938 4099
3938 4100
3939 4029
3939 4099
3939 4100
3940 3941
3940 4030
3940 4101
3940 4102
3941 4031
3941 4101
3941 4102
3942 3943
3942 4031
3942 4103
3942 4104
3943 4032
3943 4103
3943 4104
3944 3945
3944 4032
3944 4105
3944 4106
3945 4033
3945 4105
3945 4106
3946 3947
3946 4034
3946 4107
3946 4108
3947 4035
3947 4107
3947 4108
3948 3949
3948 4035
3948 4109
3948 4110
3949 4036
3949 4109
3949 4110
3950 3951
3950 4036
3950 4111
3950 4112
3951 4037
3951 4111
3951 4112
3952 3953
3952 4038
3952 4113
3952 4114
3953 4039
3953 4113
3953 4114
3954 3955
3954 4039
3954 4115
3954 4116
3955 4040
3955 4115
3955 4116
3956 3957
3956 4040
3956 4117
3956 4118
3957 4041
3957 4117
3957 4118
3958 3959
3958 4042
3958 4119
3958 4120
3959 4043
3959 4119
3959 4120
3960 3961
3960 4043
3960 4121
3960 4122
3961 4044
3961 4121
3961 4122
3962 3963
3962 4044
3962 4123
3962 4124
3963 4045
3963 4123
3963 4124
3964 3965
3964 4046
3964 4125
3964 4126
3965 4047
3965 4125
3965 4126
3966 3967
3966 4047
3966 4127
3966 4128
3967 4048
3967 4127
3967 4128
3968 3969
3968 4048
3968 4129
3968 4130
3969 4049
3969 4129
3969 4130
3970 3971
3970 4050
3970 4131
3970 4132
3971 4051
3971 4131
3971 4132
3972 3973
3972 4051
3972 4133
3972 4134
3973 4052
3973 4133
3973 4134
3974 3975
3974 4052
3974 4135
3974 4136
3975 4053
3975 4135
3975 4136
3976 3977
3976 4054
3976 4137
3976 4138
3977 4055
3977 4137
3977 4138
3978 3979
3978 4055
3978 4139
3978 4140
3979 4056
3979 4139
3979 4140
3980 3981
3980 4056
3980 4141
3980 4142
3981 4057
3981 4141
3981 4142
3982 3983
3982 4058
3982 4143
3982 4144
3983 4059
3983 4143
3983 4144
3984 3985
3984 4059
3984 4145
3984 4146
3985 4060
3985 4145
3985 4146
3986 3987
3986 4060
3986 4147
3986 4148
3987 4061
3987 4147
3987 4148
3988 3989
3988 4062
3988 4149
3988 4150
3989 4063
3989 4149
3989 4150
3990 3991
3990 4063
3990 4151
3990 4152
3991 4064
3991 4151
3991 4152
3992 3993
3992 4064
3992 4153
3992 4154
3993 4065
3993 4153
3993 4154
3994 3995
3994 4066
3994 4155
3994 4156
3995 4067
3995 4155
3995 4156
3996 3997
3996 4067
3996 4157
3996 4158
3997 4068
3997 4157
3997 4158
3998 3999
3998 4068
3998 4159
3998 4160
3999 4069
3999 4159
3999 4160
4000 4001
4000 4070
4000 4161
4000 4162
4001 4071
4001 4161
4001 4162
4002 4003
4002 4071
4002 4163
4002 4164
4003 4072
4003 4163
4003 4164
4004 4005
4004 4072
4004 4165
4004 4166
4005 4073
4005 4165
4005 4166
4006 4007
4006 4074
4006 4167
4006 4168
4007 4075
4007 4167
4007 4168
4008 4009
4008 4075
4008 4169
4008 4170
4009 4076
4009 4169
4009 4170
4010 4011
4010 4076
4010 4171
4010 4172
4011 4077
4011 4171
4011 4172
4012 4013
4012 4078
4012 4173
4012 4174
4013 4079
4013 4173
4013 4174
4014 4015
4014 4079
4015 4080
4016 4081
4017 4018
4017 4082
4018 4083
4019 4084
4019 4085
4020 4086
4020 4087
4021 4022
4021 4088
4022 4089
4023 4090
4023 4091
4024 4092
4024 4093
4025 4026
4025 4094
4026 4095
4027 4096
4027 4097
4028 4098
4028 4099
4029 4030
4029 4100
4030 4101
4031 4102
4031 4103
4032 4104
4032 4105
4033 4034
4033 4106
4034 4107
4035 4108
4035 4109
4036 4110
4036 4111
4037 4038
4037 4112
4038 4113
4039 4114
4039 4115
4040 4116
4040 4117
4041 4042
4041 4118
4042 4119
4043 4120
4043 4121
4044 4122
4044 4123
4045 4046
4045 4124
4046 4125
4047 4126
4047 4127
4048 4128
4048 4129
4049 4050
4049 4130
4050 4131
4051 4132
4051 4133
4052 4134
4052 4135
4053 4054
4053 4136
4054 4137
4055 4138
4055 4139
4056 4140
4056 4141
4057 4058
4057 4142
4058 4143
4059 4144
4059 4145
4060 4146
4060 4147
4061 4062
4061 4148
4062 4149
4063 4150
4063 4151
4064 4152
4064 4153
4065 4066
4065 4154
4066 4155
4067 4156
4067 4157
4068 4158
4068 4159
4069 4070
4069 4160
4070 4161
4071 4162
4071 4163
4072 4164
4072 4165
4073 4074
4073 4166
4074 4167
4075 4168
4075 4169
4076 4170
4076 4171
4077 4078
4077 4172
4078 4173
4079 4174
4081 4082
4081 4175
4082 4175
4083 4084
4083 4176
4084 4176
4085 4086
4085 4177
4086 4177
4087 4088
4087 4178
4088 4178
4089 4090
4089 4179
4090 4179
4091 4092
4091 4180
4092 4180
4093 4094
4093 4181
4094 4181
4095 4096
4095 4182
4096 4182
4097 4098
4097 4183
4098 4183
4099 4100
4099 4184
4100 4184
4101 4102
4101 4185
4102 4185
4103 4104
4103 4186
4104 4186
4105 4106
4105 4187
4106 4187
4107 4108
4107 4188
4108 4188
4109 4110
4109 4189
4110 4189
4111 4112
4111 4190
4112 4190
4113 4114
4113 4191
4114 4191
4115 4116
4115 4192
4116 4192
4117 4118
4117 4193
4118 4193
4119 4120
4119 4194
4120 4194
4121 4122
4121 4195
4122 4195
4123 4124
4123 4196
4124 4196
4125 4126
4125 4197
4126 4197
4127 4128
4127 4198
4128 4198
4129 4130
4129 4199
4130 4199
4131 4132
4131 4200
4132 4200
4133 4134
4133 4201
4134 4201
4135 4136
4135 4202
4136 4202
4137 4138
4137 4203
4138 4203
4139 4140
4139 4204
4140 4204
4141 4142
4141 4205
4142 4205
4143 4144
4143 4206
4144 4206
4145 4146
4145 4207
4146 4207
4147 4148
4147 4208
4148 4208
4149 4150
4149 4209
4150 4209
4151 4152
4151 4210
4152 4210
4153 4154
4153 4211
4154 4211
4155 4156
4155 4212
4156 4212
4157 4158
4157 4213
4158 4213
4159 4160
4159 4214
4160 4214
4161 4162
4161 4215
4162 4215
4163 4164
4163 4216
4164 4216
4165 4166
4165 4217
4166 4217
4167 4168
4167 4218
4168 4218
4169 4170
4169 4219
4170 4219
4171 4172
4171 4220
4172 4220
4173 4174
4173 4221
4174 4221
4175 4222
4175 4223
4176 4287
4176 4288
4177 4289
4178 4226
4178 4227
4179 4290
4179 4291
4180 4292
4181 4230
4181 4231
4182 4293
4182 4294
4183 4295
4184 4234
4184 4235
4185 4296
4185 4297
4186 4298
4187 4238
4187 4239
4188 4299
4188 4300
4189 4301
4190 4242
4190 4243
4191 4302
4191 4303
4192 4304
4193 4246
4193 4247
4194 4305
4194 4306
4195 4307
4196 4250
4196 4251
4197 4308
4197 4309
4198 4310
4199 4254
4199 4255
4200 4311
4200 4312
4201 4313
4202 4258
4202 4259
4203 4314
4203 4315
4204 4316
4205 4262
4205 4263
4206 4317
4206 4318
4207 4319
4208 4266
4208 4267
4209 4320
4209 4321
4210 4322
4211 4270
4211 4271
4212 4323
4212 4324
4213 4325
4214 4274
4214 4275
4215 4326
4215 4327
4216 4328
4217 4278
4217 4279
4218 4329
4218 4330
4219 4331
4220 4282
4220 4283
4221 4332
4221 4333
4222 4223
4222 4286
4222 4334
4222 4335
4223 4224
4223 4334
4223 4335
4224 4287
4224 4335
4224 4336
4225 4288
4225 4337
4225 4338
4226 4227
4226 4289
4226 4339
4226 4340
4227 4228
4227 4339
4227 4340
4228 4290
4228 4340
4228 4341
4229 4291
4229 4342
4229 4343
4230 4231
4230 4292
4230 4344
4230 4345
4231 4232
4231 4344
4231 4345
4232 4293
4232 4345
4232 4346
4233 4294
4233 4347
4233 4348
4234 4235
4234 4295
4234 4349
4234 4350
4235 4236
4235 4349
4235 4350
4236 4296
4236 4350
4236 4351
4237 4297
4237 4352
4237 4353
4238 4239
4238 4298
4238 4354
4238 4355
4239 4240
4239 4354
4239 4355
4240 4299
4240 4355
4240 4356
4241 4300
4241 4357
4241 4358
4242 4243
4242 4301
4242 4359
4242 4360
4243 4244
4243 4359
4243 4360
4244 4302
4244 4360
4244 4361
4245 4303
4245 4362
4245 4363
4246 4247
4246 4304
4246 4364
4246 4365
4247 4248
4247 4364
4247 4365
4248 4305
4248 4365
4248 4366
4249 4306
4249 4367
4249 4368
4250 4251
4250 4307
4250 4369
4250 4370
4251 4252
4251 4369
4251 4370
4252 4308
4252 4370
4252 4371
4253 4309
4253 4372
4253 4373
4254 4255
4254 4310
4254 4374
4254 4375
4255 4256
4255 4374
4255 4375
4256 4311
4256 4375
4256 4376
4257 4312
4257 4377
4257 4378
4258 4259
4258 4313
4258 4379
4258 4380
4259 4260
4259 4379
4259 4380
4260 4314
4260 4380
4260 4381
4261 4315
4261 4382
4261 4383
4262 4263
4262 4316
4262 4384
4262 4385
4263 4264
4263 4384
4263 4385
4264 4317
4264 4385
4264 4386
4265 4318
4265 4387
4265 4388
4266 4267
4266 4319
4266 4389
4266 4390
4267 4268
4267 4389
4267 4390
4268 4320
4268 4390
4268 4391
4269 4321
4269 4392
4269 4393
4270 4271
4270 4322
4270 4394
4270 4395
4271 4272
4271 4394
4271 4395
4272 4323
4272 4395
4272 4396
4273 4324
4273 4397
4273 4398
4274 4275
4274 4325
4274 4399
4274 4400
4275 4276
4275 4399
4275 4400
4276 4326
4276 4400
4276 4401
4277 4327
4277 4402
4277 4403
4278 4279
4278 4328
4278 4404
4278 4405
4279 4280
4279 4404
4279 4405
4280 4329
4280 4405
4280 4406
4281 4330
4281 4407
4281 4408
4282 4283
4282 4331
4282 4409
4282 4410
4283 4284
4283 4409
4283 4410
4284 4332
4284 4410
4284 4411
4285 4333
4285 4412
4285 4413
4286 4334
4287 4288
4287 4336
4287 4414
4287 4415
4288 4337
4288 4414
4288 4415
4289 4339
4290 4291
4290 4341
4290 4416
4290 4417
4291 4342
4291 4416
4291 4417
4292 4344
4293 4294
4293 4346
4293 4418
4293 4419
4294 4347
4294 4418
4294 4419
4295 4349
4296 4297
4296 4351
4296 4420
4296 4421
4297 4352
4297 4420
4297 4421
4298 4354
4299 4300
4299 4356
4299 4422
4299 4423
4300 4357
4300 4422
4300 4423
4301 4359
4302 4303
4302 4361
4302 4424
4302 4425
4303 4362
4303 4424
4303 4425
4304 4364
4305 4306
4305 4366
4305 4426
4305 4427
4306 4367
4306 4426
4306 4427
4307 4369
4308 4309
4308 4371
4308 4428
4308 4429
4309 4372
4309 4428
4309 4429
4310 4374
4311 4312
4311 4376
4311 4430
4311 4431
4312 4377
4312 4430
4312 4431
4313 4379
4314 4315
4314 4381
4314 4432
4314 4433
4315 4382
4315 4432
4315 4433
4316 4384
4317 4318
4317 4386
4317 4434
4317 4435
4318 4387
4318 4434
4318 4435
4319 4389
4320 4321
4320 4391
4320 4436
4320 4437
4321 4392
4321 4436
4321 4437
4322 4394
4323 4324
4323 4396
4323 4438
4323 4439
4324 4397
4324 4438
4324 4439
4325 4399
4326 4327
4326 4401
4326 4440
4326 4441
4327 4402
4327 4440
4327 4441
4328 4404
4329 4330
4329 4406
4329 4442
4329 4443
4330 4407
4330 4442
4330 4443
4331 4409
4332 4333
4332 4411
4332 4444
4332 4445
4333 4412
4333 4444
4333 4445
4334 4335
4334 4446
4335 4446
4336 4414
4336 4447
4337 4415
4337 4448
4338 4449
4339 4340
4339 4450
4340 4450
4341 4416
4341 4451
4342 4417
4342 4452
4343 4453
4344 4345
4344 4454
4345 4454
4346 4418
4346 4455
4347 4419
4347 4456
4348 4457
4349 4350
4349 4458
4350 4458
4351 4420
4351 4459
4352 4421
4352 4460
4353 4461
4354 4355
4354 4462
4355 4462
4356 4422
4356 4463
4357 4423
4357 4464
4358 4465
4359 4360
4359 4466
4360 4466
4361 4424
4361 4467
4362 4425
4362 4468
4363 4469
4364 4365
4364 4470
4365 4470
4366 4426
4366 4471
4367 4427
4367 4472
4368 4473
4369 4370
4369 4474
4370 4474
4371 4428
4371 4475
4372 4429
4372 4476
4373 4477
4374 4375
4374 4478
4375 4478
4376 4430
4376 4479
4377 4431
4377 4480
4378 4481
4379 4380
4379 4482
4380 4482
4381 4432
4381 4483
4382 4433
4382 4484
4383 4485
4384 4385
4384 4486
4385 4486
4386 4434
4386 4487
4387 4435
4387 4488
4388 4489
4389 4390
4389 4490
4390 4490
4391 4436
4391 4491
4392 4437
4392 4492
4393 4493
4394 4395
4394 4494
4395 4494
4396 4438
4396 4495
4397 4439
4397 4496
4398 4497
4399 4400
4399 4498
4400 4498
4401 4440
4401 4499
4402 4441
4402 4500
4403 4501
4404 4405
4404 4502
4405 4502
4406 4442
4406 4503
4407 4443
4407 4504
4408 4505
4409 4410
4409 4506
4410 4506
4411 4444
4411 4507
4412 4445
4412 4508
4413 4509
4414 4415
4414 4447
4415 4448
4416 4417
4416 4451
4417 4452
4418 4419
4418 4455
4419 4456
4420 4421
4420 4459
4421 4460
4422 4423
4422 4463
4423 4464
4424 4425
4424 4467
4425 4468
4426 4427
4426 4471
4427 4472
4428 4429
4428 4475
4429 4476
4430 4431
4430 4479
4431 4480
4432 4433
4432 4483
4433 4484
4434 4435
4434 4487
4435 4488
4436 4437
4436 4491
4437 4492
4438 4439
4438 4495
4439 4496
4440 4441
4440 4499
4441 4500
4442 4443
4442 4503
4443 4504
4444 4445
4444 4507
4445 4508
4446 4510
4446 4511
4447 4511
4448 4512
4448 4513
4449 4514
4449 4515
4450 4516
4450 4517
4451 4517
4452 4518
4452 4519
4453 4520
4453 4521
4454 4522
4454 4523
4455 4523
4456 4524
4456 4525
4457 4526
4457 4527
4458 4528
4458 4529
4459 4529
4460 4530
4460 4531
4461 4532
4461 4533
4462 4534
4462 4535
4463 4535
4464 4536
4464 4537
4465 4538
4465 4539
4466 4540
4466 4541
4467 4541
4468 4542
4468 4543
4469 4544
4469 4545
4470 4546
4470 4547
4471 4547
4472 4548
4472 4549
4473 4550
4473 4551
4474 4552
4474 4553
4475 4553
4476 4554
4476 4555
4477 4556
4477 4557
4478 4558
4478 4559
4479 4559
4480 4560
4480 4561
4481 4562
4481 4563
4482 4564
4482 4565
4483 4565
4484 4566
4484 4567
4485 4568
4485 4569
4486 4570
4486 4571
4487 4571
4488 4572
4488 4573
4489 4574
4489 4575
4490 4576
4490 4577
4491 4577
4492 4578
4492 4579
4493 4580
4493 4581
4494 4582
4494 4583
4495 4583
4496 4584
4496 4585
4497 4586
4497 4587
4498 4588
4498 4589
4499 4589
4500 4590
4500 4591
4501 4592
4501 4593
4502 4594
4502 4595
4503 4595
4504 4596
4504 4597
4505 4598
4505 4599
4506 4600
4506 4601
4507 4601
4508 4602
4508 4603
4509 4604
4509 4605
4510 4511
4510 4606
4510 4671
4510 4672
4511 4607
4511 4671
4511 4672
4512 4513
4512 4608
4512 4673
4512 4674
4513 4609
4513 4673
4513 4674
4514 4515
4514 4609
4514 4675
4514 4676
4515 4610
4515 4675
4515 4676
4516 4517
4516 4610
4516 4677
4516 4678
4517 4611
4517 4677
4517 4678
4518 4519
4518 4612
4518 4679
4518 4680
4519 4613
4519 4679
4519 4680
4520 4521
4520 4613
4520 4681
4520 4682
4521 4614
4521 4681
4521 4682
4522 4523
4522 4614
4522 4683
4522 4684
4523 4615
4523 4683
4523 4684
4524 4525
4524 4616
4524 4685
4524 4686
4525 4617
4525 4685
4525 4686
4526 4527
4526 4617
4526 4687
4526 4688
4527 4618
4527 4687
4527 4688
4528 4529
4528 4618
4528 4689
4528 4690
4529 4619
4529 4689
4529 4690
4530 4531
4530 4620
4530 4691
4530 4692
4531 4621
4531 4691
4531 4692
4532 4533
4532 4621
4532 4693
4532 4694
4533 4622
4533 4693
4533 4694
4534 4535
4534 4622
4534 4695
4534 4696
4535 4623
4535 4695
4535 4696
4536 4537
4536 4624
4536 4697
4536 4698
4537 4625
4537 4697
4537 4698
4538 4539
4538 4625
4538 4699
4538 4700
4539 4626
4539 4699
4539 4700
4540 4541
4540 4626
4540 4701
4540 4702
4541 4627
4541 4701
4541 4702
4542 4543
4542 4628
4542 4703
4542 4704
4543 4629
4543 4703
4543 4704
4544 4545
4544 4629
4544 4705
4544 4706
4545 4630
4545 4705
4545 4706
4546 4547
4546 4630
4546 4707
4546 4708
4547 4631
4547 4707
4547 4708
4548 4549
4548 4632
4548 4709
4548 4710
4549 4633
4549 4709
4549 4710
4550 4551
4550 4633
4550 4711
4550 4712
4551 4634
4551 4711
4551 4712
4552 4553
4552 4634
4552 4713
4552 4714
4553 4635
4553 4713
4553 4714
4554 4555
4554 4636
4554 4715
4554 4716
4555 4637
4555 4715
4555 4716
4556 4557
4556 4637
4556 4717
4556 4718
4557 4638
4557 4717
4557 4718
4558 4559
4558 4638
4558 4719
4558 4720
4559 4639
4559 4719
4559 4720
4560 4561
4560 4640
4560 4721
4560 4722
4561 4641
4561 4721
4561 4722
4562 4563
4562 4641
4562 4723
4562 4724
4563 4642
4563 4723
4563 4724
4564 4565
4564 4642
4564 4725
4564 4726
4565 4643
4565 4725
4565 4726
4566 4567
4566 4644
4566 4727
4566 4728
4567 4645
4567 4727
4567 4728
4568 4569
4568 4645
4568 4729
4568 4730
4569 4646
4569 4729
4569 4730
4570 4571
4570 4646
4570 4731
4570 4732
4571 4647
4571 4731
4571 4732
4572 4573
4572 4648
4572 4733
4572 4734
4573 4649
4573 4733
4573 4734
4574 4575
4574 4649
4574 4735
4574 4736
4575 4650
4575 4735
4575 4736
4576 4577
4576 4650
4576 4737
4576 4738
4577 4651
4577 4737
4577 4738
4578 4579
4578 4652
4578 4739
4578 4740
4579 4653
4579 4739
4579 4740
4580 4581
4580 4653
4580 4741
4580 4742
4581 4654
4581 4741
4581 4742
4582 4583
4582 4654
4582 4743
4582 4744
4583 4655
4583 4743
4583 4744
4584 4585
4584 4656
4584 4745
4584 4746
4585 4657
4585 4745
4585 4746
4586 4587
4586 4657
4586 4747
4586 4748
4587 4658
4587 4747
4587 4748
4588 4589
4588 4658
4588 4749
4588 4750
4589 4659
4589 4749
4589 4750
4590 4591
4590 4660
4590 4751
4590 4752
4591 4661
4591 4751
4591 4752
4592 4593
4592 4661
4592 4753
4592 4754
4593 4662
4593 4753
4593 4754
4594 4595
4594 4662
4594 4755
4594 4756
4595 4663
4595 4755
4595 4756
4596 4597
4596 4664
4596 4757
4596 4758
4597 4665
4597 4757
4597 4758
4598 4599
4598 4665
4598 4759
4598 4760
4599 4666
4599 4759
4599 4760
4600 4601
4600 4666
4600 4761
4600 4762
4601 4667
4601 4761
4601 4762
4602 4603
4602 4668
4602 4763
4602 4764
4603 4669
4603 4763
4603 4764
4604 4605
4604 4669
4604 4765
4604 4766
4605 4670
4605 4765
4605 4766
4606 4671
4607 4608
4607 4672
4608 4673
4609 4674
4609 4675
4610 4676
4610 4677
4611 4612
4611 4678
4612 4679
4613 4680
4613 4681
4614 4682
4614 4683
4615 4616
4615 4684
4616 4685
4617 4686
4617 4687
4618 4688
4618 4689
4619 4620
4619 4690
4620 4691
4621 4692
4621 4693
4622 4694
4622 4695
4623 4624
4623 4696
4624 4697
4625 4698
4625 4699
4626 4700
4626 4701
4627 4628
4627 4702
4628 4703
4629 4704
4629 4705
4630 4706
4630 4707
4631 4632
4631 4708
4632 4709
4633 4710
4633 4711
4634 4712
4634 4713
4635 4636
4635 4714
4636 4715
4637 4716
4637 4717
4638 4718
4638 4719
4639 4640
4639 4720
4640 4721
4641 4722
4641 4723
4642 4724
4642 4725
4643 4644
4643 4726
4644 4727
4645 4728
4645 4729
4646 4730
4646 4731
4647 4648
4647 4732
4648 4733
4649 4734
4649 4735
4650 4736
4650 4737
4651 4652
4651 4738
4652 4739
4653 4740
4653 4741
4654 4742
4654 4743
4655 4656
4655 4744
4656 4745
4657 4746
4657 4747
4658 4748
4658 4749
4659 4660
4659 4750
4660 4751
4661 4752
4661 4753
4662 4754
4662 4755
4663 4664
4663 4756
4664 4757
4665 4758
4665 4759
4666 4760
4666 4761
4667 4668
4667 4762
4668 4763
4669 4764
4669 4765
4670 4766
4671 4672
4671 4767
4672 4767
4673 4674
4673 4768
4674 4768
4675 4676
4675 4769
4676 4769
4677 4678
4677 4770
4678 4770
4679 4680
4679 4771
4680 4771
4681 4682
4681 4772
4682 4772
4683 4684
4683 4773
4684 4773
4685 4686
4685 4774
4686 4774
4687 4688
4687 4775
4688 4775
4689 4690
4689 4776
4690 4776
4691 4692
4691 4777
4692 4777
4693 4694
4693 4778
4694 4778
4695 4696
4695 4779
4696 4779
4697 4698
4697 4780
4698 4780
4699 4700
4699 4781
4700 4781
4701 4702
4701 4782
4702 4782
4703 4704
4703 4783
4704 4783
4705 4706
4705 4784
4706 4784
4707 4708
4707 4785
4708 4785
4709 4710
4709 4786
4710 4786
4711 4712
4711 4787
4712 4787
4713 4714
4713 4788
4714 4788
4715 4716
4715 4789
4716 4789
4717 4718
4717 4790
4718 4790
4719 4720
4719 4791
4720 4791
4721 4722
4721 4792
4722 4792
4723 4724
4723 4793
4724 4793
4725 4726
4725 4794
4726 4794
4727 4728
4727 4795
4728 4795
4729 4730
4729 4796
4730 4796
4731 4732
4731 4797
4732 4797
4733 4734
4733 4798
4734 4798
4735 4736
4735 4799
4736 4799
4737 4738
4737 4800
4738 4800
4739 4740
4739 4801
4740 4801
4741 4742
4741 4802
4742 4802
4743 4744
4743 4803
4744 4803
4745 4746
4745 4804
4746 4804
4747 4748
4747 4805
4748 4805
4749 4750
4749 4806
4750 4806
4751 4752
4751 4807
4752 4807
4753 4754
4753 4808
4754 4808
4755 4756
4755 4809
4756 4809
4757 4758
4757 4810
4758 4810
4759 4760
4759 4811
4760 4811
4761 4762
4761 4812
4762 4812
4763 4764
4763 4813
4764 4813
4765 4766
4767 4814
4767 4815
4768 4879
4768 4880
4769 4881
4770 4818
4770 4819
4771 4882
4771 4883
4772 4884
4773 4822
4773 4823
4774 4885
4774 4886
4775 4887
4776 4826
4776 4827
4777 4888
4777 4889
4778 4890
4779 4830
4779 4831
4780 4891
4780 4892
4781 4893
4782 4834
4782 4835
4783 4894
4783 4895
4784 4896
4785 4838
4785 4839
4786 4897
4786 4898
4787 4899
4788 4842
4788 4843
4789 4900
4789 4901
4790 4902
4791 4846
4791 4847
4792 4903
4792 4904
4793 4905
4794 4850
4794 4851
4795 4906
4795 4907
4796 4908
4797 4854
4797 4855
4798 4909
4798 4910
4799 4911
4800 4858
4800 4859
4801 4912
4801 4913
4802 4914
4803 4862
4803 4863
4804 4915
4804 4916
4805 4917
4806 4866
4806 4867
4807 4918
4807 4919
4808 4920
4809 4870
4809 4871
4810 4921
4810 4922
4811 4923
4812 4874
4812 4875
4813 4924
4813 4925
4814 4815
4814 4878
4814 4926
4814 4927
4815 4816
4815 4926
4815 4927
4816 4879
4816 4927
4816 4928
4817 4880
4817 4929
4817 4930
4818 4819
4818 4881
4818 4931
4818 4932
4819 4820
4819 4931
4819 4932
4820 4882
4820 4932
4820 4933
4821 4883
4821 4934
4821 4935
4822 4823
4822 4884
4822 4936
4822 4937
4823 4824
4823 4936
4823 4937
4824 4885
4824 4937
4824 4938
4825 4886
4825 4939
4825 4940
4826 4827
4826 4887
4826 4941
4826 4942
4827 4828
4827 4941
4827 4942
4828 4888
4828 4942
4828 4943
4829 4889
4829 4944
4829 4945
4830 4831
4830 4890
4830 4946
4830 4947
4831 4832
4831 4946
4831 4947
4832 4891
4832 4947
4832 4948
4833 4892
4833 4949
4833 4950
4834 4835
4834 4893
4834 4951
4834 4952
4835 4836
4835 4951
4835 4952
4836 4894
4836 4952
4836 4953
4837 4895
4837 4954
4837 4955
4838 4839
4838 4896
4838 4956
4838 4957
4839 4840
4839 4956
4839 4957
4840 4897
4840 4957
4840 4958
4841 4898
4841 4959
4841 4960
4842 4843
4842 4899
4842 4961
4842 4962
4843 4844
4843 4961
4843 4962
4844 4900
4844 4962
4844 4963
4845 4901
4845 4964
4845 4965
4846 4847
4846 4902
4846 4966
4846 4967
4847 4848
4847 4966
4847 4967
4848 4903
4848 4967
4848 4968
4849 4904
4849 4969
4849 4970
4850 4851
4850 4905
4850 4971
4850 4972
4851 4852
4851 4971
4851 4972
4852 4906
4852 4972
4852 4973
4853 4907
4853 4974
4853 4975
4854 4855
4854 4908
4854 4976
4854 4977
4855 4856
4855 4976
4855 4977
4856 4909
4856 4977
4856 4978
4857 4910
4857 4979
4857 4980
4858 4859
4858 4911
4858 4981
4858 4982
4859 4860
4859 4981
4859 4982
4860 4912
4860 4982
4860 4983
4861 4913
4861 4984
4861 4985
4862 4863
4862 4914
4862 4986
4862 4987
4863 4864
4863 4986
4863 4987
4864 4915
4864 4987
4864 4988
4865 4916
4865 4989
4865 4990
4866 4867
4866 4917
4866 4991
4866 4992
4867 4868
4867 4991
4867 4992
4868 4918
4868 4992
4868 4993
4869 4919
4869 4994
4869 4995
4870 4871
4870 4920
4870 4996
4870 4997
4871 4872
4871 4996
4871 4997
4872 4921
4872 4997
4872 4998
4873 4922
4873 4999
4873 5000
4874 4875
4874 4923
4874 5001
4874 5002
4875 4876
4875 5001
4875 5002
4876 4924
4876 5002
4876 5003
4877 4925
4877 5004
4877 5005
4878 4926
4879 4880
4879 4928
4879 5006
4879 5007
4880 4929
4880 5006
4880 5007
4881 4931
4882 4883
4882 4933
4882 5008
4882 5009
4883 4934
4883 5008
4883 5009
4884 4936
4885 4886
4885 4938
4885 5010
4885 5011
4886 4939
4886 5010
4886 5011
4887 4941
4888 4889
4888 4943
4888 5012
4888 5013
4889 4944
4889 5012
4889 5013
4890 4946
4891 4892
4891 4948
4891 5014
4891 5015
4892 4949
4892 5014
4892 5015
4893 4951
4894 4895
4894 4953
4894 5016
4894 5017
4895 4954
4895 5016
4895 5017
4896 4956
4897 4898
4897 4958
4897 5018
4897 5019
4898 4959
4898 5018
4898 5019
4899 4961
4900 4901
4900 4963
4900 5020
4900 5021
4901 4964
4901 5020
4901 5021
4902 4966
4903 4904
4903 4968
4903 5022
4903 5023
4904 4969
4904 5022
4904 5023
4905 4971
4906 4907
4906 4973
4906 5024
4906 5025
4907 4974
4907 5024
4907 5025
4908 4976
4909 4910
4909 4978
4909 5026
4909 5027
4910 4979
4910 5026
4910 5027
4911 4981
4912 4913
4912 4983
4912 5028
4912 5029
4913 4984
4913 5028
4913 5029
4914 4986
4915 4916
4915 4988
4915 5030
4915 5031
4916 4989
4916 5030
4916 5031
4917 4991
4918 4919
4918 4993
4918 5032
4918 5033
4919 4994
4919 5032
4919 5033
4920 4996
4921 4922
4921 4998
4921 5034
4921 5035
4922 4999
4922 5034
4922 5035
4923 5001
4924 4925
4924 5003
4924 5036
4924 5037
4925 5004
4925 5036
4925 5037
4926 4927
4926 5038
4927 5038
4928 5006
4928 5039
4929 5007
4929 5040
4930 5041
4931 4932
4931 5042
4932 5042
4933 5008
4933 5043
4934 5009
4934 5044
4935 5045
4936 4937
4936 5046
4937 5046
4938 5010
4938 5047
4939 5011
4939 5048
4940 5049
4941 4942
4941 5050
4942 5050
4943 5012
4943 5051
4944 5013
4944 5052
4945 5053
4946 4947
4946 5054
4947 5054
4948 5014
4948 5055
4949 5015
4949 5056
4950 5057
4951 4952
4951 5058
4952 5058
4953 5016
4953 5059
4954 5017
4954 5060
4955 5061
4956 4957
4956 5062
4957 5062
4958 5018
4958 5063
4959 5019
4959 5064
4960 5065
4961 4962
4961 5066
4962 5066
4963 5020
4963 5067
4964 5021
4964 5068
4965 5069
4966 4967
4966 5070
4967 5070
4968 5022
4968 5071
4969 5023
4969 5072
4970 5073
4971 4972
4971 5074
4972 5074
4973 5024
4973 5075
4974 5025
4974 5076
4975 5077
4976 4977
4976 5078
4977 5078
4978 5026
4978 5079
4979 5027
4979 5080
4980 5081
4981 4982
4981 5082
4982 5082
4983 5028
4983 5083
4984 5029
4984 5084
4985 5085
4986 4987
4986 5086
4987 5086
4988 5030
4988 5087
4989 5031
4989 5088
4990 5089
4991 4992
4991 5090
4992 5090
4993 5032
4993 5091
4994 5033
4994 5092
4995 5093
4996 4997
4996 5094
4997 5094
4998 5034
4998 5095
4999 5035
4999 5096
5000 5097
5001 5002
5001 5098
5002 5098
5003 5036
5003 5099
5004 5037
5004 5100
5005 5101
5006 5007
5006 5039
5007 5040
5008 5009
5008 5043
5009 5044
5010 5011
5010 5047
5011 5048
5012 5013
5012 5051
5013 5052
5014 5015
5014 5055
5015 5056
5016 5017
5016 5059
5017 5060
5018 5019
5018 5063
5019 5064
5020 5021
5020 5067
5021 5068
5022 5023
5022 5071
5023 5072
5024 5025
5024 5075
5025 5076
5026 5027
5026 5079
5027 5080
5028 5029
5028 5083
5029 5084
5030 5031
5030 5087
5031 5088
5032 5033
5032 5091
5033 5092
5034 5035
5034 5095
5035 5096
5036 5037
5036 5099
5037 5100
5038 5102
5038 5103
5039 5103
5040 5104
5040 5105
5041 5106
5041 5107
5042 5108
5042 5109
5043 5109
5044 5110
5044 5111
5045 5112
5045 5113
5046 5114
5046 5115
5047 5115
5048 5116
5048 5117
5049 5118
5049 5119
5050 5120
5050 5121
5051 5121
5052 5122
5052 5123
5053 5124
5053 5125
5054 5126
5054 5127
5055 5127
5056 5128
5056 5129
5057 5130
5057 5131
5058 5132
5058 5133
5059 5133
5060 5134
5060 5135
5061 5136
5061 5137
5062 5138
5062 5139
5063 5139
5064 5140
5064 5141
5065 5142
5065 5143
5066 5144
5066 5145
5067 5145
5068 5146
5068 5147
5069 5148
5069 5149
5070 5150
5070 5151
5071 5151
5072 5152
5072 5153
5073 5154
5073 5155
5074 5156
5074 5157
5075 5157
5076 5158
5076 5159
5077 5160
5077 5161
5078 5162
5078 5163
5079 5163
5080 5164
5080 5165
5081 5166
5081 5167
5082 5168
5082 5169
5083 5169
5084 5170
5084 5171
5085 5172
5085 5173
5086 5174
5086 5175
5087 5175
5088 5176
5088 5177
5089 5178
5089 5179
5090 5180
5090 5181
5091 5181
5092 5182
5092 5183
5093 5184
5093 5185
5094 5186
5094 5187
5095 5187
5096 5188
5096 5189
5097 5190
5097 5191
5098 5192
5098 5193
5099 5193
5100 5194
5100 5195
5101 5196
5101 5197
5102 5103
5102 5198
5102 5263
5102 5264
5103 5199
5103 5263
5103 5264
5104 5105
5104 5200
5104 5265
5104 5266
5105 5201
5105 5265
5105 5266
5106 5107
5106 5201
5106 5267
5106 5268
5107 5202
5107 5267
5107 5268
5108 5109
5108 5202
5108 5269
5108 5270
5109 5203
5109 5269
5109 5270
5110 5111
5110 5204
5110 5271
5110 5272
5111 5205
5111 5271
5111 5272
5112 5113
5112 5205
5112 5273
5112 5274
5113 5206
5113 5273
5113 5274
5114 5115
5114 5206
5114 5275
5114 5276
5115 5207
5115 5275
5115 5276
5116 5117
5116 5208
5116 5277
5116 5278
5117 5209
5117 5277
5117 5278
5118 5119
5118 5209
5118 5279
5118 5280
5119 5210
5119 5279
5119 5280
5120 5121
5120 5210
5120 5281
5120 5282
5121 5211
5121 5281
5121 5282
5122 5123
5122 5212
5122 5283
5122 5284
5123 5213
5123 5283
5123 5284
5124 5125
5124 5213
5124 5285
5124 5286
5125 5214
5125 5285
5125 5286
5126 5127
5126 5214
5126 5287
5126 5288
5127 5215
5127 5287
5127 5288
5128 5129
5128 5216
5128 5289
5128 5290
5129 5217
5129 5289
5129 5290
5130 5131
5130 5217
5130 5291
5130 5292
5131 5218
5131 5291
5131 5292
5132 5133
5132 5218
5132 5293
5132 5294
5133 5219
5133 5293
5133 5294
5134 5135
5134 5220
5134 5295
5134 5296
5135 5221
5135 5295
5135 5296
5136 5137
5136 5221
5136 5297
5136 5298
5137 5222
5137 5297
5137 5298
5138 5139
5138 5222
5138 5299
5138 5300
5139 5223
5139 5299
5139 5300
5140 5141
5140 5224
5140 5301
5140 5302
5141 5225
5141 5301
5141 5302
5142 5143
5142 5225
5142 5303
5142 5304
5143 5226
5143 5303
5143 5304
5144 5145
5144 5226
5144 5305
5144 5306
5145 5227
5145 5305
5145 5306
5146 5147
5146 5228
5146 5307
5146 5308
5147 5229
5147 5307
5147 5308
5148 5149
5148 5229
5148 5309
5148 5310
5149 5230
5149 5309
5149 5310
5150 5151
5150 5230
5150 5311
5150 5312
5151 5231
5151 5311
5151 5312
5152 5153
5152 5232
5152 5313
5152 5314
5153 5233
5153 5313
5153 5314
5154 5155
5154 5233
5154 5315
5154 5316
5155 5234
5155 5315
5155 5316
5156 5157
5156 5234
5156 5317
5156 5318
5157 5235
5157 5317
5157 5318
5158 5159
5158 5236
5158 5319
5158 5320
5159 5237
5159 5319
5159 5320
5160 5161
5160 5237
5160 5321
5160 5322
5161 5238
5161 5321
5161 5322
5162 5163
5162 5238
5162 5323
5162 5324
5163 5239
5163 5323
5163 5324
5164 5165
5164 5240
5164 5325
5164 5326
5165 5241
5165 5325
5165 5326
5166 5167
5166 5241
5166 5327
5166 5328
5167 5242
5167 5327
5167 5328
5168 5169
5168 5242
5168 5329
5168 5330
5169 5243
5169 5329
5169 5330
5170 5171
5170 5244
5170 5331
5170 5332
5171 5245
5171 5331
5171 5332
5172 5173
5172 5245
5172 5333
5172 5334
5173 5246
5173 5333
5173 5334
5174 5175
5174 5246
5174 5335
5174 5336
5175 5247
5175 5335
5175 5336
5176 5177
5176 5248
5176 5337
5176 5338
5177 5249
5177 5337
5177 5338
5178 5179
5178 5249
5178 5339
5178 5340
5179 5250
5179 5339
5179 5340
5180 5181
5180 5250
5180 5341
5180 5342
5181 5251
5181 5341
5181 5342
5182 5183
5182 5252
5182 5343
5182 5344
5183 5253
5183 5343
5183 5344
5184 5185
5184 5253
5184 5345
5184 5346
5185 5254
5185 5345
5185 5346
5186 5187
5186 5254
5186 5347
5186 5348
5187 5255
5187 5347
5187 5348
5188 5189
5188 5256
5188 5349
5188 5350
5189 5257
5189 5349
5189 5350
5190 5191
5190 5257
5190 5351
5190 5352
5191 5258
5191 5351
5191 5352
5192 5193
5192 5258
5192 5353
5192 5354
5193 5259
5193 5353
5193 5354
5194 5195
5194 5260
5194 5355
5194 5356
5195 5261
5195 5355
5195 5356
5196 5197
5196 5261
5196 5357
5196 5358
5197 5262
5197 5357
5197 5358
5198 5263
5199 5200
5199 5264
5200 5265
5201 5266
5201 5267
5202 5268
5202 5269
5203 5204
5203 5270
5204 5271
5205 5272
5205 5273
5206 5274
5206 5275
5207 5208
5207 5276
5208 5277
5209 5278
5209 5279
5210 5280
5210 5281
5211 5212
5211 5282
5212 5283
5213 5284
5213 5285
5214 5286
5214 5287
5215 5216
5215 5288
5216 5289
5217 5290
5217 5291
5218 5292
5218 5293
5219 5220
5219 5294
5220 5295
5221 5296
5221 5297
5222 5298
5222 5299
5223 5224
5223 5300
5224 5301
5225 5302
5225 5303
5226 5304
5226 5305
5227 5228
5227 5306
5228 5307
5229 5308
5229 5309
5230 5310
5230 5311
5231 5232
5231 5312
5232 5313
5233 5314
5233 5315
5234 5316
5234 5317
5235 5236
5235 5318
5236 5319
5237 5320
5237 5321
5238 5322
5238 5323
5239 5240
5239 5324
5240 5325
5241 5326
5241 5327
5242 5328
5242 5329
5243 5244
5243 5330
5244 5331
5245 5332
5245 5333
5246 5334
5246 5335
5247 5248
5247 5336
5248 5337
5249 5338
5249 5339
5250 5340
5250 5341
5251 5252
5251 5342
5252 5343
5253 5344
5253 5345
5254 5346
5254 5347
5255 5256
5255 5348
5256 5349
5257 5350
5257 5351
5258 5352
5258 5353
5259 5260
5259 5354
5260 5355
5261 5356
5261 5357
5262 5358
5263 5264
5263 5359
5264 5359
5265 5266
5265 5360
5266 5360
5267 5268
5267 5361
5268 5361
5269 5270
5269 5362
5270 5362
5271 5272
5271 5363
5272 5363
5273 5274
5273 5364
5274 5364
5275 5276
5275 5365
5276 5365
5277 5278
5277 5366
5278 5366
5279 5280
5279 5367
5280 5367
5281 5282
5281 5368
5282 5368
5283 5284
5283 5369
5284 5369
5285 5286
5285 5370
5286 5370
5287 5288
5287 5371
5288 5371
5289 5290
5289 5372
5290 5372
5291 5292
5291 5373
5292 5373
5293 5294
5293 5374
5294 5374
5295 5296
5295 5375
5296 5375
5297 5298
5297 5376
5298 5376
5299 5300
5299 5377
5300 5377
5301 5302
5301 5378
5302 5378
5303 5304
5303 5379
5304 5379
5305 5306
5305 5380
5306 5380
5307 5308
5307 5381
5308 5381
5309 5310
5309 5382
5310 5382
5311 5312
5311 5383
5312 5383
5313 5314
5313 5384
5314 5384
5315 5316
5315 5385
5316 5385
5317 5318
5317 5386
5318 5386
5319 5320
5319 5387
5320 5387
5321 5322
5321 5388
5322 5388
5323 5324
5323 5389
5324 5389
5325 5326
5325 5390
5326 5390
5327 5328
5327 5391
5328 5391
5329 5330
5329 5392
5330 5392
5331 5332
5331 5393
5332 5393
5333 5334
5333 5394
5334 5394
5335 5336
5335 5395
5336 5395
5337 5338
5337 5396
5338 5396
5339 5340
5339 5397
5340 5397
5341 5342
5341 5398
5342 5398
5343 5344
5343 5399
5344 5399
5345 5346
5345 5400
5346 5400
5347 5348
5347 5401
5348 5401
5349 5350
5349 5402
5350 5402
5351 5352
5351 5403
5352 5403
5353 5354
5353 5404
5354 5404
5355 5356
5355 5405
5356 5405
5357 5358
5359 5406
5359 5407
5360 5471
5360 5472
5361 5473
5362 5410
5362 5411
5363 5474
5363 5475
5364 5476
5365 5414
5365 5415
5366 5477
5366 5478
5367 5479
5368 5418
5368 5419
5369 5480
5369 5481
5370 5482
5371 5422
5371 5423
5372 5483
5372 5484
5373 5485
5374 5426
5374 5427
5375 5486
5375 5487
5376 5488
5377 5430
5377 5431
5378 5489
5378 5490
5379 5491
5380 5434
5380 5435
5381 5492
5381 5493
5382 5494
5383 5438
5383 5439
5384 5495
5384 5496
5385 5497
5386 5442
5386 5443
5387 5498
5387 5499
5388 5500
5389 5446
5389 5447
5390 5501
5390 5502
5391 5503
5392 5450
5392 5451
5393 5504
5393 5505
5394 5506
5395 5454
5395 5455
5396 5507
5396 5508
5397 5509
5398 5458
5398 5459
5399 5510
5399 5511
5400 5512
5401 5462
5401 5463
5402 5513
5402 5514
5403 5515
5404 5466
5404 5467
5405 5516
5405 5517
5406 5407
5406 5470
5406 5518
5406 5519
5407 5408
5407 5518
5407 5519
5408 5471
5408 5519
5408 5520
5409 5472
5409 5521
5409 5522
5410 5411
5410 5473
5410 5523
5410 5524
5411 5412
5411 5523
5411 5524
5412 5474
5412 5524
5412 5525
5413 5475
5413 5526
5413 5527
5414 5415
5414 5476
5414 5528
5414 5529
5415 5416
5415 5528
5415 5529
5416 5477
5416 5529
5416 5530
5417 5478
5417 5531
5417 5532
5418 5419
5418 5479
5418 5533
5418 5534
5419 5420
5419 5533
5419 5534
5420 5480
5420 5534
5420 5535
5421 5481
5421 5536
5421 5537
5422 5423
5422 5482
5422 5538
5422 5539
5423 5424
5423 5538
5423 5539
5424 5483
5424 5539
5424 5540
5425 5484
5425 5541
5425 5542
5426 5427
5426 5485
5426 5543
5426 5544
5427 5428
5427 5543
5427 5544
5428 5486
5428 5544
5428 5545
5429 5487
5429 5546
5429 5547
5430 5431
5430 5488
5430 5548
5430 5549
5431 5432
5431 5548
5431 5549
5432 5489
5432 5549
5432 5550
5433 5490
5433 5551
5433 5552
5434 5435
5434 5491
5434 5553
5434 5554
5435 5436
5435 5553
5435 5554
5436 5492
5436 5554
5436 5555
5437 5493
5437 5556
5437 5557
5438 5439
5438 5494
5438 5558
5438 5559
5439 5440
5439 5558
5439 5559
5440 5495
5440 5559
5440 5560
5441 5496
5441 5561
5441 5562
5442 5443
5442 5497
5442 5563
5442 5564
5443 5444
5443 5563
5443 5564
5444 5498
5444 5564
5444 5565
5445 5499
5445 5566
5445 5567
5446 5447
5446 5500
5446 5568
5446 5569
5447 5448
5447 5568
5447 5569
5448 5501
5448 5569
5448 5570
5449 5502
5449 5571
5449 5572
5450 5451
5450 5503
5450 5573
5450 5574
5451 5452
5451 5573
5451 5574
5452 5504
5452 5574
5452 5575
5453 5505
5453 5576
5453 5577
5454 5455
5454 5506
5454 5578
5454 5579
5455 5456
5455 5578
5455 5579
5456 5507
5456 5579
5456 5580
5457 5508
5457 5581
5457 5582
5458 5459
5458 5509
5458 5583
5458 5584
5459 5460
5459 5583
5459 5584
5460 5510
5460 5584
5460 5585
5461 5511
5461 5586
5461 5587
5462 5463
5462 5512
5462 5588
5462 5589
5463 5464
5463 5588
5463 5589
5464 5513
5464 5589
5464 5590
5465 5514
5465 5591
5465 5592
5466 5467
5466 5515
5466 5593
5466 5594
5467 5468
5467 5593
5467 5594
5468 5516
5468 5594
5468 5595
5469 5517
5469 5596
5469 5597
5470 5518
5471 5472
5471 5520
5471 5598
5471 5599
5472 5521
5472 5598
5472 5599
5473 5523
5474 5475
5474 5525
5474 5600
5474 5601
5475 5526
5475 5600
5475 5601
5476 5528
5477 5478
5477 5530
5477 5602
5477 5603
5478 5531
5478 5602
5478 5603
5479 5533
5480 5481
5480 5535
5480 5604
5480 5605
5481 5536
5481 5604
5481 5605
5482 5538
5483 5484
5483 5540
5483 5606
5483 5607
5484 5541
5484 5606
5484 5607
5485 5543
5486 5487
5486 5545
5486 5608
5486 5609
5487 5546
5487 5608
5487 5609
5488 5548
5489 5490
5489 5550
5489 5610
5489 5611
5490 5551
5490 5610
5490 5611
5491 5553
5492 5493
5492 5555
5492 5612
5492 5613
5493 5556
5493 5612
5493 5613
5494 5558
5495 5496
5495 5560
5495 5614
5495 5615
5496 5561
5496 5614
5496 5615
5497 5563
5498 5499
5498 5565
5498 5616
5498 5617
5499 5566
5499 5616
5499 5617
5500 5568
5501 5502
5501 5570
5501 5618
5501 5619
5502 5571
5502 5618
5502 5619
5503 5573
5504 5505
5504 5575
5504 5620
5504 5621
5505 5576
5505 5620
5505 5621
5506 5578
5507 5508
5507 5580
5507 5622
5507 5623
5508 5581
5508 5622
5508 5623
5509 5583
5510 5511
5510 5585
5510 5624
5510 5625
5511 5586
5511 5624
5511 5625
5512 5588
5513 5514
5513 5590
5513 5626
5513 5627
5514 5591
5514 5626
5514 5627
5515 5593
5516 5517
5516 5595
5516 5628
5516 5629
5517 5596
5517 5628
5517 5629
5518 5519
5518 5630
5519 5630
5520 5598
5520 5631
5521 5599
5521 5632
5522 5633
5523 5524
5523 5634
5524 5634
5525 5600
5525 5635
5526 5601
5526 5636
5527 5637
5528 5529
5528 5638
5529 5638
5530 5602
5530 5639
5531 5603
5531 5640
5532 5641
5533 5534
5533 5642
5534 5642
5535 5604
5535 5643
5536 5605
5536 5644
5537 5645
5538 5539
5538 5646
5539 5646
5540 5606
5540 5647
5541 5607
5541 5648
5542 5649
5543 5544
5543 5650
5544 5650
5545 5608
5545 5651
5546 5609
5546 5652
5547 5653
5548 5549
5548 5654
5549 5654
5550 5610
5550 5655
5551 5611
5551 5656
5552 5657
5553 5554
5553 5658
5554 5658
5555 5612
5555 5659
5556 5613
5556 5660
5557 5661
5558 5559
5558 5662
5559 5662
5560 5614
5560 5663
5561 5615
5561 5664
5562 5665
5563 5564
5563 5666
5564 5666
5565 5616
5565 5667
5566 5617
5566 5668
5567 5669
5568 5569
5568 5670
5569 5670
5570 5618
5570 5671
5571 5619
5571 5672
5572 5673
5573 5574
5573 5674
5574 5674
5575 5620
5575 5675
5576 5621
5576 5676
5577 5677
5578 5579
5578 5678
5579 5678
5580 5622
5580 5679
5581 5623
5581 5680
5582 5681
5583 5584
5583 5682
5584 5682
5585 5624
5585 5683
5586 5625
5586 5684
5587 5685
5588 5589
5588 5686
5589 5686
5590 5626
5590 5687
5591 5627
5591 5688
5592 5689
5593 5594
5593 5690
5594 5690
5595 5628
5595 5691
5596 5629
5596 5692
5597 5693
5598 5599
5598 5631
5599 5632
5600 5601
5600 5635
5601 5636
5602 5603
5602 5639
5603 5640
5604 5605
5604 5643
5605 5644
5606 5607
5606 5647
5607 5648
5608 5609
5608 5651
5609 5652
5610 5611
5610 5655
5611 5656
5612 5613
5612 5659
5613 5660
5614 5615
5614 5663
5615 5664
5616 5617
5616 5667
5617 5668
5618 5619
5618 5671
5619 5672
5620 5621
5620 5675
5621 5676
5622 5623
5622 5679
5623 5680
5624 5625
5624 5683
5625 5684
5626 5627
5626 5687
5627 5688
5628 5629
5628 5691
5629 5692
5630 5694
5630 5695
5631 5695
5632 5696
5632 5697
5633 5698
5633 5699
5634 5700
5634 5701
5635 5701
5636 5702
5636 5703
5637 5704
5637 5705
5638 5706
5638 5707
5639 5707
5640 5708
5640 5709
5641 5710
5641 5711
5642 5712
5642 5713
5643 5713
5644 5714
5644 5715
5645 5716
5645 5717
5646 5718
5646 5719
5647 5719
5648 5720
5648 5721
5649 5722
5649 5723
5650 5724
5650 5725
5651 5725
5652 5726
5652 5727
5653 5728
5653 5729
5654 5730
5654 5731
5655 5731
5656 5732
5656 5733
5657 5734
5657 5735
5658 5736
5658 5737
5659 5737
5660 5738
5660 5739
5661 5740
5661 5741
5662 5742
5662 5743
5663 5743
5664 5744
5664 5745
5665 5746
5665 5747
5666 5748
5666 5749
5667 5749
5668 5750
5668 5751
5669 5752
5669 5753
5670 5754
5670 5755
5671 5755
5672 5756
5672 5757
5673 5758
5673 5759
5674 5760
5674 5761
5675 5761
5676 5762
5676 5763
5677 5764
5677 5765
5678 5766
5678 5767
5679 5767
5680 5768
5680 5769
5681 5770
5681 5771
5682 5772
5682 5773
5683 5773
5684 5774
5684 5775
5685 5776
5685 5777
5686 5778
5686 5779
5687 5779
5688 5780
5688 5781
5689 5782
5689 5783
5690 5784
5690 5785
5691 5785
5692 5786
5692 5787
5693 5788
5693 5789
5694 5695
5694 5790
5694 5855
5694 5856
5695 5791
5695 5855
5695 5856
5696 5697
5696 5792
5696 5857
5696 5858
5697 5793
5697 5857
5697 5858
5698 5699
5698 5793
5698 5859
5698 5860
5699 5794
5699 5859
5699 5860
5700 5701
5700 5794
5700 5861
5700 5862
5701 5795
5701 5861
5701 5862
5702 5703
5702 5796
5702 5863
5702 5864
5703 5797
5703 5863
5703 5864
5704 5705
5704 5797
5704 5865
5704 5866
5705 5798
5705 5865
5705 5866
5706 5707
5706 5798
5706 5867
5706 5868
5707 5799
5707 5867
5707 5868
5708 5709
5708 5800
5708 5869
5708 5870
5709 5801
5709 5869
5709 5870
5710 5711
5710 5801
5710 5871
5710 5872
5711 5802
5711 5871
5711 5872
5712 5713
5712 5802
5712 5873
5712 5874
5713 5803
5713 5873
5713 5874
5714 5715
5714 5804
5714 5875
5714 5876
5715 5805
5715 5875
5715 5876
5716 5717
5716 5805
5716 5877
5716 5878
5717 5806
5717 5877
5717 5878
5718 5719
5718 5806
5718 5879
5718 5880
5719 5807
5719 5879
5719 5880
5720 5721
5720 5808
5720 5881
5720 5882
5721 5809
5721 5881
5721 5882
5722 5723
5722 5809
5722 5883
5722 5884
5723 5810
5723 5883
5723 5884
5724 5725
5724 5810
5724 5885
5724 5886
5725 5811
5725 5885
5725 5886
5726 5727
5726 5812
5726 5887
5726 5888
5727 5813
5727 5887
5727 5888
5728 5729
5728 5813
5728 5889
5728 5890
5729 5814
5729 5889
5729 5890
5730 5731
5730 5814
5730 5891
5730 5892
5731 5815
5731 5891
5731 5892
5732 5733
5732 5816
5732 5893
5732 5894
5733 5817
5733 5893
5733 5894
5734 5735
5734 5817
5734 5895
5734 5896
5735 5818
5735 5895
5735 5896
5736 5737
5736 5818
5736 5897
5736 5898
5737 5819
5737 5897
5737 5898
5738 5739
5738 5820
5738 5899
5738 5900
5739 5821
5739 5899
5739 5900
5740 5741
5740 5821
5740 5901
5740 5902
5741 5822
5741 5901
5741 5902
5742 5743
5742 5822
5742 5903
5742 5904
5743 5823
5743 5903
5743 5904
5744 5745
5744 5824
5744 5905
5744 5906
5745 5825
5745 5905
5745 5906
5746 5747
5746 5825
5746 5907
5746 5908
5747 5826
5747 5907
5747 5908
5748 5749
5748 5826
5748 5909
5748 5910
5749 5827
5749 5909
5749 5910
5750 5751
5750 5828
5750 5911
5750 5912
5751 5829
5751 5911
5751 5912
5752 5753
5752 5829
5752 5913
5752 5914
5753 5830
5753 5913
5753 5914
5754 5755
5754 5830
5754 5915
5754 5916
5755 5831
5755 5915
5755 5916
5756 5757
5756 5832
5756 5917
5756 5918
5757 5833
5757 5917
5757 5918
5758 5759
5758 5833
5758 5919
5758 5920
5759 5834
5759 5919
5759 5920
5760 5761
5760 5834
5760 5921
5760 5922
5761 5835
5761 5921
5761 5922
5762 5763
5762 5836
5762 5923
5762 5924
5763 5837
5763 5923
5763 5924
5764 5765
5764 5837
5764 5925
5764 5926
5765 5838
5765 5925
5765 5926
5766 5767
5766 5838
5766 5927
5766 5928
5767 5839
5767 5927
5767 5928
5768 5769
5768 5840
5768 5929
5768 5930
5769 5841
5769 5929
5769 5930
5770 5771
5770 5841
5770 5931
5770 5932
5771 5842
5771 5931
5771 5932
5772 5773
5772 5842
5772 5933
5772 5934
5773 5843
5773 5933
5773 5934
5774 5775
5774 5844
5774 5935
5774 5936
5775 5845
5775 5935
5775 5936
5776 5777
5776 5845
5776 5937
5776 5938
5777 5846
5777 5937
5777 5938
5778 5779
5778 5846
5778 5939
5778 5940
5779 5847
5779 5939
5779 5940
5780 5781
5780 5848
5780 5941
5780 5942
5781 5849
5781 5941
5781 5942
5782 5783
5782 5849
5782 5943
5782 5944
5783 5850
5783 5943
5783 5944
5784 5785
5784 5850
5784 5945
5784 5946
5785 5851
5785 5945
5785 5946
5786 5787
5786 5852
5786 5947
5786 5948
5787 5853
5787 5947
5787 5948
5788 5789
5788 5853
5788 5949
5788 5950
5789 5854
5789 5949
5789 5950
5790 5855
5791 5792
5791 5856
5792 5857
5793 5858
5793 5859
5794 5860
5794 5861
5795 5796
5795 5862
5796 5863
5797 5864
5797 5865
5798 5866
5798 5867
5799 5800
5799 5868
5800 5869
5801 5870
5801 5871
5802 5872
5802 5873
5803 5804
5803 5874
5804 5875
5805 5876
5805 5877
5806 5878
5806 5879
5807 5808
5807 5880
5808 5881
5809 5882
5809 5883
5810 5884
5810 5885
5811 5812
5811 5886
5812 5887
5813 5888
5813 5889
5814 5890
5814 5891
5815 5816
5815 5892
5816 5893
5817 5894
5817 5895
5818 5896
5818 5897
5819 5820
5819 5898
5820 5899
5821 5900
5821 5901
5822 5902
5822 5903
5823 5824
5823 5904
5824 5905
5825 5906
5825 5907
5826 5908
5826 5909
5827 5828
5827 5910
5828 5911
5829 5912
5829 5913
5830 5914
5830 5915
5831 5832
5831 5916
5832 5917
5833 5918
5833 5919
5834 5920
5834 5921
5835 5836
5835 5922
5836 5923
5837 5924
5837 5925
5838 5926
5838 5927
5839 5840
5839 5928
5840 5929
5841 5930
5841 5931
5842 5932
5842 5933
5843 5844
5843 5934
5844 5935
5845 5936
5845 5937
5846 5938
5846 5939
5847 5848
5847 5940
5848 5941
5849 5942
5849 5943
5850 5944
5850 5945
5851 5852
5851 5946
5852 5947
5853 5948
5853 5949
5854 5950
5855 5856
5855 5951
5856 5951
5857 5858
5857 5952
5858 5952
5859 5860
5859 5953
5860 5953
5861 5862
5861 5954
5862 5954
5863 5864
5863 5955
5864 5955
5865 5866
5865 5956
5866 5956
5867 5868
5867 5957
5868 5957
5869 5870
5869 5958
5870 5958
5871 5872
5871 5959
5872 5959
5873 5874
5873 5960
5874 5960
5875 5876
5875 5961
5876 5961
5877 5878
5877 5962
5878 5962
5879 5880
5879 5963
5880 5963
5881 5882
5881 5964
5882 5964
5883 5884
5883 5965
5884 5965
5885 5886
5885 5966
5886 5966
5887 5888
5887 5967
5888 5967
5889 5890
5889 5968
5890 5968
5891 5892
5891 5969
5892 5969
5893 5894
5893 5970
5894 5970
5895 5896
5895 5971
5896 5971
5897 5898
5897 5972
5898 5972
5899 5900
5899 5973
5900 5973
5901 5902
5901 5974
5902 5974
5903 5904
5903 5975
5904 5975
5905 5906
5905 5976
5906 5976
5907 5908
5907 5977
5908 5977
5909 5910
5909 5978
5910 5978
5911 5912
5911 5979
5912 5979
5913 5914
5913 5980
5914 5980
5915 5916
5915 5981
5916 5981
5917 5918
5917 5982
5918 5982
5919 5920
5919 5983
5920 5983
5921 5922
5921 5984
5922 5984
5923 5924
5923 5985
5924 5985
5925 5926
5925 5986
5926 5986
5927 5928
5927 5987
5928 5987
5929 5930
5929 5988
5930 5988
5931 5932
5931 5989
5932 5989
5933 5934
5933 5990
5934 5990
5935 5936
5935 5991
5936 5991
5937 5938
5937 5992
5938 5992
5939 5940
5939 5993
5940 5993
5941 5942
5941 5994
5942 5994
5943 5944
5943 5995
5944 5995
5945 5946
5945 5996
5946 5996
5947 5948
5947 5997
5948 5997
5949 5950
5951 5998
5951 5999
5952 6063
5952 6064
5953 6065
5954 6002
5954 6003
5955 6066
5955 6067
5956 6068
5957 6006
5957 6007
5958 6069
5958 6070
5959 6071
5960 6010
5960 6011
5961 6072
5961 6073
5962 6074
5963 6014
5963 6015
5964 6075
5964 6076
5965 6077
5966 6018
5966 6019
5967 6078
5967 6079
5968 6080
5969 6022
5969 6023
5970 6081
5970 6082
5971 6083
5972 6026
5972 6027
5973 6084
5973 6085
5974 6086
5975 6030
5975 6031
5976 6087
5976 6088
5977 6089
5978 6034
5978 6035
5979 6090
5979 6091
5980 6092
5981 6038
5981 6039
5982 6093
5982 6094
5983 6095
5984 6042
5984 6043
5985 6096
5985 6097
5986 6098
5987 6046
5987 6047
5988 6099
5988 6100
5989 6101
5990 6050
5990 6051
5991 6102
5991 6103
5992 6104
5993 6054
5993 6055
5994 6105
5994 6106
5995 6107
5996 6058
5996 6059
5997 6108
5997 6109
5998 5999
5998 6062
5998 6110
5998 6111
5999 6000
5999 6110
5999 6111
6000 6063
6000 6111
6000 6112
6001 6064
6001 6113
6001 6114
6002 6003
6002 6065
6002 6115
6002 6116
6003 6004
6003 6115
6003 6116
6004 6066
6004 6116
6004 6117
6005 6067
6005 6118
6005 6119
6006 6007
6006 6068
6006 6120
6006 6121
6007 6008
6007 6120
6007 6121
6008 6069
6008 6121
6008 6122
6009 6070
6009 6123
6009 6124
6010 6011
6010 6071
6010 6125
6010 6126
6011 6012
6011 6125
6011 6126
6012 6072
6012 6126
6012 6127
6013 6073
6013 6128
6013 6129
6014 6015
6014 6074
6014 6130
6014 6131
6015 6016
6015 6130
6015 6131
6016 6075
6016 6131
6016 6132
6017 6076
6017 6133
6017 6134
6018 6019
6018 6077
6018 6135
6018 6136
6019 6020
6019 6135
6019 6136
6020 6078
6020 6136
6020 6137
6021 6079
6021 6138
6021 6139
6022 6023
6022 6080
6022 6140
6022 6141
6023 6024
6023 6140
6023 6141
6024 6081
6024 6141
6024 6142
6025 6082
6025 6143
6025 6144
6026 6027
6026 6083
6026 6145
6026 6146
6027 6028
6027 6145
6027 6146
6028 6084
6028 6146
6028 6147
6029 6085
6029 6148
6029 6149
6030 6031
6030 6086
6030 6150
6030 6151
6031 6032
6031 6150
6031 6151
6032 6087
6032 6151
6032 6152
6033 6088
6033 6153
6033 6154
6034 6035
6034 6089
6034 6155
6034 6156
6035 6036
6035 6155
6035 6156
6036 6090
6036 6156
6036 6157
6037 6091
6037 6158
6037 6159
6038 6039
6038 6092
6038 6160
6038 6161
6039 6040
6039 6160
6039 6161
6040 6093
6040 6161
6040 6162
6041 6094
6041 6163
6041 6164
6042 6043
6042 6095
6042 6165
6042 6166
6043 6044
6043 6165
6043 6166
6044 6096
6044 6166
6044 6167
6045 6097
6045 6168
6045 6169
6046 6047
6046 6098
6046 6170
6046 6171
6047 6048
6047 6170
6047 6171
6048 6099
6048 6171
6048 6172
6049 6100
6049 6173
6049 6174
6050 6051
6050 6101
6050 6175
6050 6176
6051 6052
6051 6175
6051 6176
6052 6102
6052 6176
6052 6177
6053 6103
6053 6178
6053 6179
6054 6055
6054 6104
6054 6180
6054 6181
6055 6056
6055 6180
6055 6181
6056 6105
6056 6181
6056 6182
6057 6106
6057 6183
6057 6184
6058 6059
6058 6107
6058 6185
6058 6186
6059 6060
6059 6185
6059 6186
6060 6108
6060 6186
6060 6187
6061 6109
6061 6188
6061 6189
6062 6110
6063 6064
6063 6112
6063 6190
6063 6191
6064 6113
6064 6190
6064 6191
6065 6115
6066 6067
6066 6117
6066 6192
6066 6193
6067 6118
6067 6192
6067 6193
6068 6120
6069 6070
6069 6122
6069 6194
6069 6195
6070 6123
6070 6194
6070 6195
6071 6125
6072 6073
6072 6127
6072 6196
6072 6197
6073 6128
6073 6196
6073 6197
6074 6130
6075 6076
6075 6132
6075 6198
6075 6199
6076 6133
6076 6198
6076 6199
6077 6135
6078 6079
6078 6137
6078 6200
6078 6201
6079 6138
6079 6200
6079 6201
6080 6140
6081 6082
6081 6142
6081 6202
6081 6203
6082 6143
6082 6202
6082 6203
6083 6145
6084 6085
6084 6147
6084 6204
6084 6205
6085 6148
6085 6204
6085 6205
6086 6150
6087 6088
6087 6152
6087 6206
6087 6207
6088 6153
6088 6206
6088 6207
6089 6155
6090 6091
6090 6157
6090 6208
6090 6209
6091 6158
6091 6208
6091 6209
6092 6160
6093 6094
6093 6162
6093 6210
6093 6211
6094 6163
6094 6210
6094 6211
6095 6165
6096 6097
6096 6167
6096 6212
6096 6213
6097 6168
6097 6212
6097 6213
6098 6170
6099 6100
6099 6172
6099 6214
6099 6215
6100 6173
6100 6214
6100 6215
6101 6175
6102 6103
6102 6177
6102 6216
6102 6217
6103 6178
6103 6216
6103 6217
6104 6180
6105 6106
6105 6182
6105 6218
6105 6219
6106 6183
6106 6218
6106 6219
6107 6185
6108 6109
6108 6187
6108 6220
6108 6221
6109 6188
6109 6220
6109 6221
6110 6111
6110 6222
6111 6222
6112 6190
6112 6223
6113 6191
6113 6224
6114 6225
6115 6116
6115 6226
6116 6226
6117 6192
6117 6227
6118 6193
6118 6228
6119 6229
6120 6121
6120 6230
6121 6230
6122 6194
6122 6231
6123 6195
6123 6232
6124 6233
6125 6126
6125 6234
6126 6234
6127 6196
6127 6235
6128 6197
6128 6236
6129 6237
6130 6131
6130 6238
6131 6238
6132 6198
6132 6239
6133 6199
6133 6240
6134 6241
6135 6136
6135 6242
6136 6242
6137 6200
6137 6243
6138 6201
6138 6244
6139 6245
6140 6141
6140 6246
6141 6246
6142 6202
6142 6247
6143 6203
6143 6248
6144 6249
6145 6146
6145 6250
6146 6250
6147 6204
6147 6251
6148 6205
6148 6252
6149 6253
6150 6151
6150 6254
6151 6254
6152 6206
6152 6255
6153 6207
6153 6256
6154 6257
6155 6156
6155 6258
6156 6258
6157 6208
6157 6259
6158 6209
6158 6260
6159 6261
6160 6161
6160 6262
6161 6262
6162 6210
6162 6263
6163 6211
6163 6264
6164 6265
6165 6166
6165 6266
6166 6266
6167 6212
6167 6267
6168 6213
6168 6268
6169 6269
6170 6171
6170 6270
6171 6270
6172 6214
6172 6271
6173 6215
6173 6272
6174 6273
6175 6176
6175 6274
6176 6274
6177 6216
6177 6275
6178 6217
6178 6276
6179 6277
6180 6181
6180 6278
6181 6278
6182 6218
6182 6279
6183 6219
6183 6280
6184 6281
6185 6186
6185 6282
6186 6282
6187 6220
6187 6283
6188 6221
6188 6284
6189 6285
6190 6191
6190 6223
6191 6224
6192 6193
6192 6227
6193 6228
6194 6195
6194 6231
6195 6232
6196 6197
6196 6235
6197 6236
6198 6199
6198 6239
6199 6240
6200 6201
6200 6243
6201 6244
6202 6203
6202 6247
6203 6248
6204 6205
6204 6251
6205 6252
6206 6207
6206 6255
6207 6256
6208 6209
6208 6259
6209 6260
6210 6211
6210 6263
6211 6264
6212 6213
6212 6267
6213 6268
6214 6215
6214 6271
6215 6272
6216 6217
6216 6275
6217 6276
6218 6219
6218 6279
6219 6280
6220 6221
6220 6283
6221 6284
6222 6286
6222 6287
6223 6287
6224 6288
6224 6289
6225 6290
6225 6291
6226 6292
6226 6293
6227 6293
6228 6294
6228 6295
6229 6296
6229 6297
6230 6298
6230 6299
6231 6299
6232 6300
6232 6301
6233 6302
6233 6303
6234 6304
6234 6305
6235 6305
6236 6306
6236 6307
6237 6308
6237 6309
6238 6310
6238 6311
6239 6311
6240 6312
6240 6313
6241 6314
6241 6315
6242 6316
6242 6317
6243 6317
6244 6318
6244 6319
6245 6320
6245 6321
6246 6322
6246 6323
6247 6323
6248 6324
6248 6325
6249 6326
6249 6327
6250 6328
6250 6329
6251 6329
6252 6330
6252 6331
6253 6332
6253 6333
6254 6334
6254 6335
6255 6335
6256 6336
6256 6337
6257 6338
6257 6339
6258 6340
6258 6341
6259 6341
6260 6342
6260 6343
6261 6344
6261 6345
6262 6346
6262 6347
6263 6347
6264 6348
6264 6349
6265 6350
6265 6351
6266 6352
6266 6353
6267 6353
6268 6354
6268 6355
6269 6356
6269 6357
6270 6358
6270 6359
6271 6359
6272 6360
6272 6361
6273 6362
6273 6363
6274 6364
6274 6365
6275 6365
6276 6366
6276 6367
6277 6368
6277 6369
6278 6370
6278 6371
6279 6371
6280 6372
6280 6373
6281 6374
6281 6375
6282 6376
6282 6377
6283 6377
6284 6378
6284 6379
6285 6380
6285 6381
6286 6287
6286 6382
6286 6447
6286 6448
6287 6383
6287 6447
6287 6448
6288 6289
6288 6384
6288 6449
6288 6450
6289 6385
6289 6449
6289 6450
6290 6291
6290 6385
6290 6451
6290 6452
6291 6386
6291 6451
6291 6452
6292 6293
6292 6386
6292 6453
6292 6454
6293 6387
6293 6453
6293 6454
6294 6295
6294 6388
6294 6455
6294 6456
6295 6389
6295 6455
6295 6456
6296 6297
6296 6389
6296 6457
6296 6458
6297 6390
6297 6457
6297 6458
6298 6299
6298 6390
6298 6459
6298 6460
6299 6391
6299 6459
6299 6460
6300 6301
6300 6392
6300 6461
6300 6462
6301 6393
6301 6461
6301 6462
6302 6303
6302 6393
6302 6463
6302 6464
6303 6394
6303 6463
6303 6464
6304 6305
6304 6394
6304 6465
6304 6466
6305 6395
6305 6465
6305 6466
6306 6307
6306 6396
6306 6467
6306 6468
6307 6397
6307 6467
6307 6468
6308 6309
6308 6397
6308 6469
6308 6470
6309 6398
6309 6469
6309 6470
6310 6311
6310 6398
6310 6471
6310 6472
6311 6399
6311 6471
6311 6472
6312 6313
6312 6400
6312 6473
6312 6474
6313 6401
6313 6473
6313 6474
6314 6315
6314 6401
6314 6475
6314 6476
6315 6402
6315 6475
6315 6476
6316 6317
6316 6402
6316 6477
6316 6478
6317 6403
6317 6477
6317 6478
6318 6319
6318 6404
6318 6479
6318 6480
6319 6405
6319 6479
6319 6480
6320 6321
6320 6405
6320 6481
6320 6482
6321 6406
6321 6481
6321 6482
6322 6323
6322 6406
6322 6483
6322 6484
6323 6407
6323 6483
6323 6484
6324 6325
6324 6408
6324 6485
6324 6486
6325 6409
6325 6485
6325 6486
6326 6327
6326 6409
6326 6487
6326 6488
6327 6410
6327 6487
6327 6488
6328 6329
6328 6410
6328 6489
6328 6490
6329 6411
6329 6489
6329 6490
6330 6331
6330 6412
6330 6491
6330 6492
6331 6413
6331 6491
6331 6492
6332 6333
6332 6413
6332 6493
6332 6494
6333 6414
6333 6493
6333 6494
6334 6335
6334 6414
6334 6495
6334 6496
6335 6415
6335 6495
6335 6496
6336 6337
6336 6416
6336 6497
6336 6498
6337 6417
6337 6497
6337 6498
6338 6339
6338 6417
6338 6499
6338 6500
6339 6418
6339 6499
6339 6500
6340 6341
6340 6418
6340 6501
6340 6502
6341 6419
6341 6501
6341 6502
6342 6343
6342 6420
6342 6503
6342 6504
6343 6421
6343 6503
6343 6504
6344 6345
6344 6421
6344 6505
6344 6506
6345 6422
6345 6505
6345 6506
6346 6347
6346 6422
6346 6507
6346 6508
6347 6423
6347 6507
6347 6508
6348 6349
6348 6424
6348 6509
6348 6510
6349 6425
6349 6509
6349 6510
6350 6351
6350 6425
6350 6511
6350 6512
6351 6426
6351 6511
6351 6512
6352 6353
6352 6426
6352 6513
6352 6514
6353 6427
6353 6513
6353 6514
6354 6355
6354 6428
6354 6515
6354 6516
6355 6429
6355 6515
6355 6516
6356 6357
6356 6429
6356 6517
6356 6518
6357 6430
6357 6517
6357 6518
6358 6359
6358 6430
6358 6519
6358 6520
6359 6431
6359 6519
6359 6520
6360 6361
6360 6432
6360 6521
6360 6522
6361 6433
6361 6521
6361 6522
6362 6363
6362 6433
6362 6523
6362 6524
6363 6434
6363 6523
6363 6524
6364 6365
6364 6434
6364 6525
6364 6526
6365 6435
6365 6525
6365 6526
6366 6367
6366 6436
6366 6527
6366 6528
6367 6437
6367 6527
6367 6528
6368 6369
6368 6437
6368 6529
6368 6530
6369 6438
6369 6529
6369 6530
6370 6371
6370 6438
6370 6531
6370 6532
6371 6439
6371 6531
6371 6532
6372 6373
6372 6440
6372 6533
6372 6534
6373 6441
6373 6533
6373 6534
6374 6375
6374 6441
6374 6535
6374 6536
6375 6442
6375 6535
6375 6536
6376 6377
6376 6442
6376 6537
6376 6538
6377 6443
6377 6537
6377 6538
6378 6379
6378 6444
6378 6539
6378 6540
6379 6445
6379 6539
6379 6540
6380 6381
6380 6445
6381 6446
6382 6447
6383 6384
6383 6448
6384 6449
6385 6450
6385 6451
6386 6452
6386 6453
6387 6388
6387 6454
6388 6455
6389 6456
6389 6457
6390 6458
6390 6459
6391 6392
6391 6460
6392 6461
6393 6462
6393 6463
6394 6464
6394 6465
6395 6396
6395 6466
6396 6467
6397 6468
6397 6469
6398 6470
6398 6471
6399 6400
6399 6472
6400 6473
6401 6474
6401 6475
6402 6476
6402 6477
6403 6404
6403 6478
6404 6479
6405 6480
6405 6481
6406 6482
6406 6483
6407 6408
6407 6484
6408 6485
6409 6486
6409 6487
6410 6488
6410 6489
6411 6412
6411 6490
6412 6491
6413 6492
6413 6493
6414 6494
6414 6495
6415 6416
6415 6496
6416 6497
6417 6498
6417 6499
6418 6500
6418 6501
6419 6420
6419 6502
6420 6503
6421 6504
6421 6505
6422 6506
6422 6507
6423 6424
6423 6508
6424 6509
6425 6510
6425 6511
6426 6512
6426 6513
6427 6428
6427 6514
6428 6515
6429 6516
6429 6517
6430 6518
6430 6519
6431 6432
6431 6520
6432 6521
6433 6522
6433 6523
6434 6524
6434 6525
6435 6436
6435 6526
6436 6527
6437 6528
6437 6529
6438 6530
6438 6531
6439 6440
6439 6532
6440 6533
6441 6534
6441 6535
6442 6536
6442 6537
6443 6444
6443 6538
6444 6539
6445 6540
6447 6448
6447 6541
6448 6541
6449 6450
6449 6542
6450 6542
6451 6452
6451 6543
6452 6543
6453 6454
6453 6544
6454 6544
6455 6456
6455 6545
6456 6545
6457 6458
6457 6546
6458 6546
6459 6460
6459 6547
6460 6547
6461 6462
6461 6548
6462 6548
6463 6464
6463 6549
6464 6549
6465 6466
6465 6550
6466 6550
6467 6468
6467 6551
6468 6551
6469 6470
6469 6552
6470 6552
6471 6472
6471 6553
6472 6553
6473 6474
6473 6554
6474 6554
6475 6476
6475 6555
6476 6555
6477 6478
6477 6556
6478 6556
6479 6480
6479 6557
6480 6557
6481 6482
6481 6558
6482 6558
6483 6484
6483 6559
6484 6559
6485 6486
6485 6560
6486 6560
6487 6488
6487 6561
6488 6561
6489 6490
6489 6562
6490 6562
6491 6492
6491 6563
6492 6563
6493 6494
6493 6564
6494 6564
6495 6496
6495 6565
6496 6565
6497 6498
6497 6566
6498 6566
6499 6500
6499 6567
6500 6567
6501 6502
6501 6568
6502 6568
6503 6504
6503 6569
6504 6569
6505 6506
6505 6570
6506 6570
6507 6508
6507 6571
6508 6571
6509 6510
6509 6572
6510 6572
6511 6512
6511 6573
6512 6573
6513 6514
6513 6574
6514 6574
6515 6516
6515 6575
6516 6575
6517 6518
6517 6576
6518 6576
6519 6520
6519 6577
6520 6577
6521 6522
6521 6578
6522 6578
6523 6524
6523 6579
6524 6579
6525 6526
6525 6580
6526 6580
6527 6528
6527 6581
6528 6581
6529 6530
6529 6582
6530 6582
6531 6532
6531 6583
6532 6583
6533 6534
6533 6584
6534 6584
6535 6536
6535 6585
6536 6585
6537 6538
6537 6586
6538 6586
6539 6540
6539 6587
6540 6587
6541 6588
6541 6589
6542 6653
6542 6654
6543 6655
6544 6592
6544 6593
6545 6656
6545 6657
6546 6658
6547 6596
6547 6597
6548 6659
6548 6660
6549 6661
6550 6600
6550 6601
6551 6662
6551 6663
6552 6664
6553 6604
6553 6605
6554 6665
6554 6666
6555 6667
6556 6608
6556 6609
6557 6668
6557 6669
6558 6670
6559 6612
6559 6613
6560 6671
6560 6672
6561 6673
6562 6616
6562 6617
6563 6674
6563 6675
6564 6676
6565 6620
6565 6621
6566 6677
6566 6678
6567 6679
6568 6624
6568 6625
6569 6680
6569 6681
6570 6682
6571 6628
6571 6629
6572 6683
6572 6684
6573 6685
6574 6632
6574 6633
6575 6686
6575 6687
6576 6688
6577 6636
6577 6637
6578 6689
6578 6690
6579 6691
6580 6640
6580 6641
6581 6692
6581 6693
6582 6694
6583 6644
6583 6645
6584 6695
6584 6696
6585 6697
6586 6648
6586 6649
6587 6698
6587 6699
6588 6589
6588 6652
6588 6700
6588 6701
6589 6590
6589 6700
6589 6701
6590 6653
6590 6701
6590 6702
6591 6654
6591 6703
6591 6704
6592 6593
6592 6655
6592 6705
6592 6706
6593 6594
6593 6705
6593 6706
6594 6656
6594 6706
6594 6707
6595 6657
6595 6708
6595 6709
6596 6597
6596 6658
6596 6710
6596 6711
6597 6598
6597 6710
6597 6711
6598 6659
6598 6711
6598 6712
6599 6660
6599 6713
6599 6714
6600 6601
6600 6661
6600 6715
6600 6716
6601 6602
6601 6715
6601 6716
6602 6662
6602 6716
6602 6717
6603 6663
6603 6718
6603 6719
6604 6605
6604 6664
6604 6720
6604 6721
6605 6606
6605 6720
6605 6721
6606 6665
6606 6721
6606 6722
6607 6666
6607 6723
6607 6724
6608 6609
6608 6667
6608 6725
6608 6726
6609 6610
6609 6725
6609 6726
6610 6668
6610 6726
6610 6727
6611 6669
6611 6728
6611 6729
6612 6613
6612 6670
6612 6730
6612 6731
6613 6614
6613 6730
6613 6731
6614 6671
6614 6731
6614 6732
6615 6672
6615 6733
6615 6734
6616 6617
6616 6673
6616 6735
6616 6736
6617 6618
6617 6735
6617 6736
6618 6674
6618 6736
6618 6737
6619 6675
6619 6738
6619 6739
6620 6621
6620 6676
6620 6740
6620 6741
6621 6622
6621 6740
6621 6741
6622 6677
6622 6741
6622 6742
6623 6678
6623 6743
6623 6744
6624 6625
6624 6679
6624 6745
6624 6746
6625 6626
6625 6745
6625 6746
6626 6680
6626 6746
6626 6747
6627 6681
6627 6748
6627 6749
6628 6629
6628 6682
6628 6750
6628 6751
6629 6630
6629 6750
6629 6751
6630 6683
6630 6751
6630 6752
6631 6684
6631 6753
6631 6754
6632 6633
6632 6685
6632 6755
6632 6756
6633 6634
6633 6755
6633 6756
6634 6686
6634 6756
6634 6757
6635 6687
6635 6758
6635 6759
6636 6637
6636 6688
6636 6760
6636 6761
6637 6638
6637 6760
6637 6761
6638 6689
6638 6761
6638 6762
6639 6690
6639 6763
6639 6764
6640 6641
6640 6691
6640 6765
6640 6766
6641 6642
6641 6765
6641 6766
6642 6692
6642 6766
6642 6767
6643 6693
6643 6768
6643 6769
6644 6645
6644 6694
6644 6770
6644 6771
6645 6646
6645 6770
6645 6771
6646 6695
6646 6771
6646 6772
6647 6696
6647 6773
6647 6774
6648 6649
6648 6697
6648 6775
6648 6776
6649 6650
6649 6775
6649 6776
6650 6698
6650 6776
6650 6777
6651 6699
6651 6778
6651 6779
6652 6700
6653 6654
6653 6702
6653 6780
6653 6781
6654 6703
6654 6780
6654 6781
6655 6705
6656 6657
6656 6707
6656 6782
6656 6783
6657 6708
6657 6782
6657 6783
6658 6710
6659 6660
6659 6712
6659 6784
6659 6785
6660 6713
6660 6784
6660 6785
6661 6715
6662 6663
6662 6717
6662 6786
6662 6787
6663 6718
6663 6786
6663 6787
6664 6720
6665 6666
6665 6722
6665 6788
6665 6789
6666 6723
6666 6788
6666 6789
6667 6725
6668 6669
6668 6727
6668 6790
6668 6791
6669 6728
6669 6790
6669 6791
6670 6730
6671 6672
6671 6732
6671 6792
6671 6793
6672 6733
6672 6792
6672 6793
6673 6735
6674 6675
6674 6737
6674 6794
6674 6795
6675 6738
6675 6794
6675 6795
6676 6740
6677 6678
6677 6742
6677 6796
6677 6797
6678 6743
6678 6796
6678 6797
6679 6745
6680 6681
6680 6747
6680 6798
6680 6799
6681 6748
6681 6798
6681 6799
6682 6750
6683 6684
6683 6752
6683 6800
6683 6801
6684 6753
6684 6800
6684 6801
6685 6755
6686 6687
6686 6757
6686 6802
6686 6803
6687 6758
6687 6802
6687 6803
6688 6760
6689 6690
6689 6762
6689 6804
6689 6805
6690 6763
6690 6804
6690 6805
6691 6765
6692 6693
6692 6767
6692 6806
6692 6807
6693 6768
6693 6806
6693 6807
6694 6770
6695 6696
6695 6772
6695 6808
6695 6809
6696 6773
6696 6808
6696 6809
6697 6775
6698 6699
6698 6777
6698 6810
6698 6811
6699 6778
6699 6810
6699 6811
6700 6701
6700 6812
6701 6812
6702 6780
6702 6813
6703 6781
6703 6814
6704 6815
6705 6706
6705 6816
6706 6816
6707 6782
6707 6817
6708 6783
6708 6818
6709 6819
6710 6711
6710 6820
6711 6820
6712 6784
6712 6821
6713 6785
6713 6822
6714 6823
6715 6716
6715 6824
6716 6824
6717 6786
6717 6825
6718 6787
6718 6826
6719 6827
6720 6721
6720 6828
6721 6828
6722 6788
6722 6829
6723 6789
6723 6830
6724 6831
6725 6726
6725 6832
6726 6832
6727 6790
6727 6833
6728 6791
6728 6834
6729 6835
6730 6731
6730 6836
6731 6836
6732 6792
6732 6837
6733 6793
6733 6838
6734 6839
6735 6736
6735 6840
6736 6840
6737 6794
6737 6841
6738 6795
6738 6842
6739 6843
6740 6741
6740 6844
6741 6844
6742 6796
6742 6845
6743 6797
6743 6846
6744 6847
6745 6746
6745 6848
6746 6848
6747 6798
6747 6849
6748 6799
6748 6850
6749 6851
6750 6751
6750 6852
6751 6852
6752 6800
6752 6853
6753 6801
6753 6854
6754 6855
6755 6756
6755 6856
6756 6856
6757 6802
6757 6857
6758 6803
6758 6858
6759 6859
6760 6761
6760 6860
6761 6860
6762 6804
6762 6861
6763 6805
6763 6862
6764 6863
6765 6766
6765 6864
6766 6864
6767 6806
6767 6865
6768 6807
6768 6866
6769 6867
6770 6771
6770 6868
6771 6868
6772 6808
6772 6869
6773 6809
6773 6870
6774 6871
6775 6776
6775 6872
6776 6872
6777 6810
6777 6873
6778 6811
6778 6874
6779 6875
6780 6781
6780 6813
6781 6814
6782 6783
6782 6817
6783 6818
6784 6785
6784 6821
6785 6822
6786 6787
6786 6825
6787 6826
6788 6789
6788 6829
6789 6830
6790 6791
6790 6833
6791 6834
6792 6793
6792 6837
6793 6838
6794 6795
6794 6841
6795 6842
6796 6797
6796 6845
6797 6846
6798 6799
6798 6849
6799 6850
6800 6801
6800 6853
6801 6854
6802 6803
6802 6857
6803 6858
6804 6805
6804 6861
6805 6862
6806 6807
6806 6865
6807 6866
6808 6809
6808 6869
6809 6870
6810 6811
6810 6873
6811 6874
6812 6876
6812 6877
6813 6877
6814 6878
6814 6879
6815 6880
6815 6881
6816 6882
6816 6883
6817 6883
6818 6884
6818 6885
6819 6886
6819 6887
6820 6888
6820 6889
6821 6889
6822 6890
6822 6891
6823 6892
6823 6893
6824 6894
6824 6895
6825 6895
6826 6896
6826 6897
6827 6898
6827 6899
6828 6900
6828 6901
6829 6901
6830 6902
6830 6903
6831 6904
6831 6905
6832 6906
6832 6907
6833 6907
6834 6908
6834 6909
6835 6910
6835 6911
6836 6912
6836 6913
6837 6913
6838 6914
6838 6915
6839 6916
6839 6917
6840 6918
6840 6919
6841 6919
6842 6920
6842 6921
6843 6922
6843 6923
6844 6924
6844 6925
6845 6925
6846 6926
6846 6927
6847 6928
6847 6929
6848 6930
6848 6931
6849 6931
6850 6932
6850 6933
6851 6934
6851 6935
6852 6936
6852 6937
6853 6937
6854 6938
6854 6939
6855 6940
6855 6941
6856 6942
6856 6943
6857 6943
6858 6944
6858 6945
6859 6946
6859 6947
6860 6948
6860 6949
6861 6949
6862 6950
6862 6951
6863 6952
6863 6953
6864 6954
6864 6955
6865 6955
6866 6956
6866 6957
6867 6958
6867 6959
6868 6960
6868 6961
6869 6961
6870 6962
6870 6963
6871 6964
6871 6965
6872 6966
6872 6967
6873 6967
6874 6968
6874 6969
6875 6970
6875 6971
6876 6877
6876 6972
6876 7037
6876 7038
6877 6973
6877 7037
6877 7038
6878 6879
6878 6974
6878 7039
6878 7040
6879 6975
6879 7039
6879 7040
6880 6881
6880 6975
6880 7041
6880 7042
6881 6976
6881 7041
6881 7042
6882 6883
6882 6976
6882 7043
6882 7044
6883 6977
6883 7043
6883 7044
6884 6885
6884 6978
6884 7045
6884 7046
6885 6979
6885 7045
6885 7046
6886 6887
6886 6979
6886 7047
6886 7048
6887 6980
6887 7047
6887 7048
6888 6889
6888 6980
6888 7049
6888 7050
6889 6981
6889 7049
6889 7050
6890 6891
6890 6982
6890 7051
6890 7052
6891 6983
6891 7051
6891 7052
6892 6893
6892 6983
6892 7053
6892 7054
6893 6984
6893 7053
6893 7054
6894 6895
6894 6984
6894 7055
6894 7056
6895 6985
6895 7055
6895 7056
6896 6897
6896 6986
6896 7057
6896 7058
6897 6987
6897 7057
6897 7058
6898 6899
6898 6987
6898 7059
6898 7060
6899 6988
6899 7059
6899 7060
6900 6901
6900 6988
6900 7061
6900 7062
6901 6989
6901 7061
6901 7062
6902 6903
6902 6990
6902 7063
6902 7064
6903 6991
6903 7063
6903 7064
6904 6905
6904 6991
6904 7065
6904 7066
6905 6992
6905 7065
6905 7066
6906 6907
6906 6992
6906 7067
6906 7068
6907 6993
6907 7067
6907 7068
6908 6909
6908 6994
6908 7069
6908 7070
6909 6995
6909 7069
6909 7070
6910 6911
6910 6995
6910 7071
6910 7072
6911 6996
6911 7071
6911 7072
6912 6913
6912 6996
6912 7073
6912 7074
6913 6997
6913 7073
6913 7074
6914 6915
6914 6998
6914 7075
6914 7076
6915 6999
6915 7075
6915 7076
6916 6917
6916 6999
6916 7077
6916 7078
6917 7000
6917 7077
6917 7078
6918 6919
6918 7000
6918 7079
6918 7080
6919 7001
6919 7079
6919 7080
6920 6921
6920 7002
6920 7081
6920 7082
6921 7003
6921 7081
6921 7082
6922 6923
6922 7003
6922 7083
6922 7084
6923 7004
6923 7083
6923 7084
6924 6925
6924 7004
6924 7085
6924 7086
6925 7005
6925 7085
6925 7086
6926 6927
6926 7006
6926 7087
6926 7088
6927 7007
6927 7087
6927 7088
6928 6929
6928 7007
6928 7089
6928 7090
6929 7008
6929 7089
6929 7090
6930 6931
6930 7008
6930 7091
6930 7092
6931 7009
6931 7091
6931 7092
6932 6933
6932 7010
6932 7093
6932 7094
6933 7011
6933 7093
6933 7094
6934 6935
6934 7011
6934 7095
6934 7096
6935 7012
6935 7095
6935 7096
6936 6937
6936 7012
6936 7097
6936 7098
6937 7013
6937 7097
6937 7098
6938 6939
6938 7014
6938 7099
6938 7100
6939 7015
6939 7099
6939 7100
6940 6941
6940 7015
6940 7101
6940 7102
6941 7016
6941 7101
6941 7102
6942 6943
6942 7016
6942 7103
6942 7104
6943 7017
6943 7103
6943 7104
6944 6945
6944 7018
6944 7105
6944 7106
6945 7019
6945 7105
6945 7106
6946 6947
6946 7019
6946 7107
6946 7108
6947 7020
6947 7107
6947 7108
6948 6949
6948 7020
6948 7109
6948 7110
6949 7021
6949 7109
6949 7110
6950 6951
6950 7022
6950 7111
6950 7112
6951 7023
6951 7111
6951 7112
6952 6953
6952 7023
6952 7113
6952 7114
6953 7024
6953 7113
6953 7114
6954 6955
6954 7024
6954 7115
6954 7116
6955 7025
6955 7115
6955 7116
6956 6957
6956 7026
6956 7117
6956 7118
6957 7027
6957 7117
6957 7118
6958 6959
6958 7027
6958 7119
6958 7120
6959 7028
6959 7119
6959 7120
6960 6961
6960 7028
6960 7121
6960 7122
6961 7029
6961 7121
6961 7122
6962 6963
6962 7030
6962 7123
6962 7124
6963 7031
6963 7123
6963 7124
6964 6965
6964 7031
6964 7125
6964 7126
6965 7032
6965 7125
6965 7126
6966 6967
6966 7032
6966 7127
6966 7128
6967 7033
6967 7127
6967 7128
6968 6969
6968 7034
6968 7129
6968 7130
6969 7035
6969 7129
6969 7130
6970 6971
6970 7035
6970 7131
6970 7132
6971 7036
6971 7131
6971 7132
6972 7037
6973 6974
6973 7038
6974 7039
6975 7040
6975 7041
6976 7042
6976 7043
6977 6978
6977 7044
6978 7045
6979 7046
6979 7047
6980 7048
6980 7049
6981 6982
6981 7050
6982 7051
6983 7052
6983 7053
6984 7054
6984 7055
6985 6986
6985 7056
6986 7057
6987 7058
6987 7059
6988 7060
6988 7061
6989 6990
6989 7062
6990 7063
6991 7064
6991 7065
6992 7066
6992 7067
6993 6994
6993 7068
6994 7069
6995 7070
6995 7071
6996 7072
6996 7073
6997 6998
6997 7074
6998 7075
6999 7076
6999 7077
7000 7078
7000 7079
7001 7002
7001 7080
7002 7081
7003 7082
7003 7083
7004 7084
7004 7085
7005 7006
7005 7086
7006 7087
7007 7088
7007 7089
7008 7090
7008 7091
7009 7010
7009 7092
7010 7093
7011 7094
7011 7095
7012 7096
7012 7097
7013 7014
7013 7098
7014 7099
7015 7100
7015 7101
7016 7102
7016 7103
7017 7018
7017 7104
7018 7105
7019 7106
7019 7107
7020 7108
7020 7109
7021 7022
7021 7110
7022 7111
7023 7112
7023 7113
7024 7114
7024 7115
7025 7026
7025 7116
7026 7117
7027 7118
7027 7119
7028 7120
7028 7121
7029 7030
7029 7122
7030 7123
7031 7124
7031 7125
7032 7126
7032 7127
7033 7034
7033 7128
7034 7129
7035 7130
7035 7131
7036 7132
7037 7038
7037 7133
7038 7133
7039 7040
7039 7134
7040 7134
7041 7042
7041 7135
7042 7135
7043 7044
7043 7136
7044 7136
7045 7046
7045 7137
7046 7137
7047 7048
7047 7138
7048 7138
7049 7050
7049 7139
7050 7139
7051 7052
7051 7140
7052 7140
7053 7054
7053 7141
7054 7141
7055 7056
7055 7142
7056 7142
7057 7058
7057 7143
7058 7143
7059 7060
7059 7144
7060 7144
7061 7062
7061 7145
7062 7145
7063 7064
7063 7146
7064 7146
7065 7066
7065 7147
7066 7147
7067 7068
7067 7148
7068 7148
7069 7070
7069 7149
7070 7149
7071 7072
7071 7150
7072 7150
7073 7074
7073 7151
7074 7151
7075 7076
7075 7152
7076 7152
7077 7078
7077 7153
7078 7153
7079 7080
7079 7154
7080 7154
7081 7082
7081 7155
7082 7155
7083 7084
7083 7156
7084 7156
7085 7086
7085 7157
7086 7157
7087 7088
7087 7158
7088 7158
7089 7090
7089 7159
7090 7159
7091 7092
7091 7160
7092 7160
7093 7094
7093 7161
7094 7161
7095 7096
7095 7162
7096 7162
7097 7098
7097 7163
7098 7163
7099 7100
7099 7164
7100 7164
7101 7102
7101 7165
7102 7165
7103 7104
7103 7166
7104 7166
7105 7106
7105 7167
7106 7167
7107 7108
7107 7168
7108 7168
7109 7110
7109 7169
7110 7169
7111 7112
7111 7170
7112 7170
7113 7114
7113 7171
7114 7171
7115 7116
7115 7172
7116 7172
7117 7118
7117 7173
7118 7173
7119 7120
7119 7174
7120 7174
7121 7122
7121 7175
7122 7175
7123 7124
7123 7176
7124 7176
7125 7126
7125 7177
7126 7177
7127 7128
7127 7178
7128 7178
7129 7130
7129 7179
7130 7179
7131 7132
7133 7180
7133 7181
7134 7245
7134 7246
7135 7247
7136 7184
7136 7185
7137 7248
7137 7249
7138 7250
7139 7188
7139 7189
7140 7251
7140 7252
7141 7253
7142 7192
7142 7193
7143 7254
7143 7255
7144 7256
7145 7196
7145 7197
7146 7257
7146 7258
7147 7259
7148 7200
7148 7201
7149 7260
7149 7261
7150 7262
7151 7204
7151 7205
7152 7263
7152 7264
7153 7265
7154 7208
7154 7209
7155 7266
7155 7267
7156 7268
7157 7212
7157 7213
7158 7269
7158 7270
7159 7271
7160 7216
7160 7217
7161 7272
7161 7273
7162 7274
7163 7220
7163 7221
7164 7275
7164 7276
7165 7277
7166 7224
7166 7225
7167 7278
7167 7279
7168 7280
7169 7228
7169 7229
7170 7281
7170 7282
7171 7283
7172 7232
7172 7233
7173 7284
7173 7285
7174 7286
7175 7236
7175 7237
7176 7287
7176 7288
7177 7289
7178 7240
7178 7241
7179 7290
7179 7291
7180 7181
7180 7244
7180 7292
7180 7293
7181 7182
7181 7292
7181 7293
7182 7245
7182 7293
7182 7294
7183 7246
7183 7295
7183 7296
7184 7185
7184 7247
7184 7297
7184 7298
7185 7186
7185 7297
7185 7298
7186 7248
7186 7298
7186 7299
7187 7249
7187 7300
7187 7301
7188 7189
7188 7250
7188 7302
7188 7303
7189 7190
7189 7302
7189 7303
7190 7251
7190 7303
7190 7304
7191 7252
7191 7305
7191 7306
7192 7193
7192 7253
7192 7307
7192 7308
7193 7194
7193 7307
7193 7308
7194 7254
7194 7308
7194 7309
7195 7255
7195 7310
7195 7311
7196 7197
7196 7256
7196 7312
7196 7313
7197 7198
7197 7312
7197 7313
7198 7257
7198 7313
7198 7314
7199 7258
7199 7315
7199 7316
7200 7201
7200 7259
7200 7317
7200 7318
7201 7202
7201 7317
7201 7318
7202 7260
7202 7318
7202 7319
7203 7261
7203 7320
7203 7321
7204 7205
7204 7262
7204 7322
7204 7323
7205 7206
7205 7322
7205 7323
7206 7263
7206 7323
7206 7324
7207 7264
7207 7325
7207 7326
7208 7209
7208 7265
7208 7327
7208 7328
7209 7210
7209 7327
7209 7328
7210 7266
7210 7328
7210 7329
7211 7267
7211 7330
7211 7331
7212 7213
7212 7268
7212 7332
7212 7333
7213 7214
7213 7332
7213 7333
7214 7269
7214 7333
7214 7334
7215 7270
7215 7335
7215 7336
7216 7217
7216 7271
7216 7337
7216 7338
7217 7218
7217 7337
7217 7338
7218 7272
7218 7338
7218 7339
7219 7273
7219 7340
7219 7341
7220 7221
7220 7274
7220 7342
7220 7343
7221 7222
7221 7342
7221 7343
7222 7275
7222 7343
7222 7344
7223 7276
7223 7345
7223 7346
7224 7225
7224 7277
7224 7347
7224 7348
7225 7226
7225 7347
7225 7348
7226 7278
7226 7348
7226 7349
7227 7279
7227 7350
7227 7351
7228 7229
7228 7280
7228 7352
7228 7353
7229 7230
7229 7352
7229 7353
7230 7281
7230 7353
7230 7354
7231 7282
7231 7355
7231 7356
7232 7233
7232 7283
7232 7357
7232 7358
7233 7234
7233 7357
7233 7358
7234 7284
7234 7358
7234 7359
7235 7285
7235 7360
7235 7361
7236 7237
7236 7286
7236 7362
7236 7363
7237 7238
7237 7362
7237 7363
7238 7287
7238 7363
7238 7364
7239 7288
7239 7365
7239 7366
7240 7241
7240 7289
7240 7367
7240 7368
7241 7242
7241 7367
7241 7368
7242 7290
7242 7368
7242 7369
7243 7291
7243 7370
7243 7371
7244 7292
7245 7246
7245 7294
7245 7372
7245 7373
7246 7295
7246 7372
7246 7373
7247 7297
7248 7249
7248 7299
7248 7374
7248 7375
7249 7300
7249 7374
7249 7375
7250 7302
7251 7252
7251 7304
7251 7376
7251 7377
7252 7305
7252 7376
7252 7377
7253 7307
7254 7255
7254 7309
7254 7378
7254 7379
7255 7310
7255 7378
7255 7379
7256 7312
7257 7258
7257 7314
7257 7380
7257 7381
7258 7315
7258 7380
7258 7381
7259 7317
7260 7261
7260 7319
7260 7382
7260 7383
7261 7320
7261 7382
7261 7383
7262 7322
7263 7264
7263 7324
7263 7384
7263 7385
7264 7325
7264 7384
7264 7385
7265 7327
7266 7267
7266 7329
7266 7386
7266 7387
7267 7330
7267 7386
7267 7387
7268 7332
7269 7270
7269 7334
7269 7388
7269 7389
7270 7335
7270 7388
7270 7389
7271 7337
7272 7273
7272 7339
7272 7390
7272 7391
7273 7340
7273 7390
7273 7391
7274 7342
7275 7276
7275 7344
7275 7392
7275 7393
7276 7345
7276 7392
7276 7393
7277 7347
7278 7279
7278 7349
7278 7394
7278 7395
7279 7350
7279 7394
7279 7395
7280 7352
7281 7282
7281 7354
7281 7396
7281 7397
7282 7355
7282 7396
7282 7397
7283 7357
7284 7285
7284 7359
7284 7398
7284 7399
7285 7360
7285 7398
7285 7399
7286 7362
7287 7288
7287 7364
7287 7400
7287 7401
7288 7365
7288 7400
7288 7401
7289 7367
7290 7291
7290 7369
7290 7402
7290 7403
7291 7370
7291 7402
7291 7403
7292 7293
7292 7404
7293 7404
7294 7372
7294 7405
7295 7373
7295 7406
7296 7407
7297 7298
7297 7408
7298 7408
7299 7374
7299 7409
7300 7375
7300 7410
7301 7411
7302 7303
7302 7412
7303 7412
7304 7376
7304 7413
7305 7377
7305 7414
7306 7415
7307 7308
7307 7416
7308 7416
7309 7378
7309 7417
7310 7379
7310 7418
7311 7419
7312 7313
7312 7420
7313 7420
7314 7380
7314 7421
7315 7381
7315 7422
7316 7423
7317 7318
7317 7424
7318 7424
7319 7382
7319 7425
7320 7383
7320 7426
7321 7427
7322 7323
7322 7428
7323 7428
7324 7384
7324 7429
7325 7385
7325 7430
7326 7431
7327 7328
7327 7432
7328 7432
7329 7386
7329 7433
7330 7387
7330 7434
7331 7435
7332 7333
7332 7436
7333 7436
7334 7388
7334 7437
7335 7389
7335 7438
7336 7439
7337 7338
7337 7440
7338 7440
7339 7390
7339 7441
7340 7391
7340 7442
7341 7443
7342 7343
7342 7444
7343 7444
7344 7392
7344 7445
7345 7393
7345 7446
7346 7447
7347 7348
7347 7448
7348 7448
7349 7394
7349 7449
7350 7395
7350 7450
7351 7451
7352 7353
7352 7452
7353 7452
7354 7396
7354 7453
7355 7397
7355 7454
7356 7455
7357 7358
7357 7456
7358 7456
7359 7398
7359 7457
7360 7399
7360 7458
7361 7459
7362 7363
7362 7460
7363 7460
7364 7400
7364 7461
7365 7401
7365 7462
7366 7463
7367 7368
7367 7464
7368 7464
7369 7402
7369 7465
7370 7403
7370 7466
7371 7467
7372 7373
7372 7405
7373 7406
7374 7375
7374 7409
7375 7410
7376 7377
7376 7413
7377 7414
7378 7379
7378 7417
7379 7418
7380 7381
7380 7421
7381 7422
7382 7383
7382 7425
7383 7426
7384 7385
7384 7429
7385 7430
7386 7387
7386 7433
7387 7434
7388 7389
7388 7437
7389 7438
7390 7391
7390 7441
7391 7442
7392 7393
7392 7445
7393 7446
7394 7395
7394 7449
7395 7450
7396 7397
7396 7453
7397 7454
7398 7399
7398 7457
7399 7458
7400 7401
7400 7461
7401 7462
7402 7403
7402 7465
7403 7466
7404 7468
7404 7469
7405 7469
7406 7470
7406 7471
7407 7472
7407 7473
7408 7474
7408 7475
7409 7475
7410 7476
7410 7477
7411 7478
7411 7479
7412 7480
7412 7481
7413 7481
7414 7482
7414 7483
7415 7484
7415 7485
7416 7486
7416 7487
7417 7487
7418 7488
7418 7489
7419 7490
7419 7491
7420 7492
7420 7493
7421 7493
7422 7494
7422 7495
7423 7496
7423 7497
7424 7498
7424 7499
7425 7499
7426 7500
7426 7501
7427 7502
7427 7503
7428 7504
7428 7505
7429 7505
7430 7506
7430 7507
7431 7508
7431 7509
7432 7510
7432 7511
7433 7511
7434 7512
7434 7513
7435 7514
7435 7515
7436 7516
7436 7517
7437 7517
7438 7518
7438 7519
7439 7520
7439 7521
7440 7522
7440 7523
7441 7523
7442 7524
7442 7525
7443 7526
7443 7527
7444 7528
7444 7529
7445 7529
7446 7530
7446 7531
7447 7532
7447 7533
7448 7534
7448 7535
7449 7535
7450 7536
7450 7537
7451 7538
7451 7539
7452 7540
7452 7541
7453 7541
7454 7542
7454 7543
7455 7544
7455 7545
7456 7546
7456 7547
7457 7547
7458 7548
7458 7549
7459 7550
7459 7551
7460 7552
7460 7553
7461 7553
7462 7554
7462 7555
7463 7556
7463 7557
7464 7558
7464 7559
7465 7559
7466 7560
7466 7561
7467 7562
7467 7563
7468 7469
7468 7564
7468 7629
7468 7630
7469 7565
7469 7629
7469 7630
7470 7471
7470 7566
7470 7631
7470 7632
7471 7567
7471 7631
7471 7632
7472 7473
7472 7567
7472 7633
7472 7634
7473 7568
7473 7633
7473 7634
7474 7475
7474 7568
7474 7635
7474 7636
7475 7569
7475 7635
7475 7636
7476 7477
7476 7570
7476 7637
7476 7638
7477 7571
7477 7637
7477 7638
7478 7479
7478 7571
7478 7639
7478 7640
7479 7572
7479 7639
7479 7640
7480 7481
7480 7572
7480 7641
7480 7642
7481 7573
7481 7641
7481 7642
7482 7483
7482 7574
7482 7643
7482 7644
7483 7575
7483 7643
7483 7644
7484 7485
7484 7575
7484 7645
7484 7646
7485 7576
7485 7645
7485 7646
7486 7487
7486 7576
7486 7647
7486 7648
7487 7577
7487 7647
7487 7648
7488 7489
7488 7578
7488 7649
7488 7650
7489 7579
7489 7649
7489 7650
7490 7491
7490 7579
7490 7651
7490 7652
7491 7580
7491 7651
7491 7652
7492 7493
7492 7580
7492 7653
7492 7654
7493 7581
7493 7653
7493 7654
7494 7495
7494 7582
7494 7655
7494 7656
7495 7583
7495 7655
7495 7656
7496 7497
7496 7583
7496 7657
7496 7658
7497 7584
7497 7657
7497 7658
7498 7499
7498 7584
7498 7659
7498 7660
7499 7585
7499 7659
7499 7660
7500 7501
7500 7586
7500 7661
7500 7662
7501 7587
7501 7661
7501 7662
7502 7503
7502 7587
7502 7663
7502 7664
7503 7588
7503 7663
7503 7664
7504 7505
7504 7588
7504 7665
7504 7666
7505 7589
7505 7665
7505 7666
7506 7507
7506 7590
7506 7667
7506 7668
7507 7591
7507 7667
7507 7668
7508 7509
7508 7591
7508 7669
7508 7670
7509 7592
7509 7669
7509 7670
7510 7511
7510 7592
7510 7671
7510 7672
7511 7593
7511 7671
7511 7672
7512 7513
7512 7594
7512 7673
7512 7674
7513 7595
7513 7673
7513 7674
7514 7515
7514 7595
7514 7675
7514 7676
7515 7596
7515 7675
7515 7676
7516 7517
7516 7596
7516 7677
7516 7678
7517 7597
7517 7677
7517 7678
7518 7519
7518 7598
7518 7679
7518 7680
7519 7599
7519 7679
7519 7680
7520 7521
7520 7599
7520 7681
7520 7682
7521 7600
7521 7681
7521 7682
7522 7523
7522 7600
7522 7683
7522 7684
7523 7601
7523 7683
7523 7684
7524 7525
7524 7602
7524 7685
7524 7686
7525 7603
7525 7685
7525 7686
7526 7527
7526 7603
7526 7687
7526 7688
7527 7604
7527 7687
7527 7688
7528 7529
7528 7604
7528 7689
7528 7690
7529 7605
7529 7689
7529 7690
7530 7531
7530 7606
7530 7691
7530 7692
7531 7607
7531 7691
7531 7692
7532 7533
7532 7607
7532 7693
7532 7694
7533 7608
7533 7693
7533 7694
7534 7535
7534 7608
7534 7695
7534 7696
7535 7609
7535 7695
7535 7696
7536 7537
7536 7610
7536 7697
7536 7698
7537 7611
7537 7697
7537 7698
7538 7539
7538 7611
7538 7699
7538 7700
7539 7612
7539 7699
7539 7700
7540 7541
7540 7612
7540 7701
7540 7702
7541 7613
7541 7701
7541 7702
7542 7543
7542 7614
7542 7703
7542 7704
7543 7615
7543 7703
7543 7704
7544 7545
7544 7615
7544 7705
7544 7706
7545 7616
7545 7705
7545 7706
7546 7547
7546 7616
7546 7707
7546 7708
7547 7617
7547 7707
7547 7708
7548 7549
7548 7618
7548 7709
7548 7710
7549 7619
7549 7709
7549 7710
7550 7551
7550 7619
7550 7711
7550 7712
7551 7620
7551 7711
7551 7712
7552 7553
7552 7620
7552 7713
7552 7714
7553 7621
7553 7713
7553 7714
7554 7555
7554 7622
7554 7715
7554 7716
7555 7623
7555 7715
7555 7716
7556 7557
7556 7623
7556 7717
7556 7718
7557 7624
7557 7717
7557 7718
7558 7559
7558 7624
7558 7719
7558 7720
7559 7625
7559 7719
7559 7720
7560 7561
7560 7626
7560 7721
7560 7722
7561 7627
7561 7721
7561 7722
7562 7563
7562 7627
7563 7628
7564 7629
7565 7566
7565 7630
7566 7631
7567 7632
7567 7633
7568 7634
7568 7635
7569 7570
7569 7636
7570 7637
7571 7638
7571 7639
7572 7640
7572 7641
7573 7574
7573 7642
7574 7643
7575 7644
7575 7645
7576 7646
7576 7647
7577 7578
7577 7648
7578 7649
7579 7650
7579 7651
7580 7652
7580 7653
7581 7582
7581 7654
7582 7655
7583 7656
7583 7657
7584 7658
7584 7659
7585 7586
7585 7660
7586 7661
7587 7662
7587 7663
7588 7664
7588 7665
7589 7590
7589 7666
7590 7667
7591 7668
7591 7669
7592 7670
7592 7671
7593 7594
7593 7672
7594 7673
7595 7674
7595 7675
7596 7676
7596 7677
7597 7598
7597 7678
7598 7679
7599 7680
7599 7681
7600 7682
7600 7683
7601 7602
7601 7684
7602 7685
7603 7686
7603 7687
7604 7688
7604 7689
7605 7606
7605 7690
7606 7691
7607 7692
7607 7693
7608 7694
7608 7695
7609 7610
7609 7696
7610 7697
7611 7698
7611 7699
7612 7700
7612 7701
7613 7614
7613 7702
7614 7703
7615 7704
7615 7705
7616 7706
7616 7707
7617 7618
7617 7708
7618 7709
7619 7710
7619 7711
7620 7712
7620 7713
7621 7622
7621 7714
7622 7715
7623 7716
7623 7717
7624 7718
7624 7719
7625 7626
7625 7720
7626 7721
7627 7722
7629 7630
7629 7723
7630 7723
7631 7632
7631 7724
7632 7724
7633 7634
7633 7725
7634 7725
7635 7636
7635 7726
7636 7726
7637 7638
7637 7727
7638 7727
7639 7640
7639 7728
7640 7728
7641 7642
7641 7729
7642 7729
7643 7644
7643 7730
7644 7730
7645 7646
7645 7731
7646 7731
7647 7648
7647 7732
7648 7732
7649 7650
7649 7733
7650 7733
7651 7652
7651 7734
7652 7734
7653 7654
7653 7735
7654 7735
7655 7656
7655 7736
7656 7736
7657 7658
7657 7737
7658 7737
7659 7660
7659 7738
7660 7738
7661 7662
7661 7739
7662 7739
7663 7664
7663 7740
7664 7740
7665 7666
7665 7741
7666 7741
7667 7668
7667 7742
7668 7742
7669 7670
7669 7743
7670 7743
7671 7672
7671 7744
7672 7744
7673 7674
7673 7745
7674 7745
7675 7676
7675 7746
7676 7746
7677 7678
7677 7747
7678 7747
7679 7680
7679 7748
7680 7748
7681 7682
7681 7749
7682 7749
7683 7684
7683 7750
7684 7750
7685 7686
7685 7751
7686 7751
7687 7688
7687 7752
7688 7752
7689 7690
7689 7753
7690 7753
7691 7692
7691 7754
7692 7754
7693 7694
7693 7755
7694 7755
7695 7696
7695 7756
7696 7756
7697 7698
7697 7757
7698 7757
7699 7700
7699 7758
7700 7758
7701 7702
7701 7759
7702 7759
7703 7704
7703 7760
7704 7760
7705 7706
7705 7761
7706 7761
7707 7708
7707 7762
7708 7762
7709 7710
7709 7763
7710 7763
7711 7712
7711 7764
7712 7764
7713 7714
7713 7765
7714 7765
7715 7716
7715 7766
7716 7766
7717 7718
7717 7767
7718 7767
7719 7720
7719 7768
7720 7768
7721 7722
7721 7769
7722 7769
7723 7770
7723 7771
7724 7835
7724 7836
7725 7837
7726 7774
7726 7775
7727 7838
7727 7839
7728 7840
7729 7778
7729 7779
7730 7841
7730 7842
7731 7843
7732 7782
7732 7783
7733 7844
7733 7845
7734 7846
7735 7786
7735 7787
7736 7847
7736 7848
7737 7849
7738 7790
7738 7791
7739 7850
7739 7851
7740 7852
7741 7794
7741 7795
7742 7853
7742 7854
7743 7855
7744 7798
7744 7799
7745 7856
7745 7857
7746 7858
7747 7802
7747 7803
7748 7859
7748 7860
7749 7861
7750 7806
7750 7807
7751 7862
7751 7863
7752 7864
7753 7810
7753 7811
7754 7865
7754 7866
7755 7867
7756 7814
7756 7815
7757 7868
7757 7869
7758 7870
7759 7818
7759 7819
7760 7871
7760 7872
7761 7873
7762 7822
7762 7823
7763 7874
7763 7875
7764 7876
7765 7826
7765 7827
7766 7877
7766 7878
7767 7879
7768 7830
7768 7831
7769 7880
7769 7881
7770 7771
7770 7834
7770 7882
7770 7883
7771 7772
7771 7882
7771 7883
7772 7835
7772 7883
7772 7884
7773 7836
7773 7885
7773 7886
7774 7775
7774 7837
7774 7887
7774 7888
7775 7776
7775 7887
7775 7888
7776 7838
7776 7888
7776 7889
7777 7839
7777 7890
7777 7891
7778 7779
7778 7840
7778 7892
7778 7893
7779 7780
7779 7892
7779 7893
7780 7841
7780 7893
7780 7894
7781 7842
7781 7895
7781 7896
7782 7783
7782 7843
7782 7897
7782 7898
7783 7784
7783 7897
7783 7898
7784 7844
7784 7898
7784 7899
7785 7845
7785 7900
7785 7901
7786 7787
7786 7846
7786 7902
7786 7903
7787 7788
7787 7902
7787 7903
7788 7847
7788 7903
7788 7904
7789 7848
7789 7905
7789 7906
7790 7791
7790 7849
7790 7907
7790 7908
7791 7792
7791 7907
7791 7908
7792 7850
7792 7908
7792 7909
7793 7851
7793 7910
7793 7911
7794 7795
7794 7852
7794 7912
7794 7913
7795 7796
7795 7912
7795 7913
7796 7853
7796 7913
7796 7914
7797 7854
7797 7915
7797 7916
7798 7799
7798 7855
7798 7917
7798 7918
7799 7800
7799 7917
7799 7918
7800 7856
7800 7918
7800 7919
7801 7857
7801 7920
7801 7921
7802 7803
7802 7858
7802 7922
7802 7923
7803 7804
7803 7922
7803 7923
7804 7859
7804 7923
7804 7924
7805 7860
7805 7925
7805 7926
7806 7807
7806 7861
7806 7927
7806 7928
7807 7808
7807 7927
7807 7928
7808 7862
7808 7928
7808 7929
7809 7863
7809 7930
7809 7931
7810 7811
7810 7864
7810 7932
7810 7933
7811 7812
7811 7932
7811 7933
7812 7865
7812 7933
7812 7934
7813 7866
7813 7935
7813 7936
7814 7815
7814 7867
7814 7937
7814 7938
7815 7816
7815 7937
7815 7938
7816 7868
7816 7938
7816 7939
7817 7869
7817 7940
7817 7941
7818 7819
7818 7870
7818 7942
7818 7943
7819 7820
7819 7942
7819 7943
7820 7871
7820 7943
7820 7944
7821 7872
7821 7945
7821 7946
7822 7823
7822 7873
7822 7947
7822 7948
7823 7824
7823 7947
7823 7948
7824 7874
7824 7948
7824 7949
7825 7875
7825 7950
7825 7951
7826 7827
7826 7876
7826 7952
7826 7953
7827 7828
7827 7952
7827 7953
7828 7877
7828 7953
7828 7954
7829 7878
7829 7955
7829 7956
7830 7831
7830 7879
7830 7957
7830 7958
7831 7832
7831 7957
7831 7958
7832 7880
7832 7958
7832 7959
7833 7881
7833 7960
7833 7961
7834 7882
7835 7836
7835 7884
7835 7962
7835 7963
7836 7885
7836 7962
7836 7963
7837 7887
7838 7839
7838 7889
7838 7964
7838 7965
7839 7890
7839 7964
7839 7965
7840 7892
7841 7842
7841 7894
7841 7966
7841 7967
7842 7895
7842 7966
7842 7967
7843 7897
7844 7845
7844 7899
7844 7968
7844 7969
7845 7900
7845 7968
7845 7969
7846 7902
7847 7848
7847 7904
7847 7970
7847 7971
7848 7905
7848 7970
7848 7971
7849 7907
7850 7851
7850 7909
7850 7972
7850 7973
7851 7910
7851 7972
7851 7973
7852 7912
7853 7854
7853 7914
7853 7974
7853 7975
7854 7915
7854 7974
7854 7975
7855 7917
7856 7857
7856 7919
7856 7976
7856 7977
7857 7920
7857 7976
7857 7977
7858 7922
7859 7860
7859 7924
7859 7978
7859 7979
7860 7925
7860 7978
7860 7979
7861 7927
7862 7863
7862 7929
7862 7980
7862 7981
7863 7930
7863 7980
7863 7981
7864 7932
7865 7866
7865 7934
7865 7982
7865 7983
7866 7935
7866 7982
7866 7983
7867 7937
7868 7869
7868 7939
7868 7984
7868 7985
7869 7940
7869 7984
7869 7985
7870 7942
7871 7872
7871 7944
7871 7986
7871 7987
7872 7945
7872 7986
7872 7987
7873 7947
7874 7875
7874 7949
7874 7988
7874 7989
7875 7950
7875 7988
7875 7989
7876 7952
7877 7878
7877 7954
7877 7990
7877 7991
7878 7955
7878 7990
7878 7991
7879 7957
7880 7881
7880 7959
7880 7992
7880 7993
7881 7960
7881 7992
7881 7993
7882 7883
7882 7994
7883 7994
7884 7962
7884 7995
7885 7963
7885 7996
7886 7997
7887 7888
7887 7998
7888 7998
7889 7964
7889 7999
7890 7965
7890 8000
7891 8001
7892 7893
7892 8002
7893 8002
7894 7966
7894 8003
7895 7967
7895 8004
7896 8005
7897 7898
7897 8006
7898 8006
7899 7968
7899 8007
7900 7969
7900 8008
7901 8009
7902 7903
7902 8010
7903 8010
7904 7970
7904 8011
7905 7971
7905 8012
7906 8013
7907 7908
7907 8014
7908 8014
7909 7972
7909 8015
7910 7973
7910 8016
7911 8017
7912 7913
7912 8018
7913 8018
7914 7974
7914 8019
7915 7975
7915 8020
7916 8021
7917 7918
7917 8022
7918 8022
7919 7976
7919 8023
7920 7977
7920 8024
7921 8025
7922 7923
7922 8026
7923 8026
7924 7978
7924 8027
7925 7979
7925 8028
7926 8029
7927 7928
7927 8030
7928 8030
7929 7980
7929 8031
7930 7981
7930 8032
7931 8033
7932 7933
7932 8034
7933 8034
7934 7982
7934 8035
7935 7983
7935 8036
7936 8037
7937 7938
7937 8038
7938 8038
7939 7984
7939 8039
7940 7985
7940 8040
7941 8041
7942 7943
7942 8042
7943 8042
7944 7986
7944 8043
7945 7987
7945 8044
7946 8045
7947 7948
7947 8046
7948 8046
7949 7988
7949 8047
7950 7989
7950 8048
7951 8049
7952 7953
7952 8050
7953 8050
7954 7990
7954 8051
7955 7991
7955 8052
7956 8053
7957 7958
7957 8054
7958 8054
7959 7992
7959 8055
7960 7993
7960 8056
7961 8057
7962 7963
7962 7995
7963 7996
7964 7965
7964 7999
7965 8000
7966 7967
7966 8003
7967 8004
7968 7969
7968 8007
7969 8008
7970 7971
7970 8011
7971 8012
7972 7973
7972 8015
7973 8016
7974 7975
7974 8019
7975 8020
7976 7977
7976 8023
7977 8024
7978 7979
7978 8027
7979 8028
7980 7981
7980 8031
7981 8032
7982 7983
7982 8035
7983 8036
7984 7985
7984 8039
7985 8040
7986 7987
7986 8043
7987 8044
7988 7989
7988 8047
7989 8048
7990 7991
7990 8051
7991 8052
7992 7993
7992 8055
7993 8056
7994 8058
7994 8059
7995 8059
7996 8060
7996 8061
7997 8062
7997 8063
7998 8064
7998 8065
7999 8065
8000 8066
8000 8067
8001 8068
8001 8069
8002 8070
8002 8071
8003 8071
8004 8072
8004 8073
8005 8074
8005 8075
8006 8076
8006 8077
8007 8077
8008 8078
8008 8079
8009 8080
8009 8081
8010 8082
8010 8083
8011 8083
8012 8084
8012 8085
8013 8086
8013 8087
8014 8088
8014 8089
8015 8089
8016 8090
8016 8091
8017 8092
8017 8093
8018 8094
8018 8095
8019 8095
8020 8096
8020 8097
8021 8098
8021 8099
8022 8100
8022 8101
8023 8101
8024 8102
8024 8103
8025 8104
8025 8105
8026 8106
8026 8107
8027 8107
8028 8108
8028 8109
8029 8110
8029 8111
8030 8112
8030 8113
8031 8113
8032 8114
8032 8115
8033 8116
8033 8117
8034 8118
8034 8119
8035 8119
8036 8120
8036 8121
8037 8122
8037 8123
8038 8124
8038 8125
8039 8125
8040 8126
8040 8127
8041 8128
8041 8129
8042 8130
8042 8131
8043 8131
8044 8132
8044 8133
8045 8134
8045 8135
8046 8136
8046 8137
8047 8137
8048 8138
8048 8139
8049 8140
8049 8141
8050 8142
8050 8143
8051 8143
8052 8144
8052 8145
8053 8146
8053 8147
8054 8148
8054 8149
8055 8149
8056 8150
8056 8151
8057 8152
8057 8153
8058 8059
8058 8154
8058 8219
8058 8220
8059 8155
8059 8219
8059 8220
8060 8061
8060 8156
8060 8221
8060 8222
8061 8157
8061 8221
8061 8222
8062 8063
8062 8157
8062 8223
8062 8224
8063 8158
8063 8223
8063 8224
8064 8065
8064 8158
8064 8225
8064 8226
8065 8159
8065 8225
8065 8226
8066 8067
8066 8160
8066 8227
8066 8228
8067 8161
8067 8227
8067 8228
8068 8069
8068 8161
8068 8229
8068 8230
8069 8162
8069 8229
8069 8230
8070 8071
8070 8162
8070 8231
8070 8232
8071 8163
8071 8231
8071 8232
8072 8073
8072 8164
8072 8233
8072 8234
8073 8165
8073 8233
8073 8234
8074 8075
8074 8165
8074 8235
8074 8236
8075 8166
8075 8235
8075 8236
8076 8077
8076 8166
8076 8237
8076 8238
8077 8167
8077 8237
8077 8238
8078 8079
8078 8168
8078 8239
8078 8240
8079 8169
8079 8239
8079 8240
8080 8081
8080 8169
8080 8241
8080 8242
8081 8170
8081 8241
8081 8242
8082 8083
8082 8170
8082 8243
8082 8244
8083 8171
8083 8243
8083 8244
8084 8085
8084 8172
8084 8245
8084 8246
8085 8173
8085 8245
8085 8246
8086 8087
8086 8173
8086 8247
8086 8248
8087 8174
8087 8247
8087 8248
8088 8089
8088 8174
8088 8249
8088 8250
8089 8175
8089 8249
8089 8250
8090 8091
8090 8176
8090 8251
8090 8252
8091 8177
8091 8251
8091 8252
8092 8093
8092 8177
8092 8253
8092 8254
8093 8178
8093 8253
8093 8254
8094 8095
8094 8178
8094 8255
8094 8256
8095 8179
8095 8255
8095 8256
8096 8097
8096 8180
8096 8257
8096 8258
8097 8181
8097 8257
8097 8258
8098 8099
8098 8181
8098 8259
8098 8260
8099 8182
8099 8259
8099 8260
8100 8101
8100 8182
8100 8261
8100 8262
8101 8183
8101 8261
8101 8262
8102 8103
8102 8184
8102 8263
8102 8264
8103 8185
8103 8263
8103 8264
8104 8105
8104 8185
8104 8265
8104 8266
8105 8186
8105 8265
8105 8266
8106 8107
8106 8186
8106 8267
8106 8268
8107 8187
8107 8267
8107 8268
8108 8109
8108 8188
8108 8269
8108 8270
8109 8189
8109 8269
8109 8270
8110 8111
8110 8189
8110 8271
8110 8272
8111 8190
8111 8271
8111 8272
8112 8113
8112 8190
8112 8273
8112 8274
8113 8191
8113 8273
8113 8274
8114 8115
8114 8192
8114 8275
8114 8276
8115 8193
8115 8275
8115 8276
8116 8117
8116 8193
8116 8277
8116 8278
8117 8194
8117 8277
8117 8278
8118 8119
8118 8194
8118 8279
8118 8280
8119 8195
8119 8279
8119 8280
8120 8121
8120 8196
8120 8281
8120 8282
8121 8197
8121 8281
8121 8282
8122 8123
8122 8197
8122 8283
8122 8284
8123 8198
8123 8283
8123 8284
8124 8125
8124 8198
8124 8285
8124 8286
8125 8199
8125 8285
8125 8286
8126 8127
8126 8200
8126 8287
8126 8288
8127 8201
8127 8287
8127 8288
8128 8129
8128 8201
8128 8289
8128 8290
8129 8202
8129 8289
8129 8290
8130 8131
8130 8202
8130 8291
8130 8292
8131 8203
8131 8291
8131 8292
8132 8133
8132 8204
8132 8293
8132 8294
8133 8205
8133 8293
8133 8294
8134 8135
8134 8205
8134 8295
8134 8296
8135 8206
8135 8295
8135 8296
8136 8137
8136 8206
8136 8297
8136 8298
8137 8207
8137 8297
8137 8298
8138 8139
8138 8208
8138 8299
8138 8300
8139 8209
8139 8299
8139 8300
8140 8141
8140 8209
8140 8301
8140 8302
8141 8210
8141 8301
8141 8302
8142 8143
8142 8210
8142 8303
8142 8304
8143 8211
8143 8303
8143 8304
8144 8145
8144 8212
8144 8305
8144 8306
8145 8213
8145 8305
8145 8306
8146 8147
8146 8213
8146 8307
8146 8308
8147 8214
8147 8307
8147 8308
8148 8149
8148 8214
8148 8309
8148 8310
8149 8215
8149 8309
8149 8310
8150 8151
8150 8216
8150 8311
8150 8312
8151 8217
8151 8311
8151 8312
8152 8153
8152 8217
8153 8218
8154 8219
8155 8156
8155 8220
8156 8221
8157 8222
8157 8223
8158 8224
8158 8225
8159 8160
8159 8226
8160 8227
8161 8228
8161 8229
8162 8230
8162 8231
8163 8164
8163 8232
8164 8233
8165 8234
8165 8235
8166 8236
8166 8237
8167 8168
8167 8238
8168 8239
8169 8240
8169 8241
8170 8242
8170 8243
8171 8172
8171 8244
8172 8245
8173 8246
8173 8247
8174 8248
8174 8249
8175 8176
8175 8250
8176 8251
8177 8252
8177 8253
8178 8254
8178 8255
8179 8180
8179 8256
8180 8257
8181 8258
8181 8259
8182 8260
8182 8261
8183 8184
8183 8262
8184 8263
8185 8264
8185 8265
8186 8266
8186 8267
8187 8188
8187 8268
8188 8269
8189 8270
8189 8271
8190 8272
8190 8273
8191 8192
8191 8274
8192 8275
8193 8276
8193 8277
8194 8278
8194 8279
8195 8196
8195 8280
8196 8281
8197 8282
8197 8283
8198 8284
8198 8285
8199 8200
8199 8286
8200 8287
8201 8288
8201 8289
8202 8290
8202 8291
8203 8204
8203 8292
8204 8293
8205 8294
8205 8295
8206 8296
8206 8297
8207 8208
8207 8298
8208 8299
8209 8300
8209 8301
8210 8302
8210 8303
8211 8212
8211 8304
8212 8305
8213 8306
8213 8307
8214 8308
8214 8309
8215 8216
8215 8310
8216 8311
8217 8312
8219 8220
8219 8313
8220 8313
8221 8222
8221 8314
8222 8314
8223 8224
8223 8315
8224 8315
8225 8226
8225 8316
8226 8316
8227 8228
8227 8317
8228 8317
8229 8230
8229 8318
8230 8318
8231 8232
8231 8319
8232 8319
8233 8234
8233 8320
8234 8320
8235 8236
8235 8321
8236 8321
8237 8238
8237 8322
8238 8322
8239 8240
8239 8323
8240 8323
8241 8242
8241 8324
8242 8324
8243 8244
8243 8325
8244 8325
8245 8246
8245 8326
8246 8326
8247 8248
8247 8327
8248 8327
8249 8250
8249 8328
8250 8328
8251 8252
8251 8329
8252 8329
8253 8254
8253 8330
8254 8330
8255 8256
8255 8331
8256 8331
8257 8258
8257 8332
8258 8332
8259 8260
8259 8333
8260 8333
8261 8262
8261 8334
8262 8334
8263 8264
8263 8335
8264 8335
8265 8266
8265 8336
8266 8336
8267 8268
8267 8337
8268 8337
8269 8270
8269 8338
8270 8338
8271 8272
8271 8339
8272 8339
8273 8274
8273 8340
8274 8340
8275 8276
8275 8341
8276 8341
8277 8278
8277 8342
8278 8342
8279 8280
8279 8343
8280 8343
8281 8282
8281 8344
8282 8344
8283 8284
8283 8345
8284 8345
8285 8286
8285 8346
8286 8346
8287 8288
8287 8347
8288 8347
8289 8290
8289 8348
8290 8348
8291 8292
8291 8349
8292 8349
8293 8294
8293 8350
8294 8350
8295 8296
8295 8351
8296 8351
8297 8298
8297 8352
8298 8352
8299 8300
8299 8353
8300 8353
8301 8302
8301 8354
8302 8354
8303 8304
8303 8355
8304 8355
8305 8306
8305 8356
8306 8356
8307 8308
8307 8357
8308 8357
8309 8310
8309 8358
8310 8358
8311 8312
8311 8359
8312 8359
8313 8360
8313 8361
8314 8425
8314 8426
8315 8427
8316 8364
8316 8365
8317 8428
8317 8429
8318 8430
8319 8368
8319 8369
8320 8431
8320 8432
8321 8433
8322 8372
8322 8373
8323 8434
8323 8435
8324 8436
8325 8376
8325 8377
8326 8437
8326 8438
8327 8439
8328 8380
8328 8381
8329 8440
8329 8441
8330 8442
8331 8384
8331 8385
8332 8443
8332 8444
8333 8445
8334 8388
8334 8389
8335 8446
8335 8447
8336 8448
8337 8392
8337 8393
8338 8449
8338 8450
8339 8451
8340 8396
8340 8397
8341 8452
8341 8453
8342 8454
8343 8400
8343 8401
8344 8455
8344 8456
8345 8457
8346 8404
8346 8405
8347 8458
8347 8459
8348 8460
8349 8408
8349 8409
8350 8461
8350 8462
8351 8463
8352 8412
8352 8413
8353 8464
8353 8465
8354 8466
8355 8416
8355 8417
8356 8467
8356 8468
8357 8469
8358 8420
8358 8421
8359 8470
8359 8471
8360 8361
8360 8424
8360 8472
8360 8473
8361 8362
8361 8472
8361 8473
8362 8425
8362 8473
8362 8474
8363 8426
8363 8475
8363 8476
8364 8365
8364 8427
8364 8477
8364 8478
8365 8366
8365 8477
8365 8478
8366 8428
8366 8478
8366 8479
8367 8429
8367 8480
8367 8481
8368 8369
8368 8430
8368 8482
8368 8483
8369 8370
8369 8482
8369 8483
8370 8431
8370 8483
8370 8484
8371 8432
8371 8485
8371 8486
8372 8373
8372 8433
8372 8487
8372 8488
8373 8374
8373 8487
8373 8488
8374 8434
8374 8488
8374 8489
8375 8435
8375 8490
8375 8491
8376 8377
8376 8436
8376 8492
8376 8493
8377 8378
8377 8492
8377 8493
8378 8437
8378 8493
8378 8494
8379 8438
8379 8495
8379 8496
8380 8381
8380 8439
8380 8497
8380 8498
8381 8382
8381 8497
8381 8498
8382 8440
8382 8498
8382 8499
8383 8441
8383 8500
8383 8501
8384 8385
8384 8442
8384 8502
8384 8503
8385 8386
8385 8502
8385 8503
8386 8443
8386 8503
8386 8504
8387 8444
8387 8505
8387 8506
8388 8389
8388 8445
8388 8507
8388 8508
8389 8390
8389 8507
8389 8508
8390 8446
8390 8508
8390 8509
8391 8447
8391 8510
8391 8511
8392 8393
8392 8448
8392 8512
8392 8513
8393 8394
8393 8512
8393 8513
8394 8449
8394 8513
8394 8514
8395 8450
8395 8515
8395 8516
8396 8397
8396 8451
8396 8517
8396 8518
8397 8398
8397 8517
8397 8518
8398 8452
8398 8518
8398 8519
8399 8453
8399 8520
8399 8521
8400 8401
8400 8454
8400 8522
8400 8523
8401 8402
8401 8522
8401 8523
8402 8455
8402 8523
8402 8524
8403 8456
8403 8525
8403 8526
8404 8405
8404 8457
8404 8527
8404 8528
8405 8406
8405 8527
8405 8528
8406 8458
8406 8528
8406 8529
8407 8459
8407 8530
8407 8531
8408 8409
8408 8460
8408 8532
8408 8533
8409 8410
8409 8532
8409 8533
8410 8461
8410 8533
8410 8534
8411 8462
8411 8535
8411 8536
8412 8413
8412 8463
8412 8537
8412 8538
8413 8414
8413 8537
8413 8538
8414 8464
8414 8538
8414 8539
8415 8465
8415 8540
8415 8541
8416 8417
8416 8466
8416 8542
8416 8543
8417 8418
8417 8542
8417 8543
8418 8467
8418 8543
8418 8544
8419 8468
8419 8545
8419 8546
8420 8421
8420 8469
8420 8547
8420 8548
8421 8422
8421 8547
8421 8548
8422 8470
8422 8548
8422 8549
8423 8471
8423 8550
8423 8551
8424 8472
8425 8426
8425 8474
8425 8552
8425 8553
8426 8475
8426 8552
8426 8553
8427 8477
8428 8429
8428 8479
8428 8554
8428 8555
8429 8480
8429 8554
8429 8555
8430 8482
8431 8432
8431 8484
8431 8556
8431 8557
8432 8485
8432 8556
8432 8557
8433 8487
8434 8435
8434 8489
8434 8558
8434 8559
8435 8490
8435 8558
8435 8559
8436 8492
8437 8438
8437 8494
8437 8560
8437 8561
8438 8495
8438 8560
8438 8561
8439 8497
8440 8441
8440 8499
8440 8562
8440 8563
8441 8500
8441 8562
8441 8563
8442 8502
8443 8444
8443 8504
8443 8564
8443 8565
8444 8505
8444 8564
8444 8565
8445 8507
8446 8447
8446 8509
8446 8566
8446 8567
8447 8510
8447 8566
8447 8567
8448 8512
8449 8450
8449 8514
8449 8568
8449 8569
8450 8515
8450 8568
8450 8569
8451 8517
8452 8453
8452 8519
8452 8570
8452 8571
8453 8520
8453 8570
8453 8571
8454 8522
8455 8456
8455 8524
8455 8572
8455 8573
8456 8525
8456 8572
8456 8573
8457 8527
8458 8459
8458 8529
8458 8574
8458 8575
8459 8530
8459 8574
8459 8575
8460 8532
8461 8462
8461 8534
8461 8576
8461 8577
8462 8535
8462 8576
8462 8577
8463 8537
8464 8465
8464 8539
8464 8578
8464 8579
8465 8540
8465 8578
8465 8579
8466 8542
8467 8468
8467 8544
8467 8580
8467 8581
8468 8545
8468 8580
8468 8581
8469 8547
8470 8471
8470 8549
8470 8582
8470 8583
8471 8550
8471 8582
8471 8583
8472 8473
8472 8584
8473 8584
8474 8552
8474 8585
8475 8553
8475 8586
8476 8587
8477 8478
8477 8588
8478 8588
8479 8554
8479 8589
8480 8555
8480 8590
8481 8591
8482 8483
8482 8592
8483 8592
8484 8556
8484 8593
8485 8557
8485 8594
8486 8595
8487 8488
8487 8596
8488 8596
8489 8558
8489 8597
8490 8559
8490 8598
8491 8599
8492 8493
8492 8600
8493 8600
8494 8560
8494 8601
8495 8561
8495 8602
8496 8603
8497 8498
8497 8604
8498 8604
8499 8562
8499 8605
8500 8563
8500 8606
8501 8607
8502 8503
8502 8608
8503 8608
8504 8564
8504 8609
8505 8565
8505 8610
8506 8611
8507 8508
8507 8612
8508 8612
8509 8566
8509 8613
8510 8567
8510 8614
8511 8615
8512 8513
8512 8616
8513 8616
8514 8568
8514 8617
8515 8569
8515 8618
8516 8619
8517 8518
8517 8620
8518 8620
8519 8570
8519 8621
8520 8571
8520 8622
8521 8623
8522 8523
8522 8624
8523 8624
8524 8572
8524 8625
8525 8573
8525 8626
8526 8627
8527 8528
8527 8628
8528 8628
8529 8574
8529 8629
8530 8575
8530 8630
8531 8631
8532 8533
8532 8632
8533 8632
8534 8576
8534 8633
8535 8577
8535 8634
8536 8635
8537 8538
8537 8636
8538 8636
8539 8578
8539 8637
8540 8579
8540 8638
8541 8639
8542 8543
8542 8640
8543 8640
8544 8580
8544 8641
8545 8581
8545 8642
8546 8643
8547 8548
8547 8644
8548 8644
8549 8582
8549 8645
8550 8583
8550 8646
8551 8647
8552 8553
8552 8585
8553 8586
8554 8555
8554 8589
8555 8590
8556 8557
8556 8593
8557 8594
8558 8559
8558 8597
8559 8598
8560 8561
8560 8601
8561 8602
8562 8563
8562 8605
8563 8606
8564 8565
8564 8609
8565 8610
8566 8567
8566 8613
8567 8614
8568 8569
8568 8617
8569 8618
8570 8571
8570 8621
8571 8622
8572 8573
8572 8625
8573 8626
8574 8575
8574 8629
8575 8630
8576 8577
8576 8633
8577 8634
8578 8579
8578 8637
8579 8638
8580 8581
8580 8641
8581 8642
8582 8583
8582 8645
8583 8646
8584 8648
8584 8649
8585 8649
8586 8650
8586 8651
8587 8652
8587 8653
8588 8654
8588 8655
8589 8655
8590 8656
8590 8657
8591 8658
8591 8659
8592 8660
8592 8661
8593 8661
8594 8662
8594 8663
8595 8664
8595 8665
8596 8666
8596 8667
8597 8667
8598 8668
8598 8669
8599 8670
8599 8671
8600 8672
8600 8673
8601 8673
8602 8674
8602 8675
8603 8676
8603 8677
8604 8678
8604 8679
8605 8679
8606 8680
8606 8681
8607 8682
8607 8683
8608 8684
8608 8685
8609 8685
8610 8686
8610 8687
8611 8688
8611 8689
8612 8690
8612 8691
8613 8691
8614 8692
8614 8693
8615 8694
8615 8695
8616 8696
8616 8697
8617 8697
8618 8698
8618 8699
8619 8700
8619 8701
8620 8702
8620 8703
8621 8703
8622 8704
8622 8705
8623 8706
8623 8707
8624 8708
8624 8709
8625 8709
8626 8710
8626 8711
8627 8712
8627 8713
8628 8714
8628 8715
8629 8715
8630 8716
8630 8717
8631 8718
8631 8719
8632 8720
8632 8721
8633 8721
8634 8722
8634 8723
8635 8724
8635 8725
8636 8726
8636 8727
8637 8727
8638 8728
8638 8729
8639 8730
8639 8731
8640 8732
8640 8733
8641 8733
8642 8734
8642 8735
8643 8736
8643 8737
8644 8738
8644 8739
8645 8739
8646 8740
8646 8741
8647 8742
8647 8743
8648 8649
8648 8744
8648 8809
8648 8810
8649 8745
8649 8809
8649 8810
8650 8651
8650 8746
8650 8811
8650 8812
8651 8747
8651 8811
8651 8812
8652 8653
8652 8747
8652 8813
8652 8814
8653 8748
8653 8813
8653 8814
8654 8655
8654 8748
8654 8815
8654 8816
8655 8749
8655 8815
8655 8816
8656 8657
8656 8750
8656 8817
8656 8818
8657 8751
8657 8817
8657 8818
8658 8659
8658 8751
8658 8819
8658 8820
8659 8752
8659 8819
8659 8820
8660 8661
8660 8752
8660 8821
8660 8822
8661 8753
8661 8821
8661 8822
8662 8663
8662 8754
8662 8823
8662 8824
8663 8755
8663 8823
8663 8824
8664 8665
8664 8755
8664 8825
8664 8826
8665 8756
8665 8825
8665 8826
8666 8667
8666 8756
8666 8827
8666 8828
8667 8757
8667 8827
8667 8828
8668 8669
8668 8758
8668 8829
8668 8830
8669 8759
8669 8829
8669 8830
8670 8671
8670 8759
8670 8831
8670 8832
8671 8760
8671 8831
8671 8832
8672 8673
8672 8760
8672 8833
8672 8834
8673 8761
8673 8833
8673 8834
8674 8675
8674 8762
8674 8835
8674 8836
8675 8763
8675 8835
8675 8836
8676 8677
8676 8763
8676 8837
8676 8838
8677 8764
8677 8837
8677 8838
8678 8679
8678 8764
8678 8839
8678 8840
8679 8765
8679 8839
8679 8840
8680 8681
8680 8766
8680 8841
8680 8842
8681 8767
8681 8841
8681 8842
8682 8683
8682 8767
8682 8843
8682 8844
8683 8768
8683 8843
8683 8844
8684 8685
8684 8768
8684 8845
8684 8846
8685 8769
8685 8845
8685 8846
8686 8687
8686 8770
8686 8847
8686 8848
8687 8771
8687 8847
8687 8848
8688 8689
8688 8771
8688 8849
8688 8850
8689 8772
8689 8849
8689 8850
8690 8691
8690 8772
8690 8851
8690 8852
8691 8773
8691 8851
8691 8852
8692 8693
8692 8774
8692 8853
8692 8854
8693 8775
8693 8853
8693 8854
8694 8695
8694 8775
8694 8855
8694 8856
8695 8776
8695 8855
8695 8856
8696 8697
8696 8776
8696 8857
8696 8858
8697 8777
8697 8857
8697 8858
8698 8699
8698 8778
8698 8859
8698 8860
8699 8779
8699 8859
8699 8860
8700 8701
8700 8779
8700 8861
8700 8862
8701 8780
8701 8861
8701 8862
8702 8703
8702 8780
8702 8863
8702 8864
8703 8781
8703 8863
8703 8864
8704 8705
8704 8782
8704 8865
8704 8866
8705 8783
8705 8865
8705 8866
8706 8707
8706 8783
8706 8867
8706 8868
8707 8784
8707 8867
8707 8868
8708 8709
8708 8784
8708 8869
8708 8870
8709 8785
8709 8869
8709 8870
8710 8711
8710 8786
8710 8871
8710 8872
8711 8787
8711 8871
8711 8872
8712 8713
8712 8787
8712 8873
8712 8874
8713 8788
8713 8873
8713 8874
8714 8715
8714 8788
8714 8875
8714 8876
8715 8789
8715 8875
8715 8876
8716 8717
8716 8790
8716 8877
8716 8878
8717 8791
8717 8877
8717 8878
8718 8719
8718 8791
8718 8879
8718 8880
8719 8792
8719 8879
8719 8880
8720 8721
8720 8792
8720 8881
8720 8882
8721 8793
8721 8881
8721 8882
8722 8723
8722 8794
8722 8883
8722 8884
8723 8795
8723 8883
8723 8884
8724 8725
8724 8795
8724 8885
8724 8886
8725 8796
8725 8885
8725 8886
8726 8727
8726 8796
8726 8887
8726 8888
8727 8797
8727 8887
8727 8888
8728 8729
8728 8798
8728 8889
8728 8890
8729 8799
8729 8889
8729 8890
8730 8731
8730 8799
8730 8891
8730 8892
8731 8800
8731 8891
8731 8892
8732 8733
8732 8800
8732 8893
8732 8894
8733 8801
8733 8893
8733 8894
8734 8735
8734 8802
8734 8895
8734 8896
8735 8803
8735 8895
8735 8896
8736 8737
8736 8803
8736 8897
8736 8898
8737 8804
8737 8897
8737 8898
8738 8739
8738 8804
8738 8899
8738 8900
8739 8805
8739 8899
8739 8900
8740 8741
8740 8806
8740 8901
8740 8902
8741 8807
8741 8901
8741 8902
8742 8743
8742 8807
8742 8903
8742 8904
8743 8808
8743 8903
8743 8904
8744 8809
8745 8746
8745 8810
8746 8811
8747 8812
8747 8813
8748 8814
8748 8815
8749 8750
8749 8816
8750 8817
8751 8818
8751 8819
8752 8820
8752 8821
8753 8754
8753 8822
8754 8823
8755 8824
8755 8825
8756 8826
8756 8827
8757 8758
8757 8828
8758 8829
8759 8830
8759 8831
8760 8832
8760 8833
8761 8762
8761 8834
8762 8835
8763 8836
8763 8837
8764 8838
8764 8839
8765 8766
8765 8840
8766 8841
8767 8842
8767 8843
8768 8844
8768 8845
8769 8770
8769 8846
8770 8847
8771 8848
8771 8849
8772 8850
8772 8851
8773 8774
8773 8852
8774 8853
8775 8854
8775 8855
8776 8856
8776 8857
8777 8778
8777 8858
8778 8859
8779 8860
8779 8861
8780 8862
8780 8863
8781 8782
8781 8864
8782 8865
8783 8866
8783 8867
8784 8868
8784 8869
8785 8786
8785 8870
8786 8871
8787 8872
8787 8873
8788 8874
8788 8875
8789 8790
8789 8876
8790 8877
8791 8878
8791 8879
8792 8880
8792 8881
8793 8794
8793 8882
8794 8883
8795 8884
8795 8885
8796 8886
8796 8887
8797 8798
8797 8888
8798 8889
8799 8890
8799 8891
8800 8892
8800 8893
8801 8802
8801 8894
8802 8895
8803 8896
8803 8897
8804 8898
8804 8899
8805 8806
8805 8900
8806 8901
8807 8902
8807 8903
8808 8904
8809 8810
8809 8905
8810 8905
8811 8812
8811 8906
8812 8906
8813 8814
8813 8907
8814 8907
8815 8816
8815 8908
8816 8908
8817 8818
8817 8909
8818 8909
8819 8820
8819 8910
8820 8910
8821 8822
8821 8911
8822 8911
8823 8824
8823 8912
8824 8912
8825 8826
8825 8913
8826 8913
8827 8828
8827 8914
8828 8914
8829 8830
8829 8915
8830 8915
8831 8832
8831 8916
8832 8916
8833 8834
8833 8917
8834 8917
8835 8836
8835 8918
8836 8918
8837 8838
8837 8919
8838 8919
8839 8840
8839 8920
8840 8920
8841 8842
8841 8921
8842 8921
8843 8844
8843 8922
8844 8922
8845 8846
8845 8923
8846 8923
8847 8848
8847 8924
8848 8924
8849 8850
8849 8925
8850 8925
8851 8852
8851 8926
8852 8926
8853 8854
8853 8927
8854 8927
8855 8856
8855 8928
8856 8928
8857 8858
8857 8929
8858 8929
8859 8860
8859 8930
8860 8930
8861 8862
8861 8931
8862 8931
8863 8864
8863 8932
8864 8932
8865 8866
8865 8933
8866 8933
8867 8868
8867 8934
8868 8934
8869 8870
8869 8935
8870 8935
8871 8872
8871 8936
8872 8936
8873 8874
8873 8937
8874 8937
8875 8876
8875 8938
8876 8938
8877 8878
8877 8939
8878 8939
8879 8880
8879 8940
8880 8940
8881 8882
8881 8941
8882 8941
8883 8884
8883 8942
8884 8942
8885 8886
8885 8943
8886 8943
8887 8888
8887 8944
8888 8944
8889 8890
8889 8945
8890 8945
8891 8892
8891 8946
8892 8946
8893 8894
8893 8947
8894 8947
8895 8896
8895 8948
8896 8948
8897 8898
8897 8949
8898 8949
8899 8900
8899 8950
8900 8950
8901 8902
8901 8951
8902 8951
8903 8904
8905 8952
8905 8953
8906 9017
8906 9018
8907 9019
8908 8956
8908 8957
8909 9020
8909 9021
8910 9022
8911 8960
8911 8961
8912 9023
8912 9024
8913 9025
8914 8964
8914 8965
8915 9026
8915 9027
8916 9028
8917 8968
8917 8969
8918 9029
8918 9030
8919 9031
8920 8972
8920 8973
8921 9032
8921 9033
8922 9034
8923 8976
8923 8977
8924 9035
8924 9036
8925 9037
8926 8980
8926 8981
8927 9038
8927 9039
8928 9040
8929 8984
8929 8985
8930 9041
8930 9042
8931 9043
8932 8988
8932 8989
8933 9044
8933 9045
8934 9046
8935 8992
8935 8993
8936 9047
8936 9048
8937 9049
8938 8996
8938 8997
8939 9050
8939 9051
8940 9052
8941 9000
8941 9001
8942 9053
8942 9054
8943 9055
8944 9004
8944 9005
8945 9056
8945 9057
8946 9058
8947 9008
8947 9009
8948 9059
8948 9060
8949 9061
8950 9012
8950 9013
8951 9062
8951 9063
8952 8953
8952 9016
8952 9064
8952 9065
8953 8954
8953 9064
8953 9065
8954 9017
8954 9065
8954 9066
8955 9018
8955 9067
8955 9068
8956 8957
8956 9019
8956 9069
8956 9070
8957 8958
8957 9069
8957 9070
8958 9020
8958 9070
8958 9071
8959 9021
8959 9072
8959 9073
8960 8961
8960 9022
8960 9074
8960 9075
8961 8962
8961 9074
8961 9075
8962 9023
8962 9075
8962 9076
8963 9024
8963 9077
8963 9078
8964 8965
8964 9025
8964 9079
8964 9080
8965 8966
8965 9079
8965 9080
8966 9026
8966 9080
8966 9081
8967 9027
8967 9082
8967 9083
8968 8969
8968 9028
8968 9084
8968 9085
8969 8970
8969 9084
8969 9085
8970 9029
8970 9085
8970 9086
8971 9030
8971 9087
8971 9088
8972 8973
8972 9031
8972 9089
8972 9090
8973 8974
8973 9089
8973 9090
8974 9032
8974 9090
8974 9091
8975 9033
8975 9092
8975 9093
8976 8977
8976 9034
8976 9094
8976 9095
8977 8978
8977 9094
8977 9095
8978 9035
8978 9095
8978 9096
8979 9036
8979 9097
8979 9098
8980 8981
8980 9037
8980 9099
8980 9100
8981 8982
8981 9099
8981 9100
8982 9038
8982 9100
8982 9101
8983 9039
8983 9102
8983 9103
8984 8985
8984 9040
8984 9104
8984 9105
8985 8986
8985 9104
8985 9105
8986 9041
8986 9105
8986 9106
8987 9042
8987 9107
8987 9108
8988 8989
8988 9043
8988 9109
8988 9110
8989 8990
8989 9109
8989 9110
8990 9044
8990 9110
8990 9111
8991 9045
8991 9112
8991 9113
8992 8993
8992 9046
8992 9114
8992 9115
8993 8994
8993 9114
8993 9115
8994 9047
8994 9115
8994 9116
8995 9048
8995 9117
8995 9118
8996 8997
8996 9049
8996 9119
8996 9120
8997 8998
8997 9119
8997 9120
8998 9050
8998 9120
8998 9121
8999 9051
8999 9122
8999 9123
9000 9001
9000 9052
9000 9124
9000 9125
9001 9002
9001 9124
9001 9125
9002 9053
9002 9125
9002 9126
9003 9054
9003 9127
9003 9128
9004 9005
9004 9055
9004 9129
9004 9130
9005 9006
9005 9129
9005 9130
9006 9056
9006 9130
9006 9131
9007 9057
9007 9132
9007 9133
9008 9009
9008 9058
9008 9134
9008 9135
9009 9010
9009 9134
9009 9135
9010 9059
9010 9135
9010 9136
9011 9060
9011 9137
9011 9138
9012 9013
9012 9061
9012 9139
9012 9140
9013 9014
9013 9139
9013 9140
9014 9062
9014 9140
9014 9141
9015 9063
9015 9142
9015 9143
9016 9064
9017 9018
9017 9066
9017 9144
9017 9145
9018 9067
9018 9144
9018 9145
9019 9069
9020 9021
9020 9071
9020 9146
9020 9147
9021 9072
9021 9146
9021 9147
9022 9074
9023 9024
9023 9076
9023 9148
9023 9149
9024 9077
9024 9148
9024 9149
9025 9079
9026 9027
9026 9081
9026 9150
9026 9151
9027 9082
9027 9150
9027 9151
9028 9084
9029 9030
9029 9086
9029 9152
9029 9153
9030 9087
9030 9152
9030 9153
9031 9089
9032 9033
9032 9091
9032 9154
9032 9155
9033 9092
9033 9154
9033 9155
9034 9094
9035 9036
9035 9096
9035 9156
9035 9157
9036 9097
9036 9156
9036 9157
9037 9099
9038 9039
9038 9101
9038 9158
9038 9159
9039 9102
9039 9158
9039 9159
9040 9104
9041 9042
9041 9106
9041 9160
9041 9161
9042 9107
9042 9160
9042 9161
9043 9109
9044 9045
9044 9111
9044 9162
9044 9163
9045 9112
9045 9162
9045 9163
9046 9114
9047 9048
9047 9116
9047 9164
9047 9165
9048 9117
9048 9164
9048 9165
9049 9119
9050 9051
9050 9121
9050 9166
9050 9167
9051 9122
9051 9166
9051 9167
9052 9124
9053 9054
9053 9126
9053 9168
9053 9169
9054 9127
9054 9168
9054 9169
9055 9129
9056 9057
9056 9131
9056 9170
9056 9171
9057 9132
9057 9170
9057 9171
9058 9134
9059 9060
9059 9136
9059 9172
9059 9173
9060 9137
9060 9172
9060 9173
9061 9139
9062 9063
9062 9141
9062 9174
9062 9175
9063 9142
9063 9174
9063 9175
9064 9065
9064 9176
9065 9176
9066 9144
9066 9177
9067 9145
9067 9178
9068 9179
9069 9070
9069 9180
9070 9180
9071 9146
9071 9181
9072 9147
9072 9182
9073 9183
9074 9075
9074 9184
9075 9184
9076 9148
9076 9185
9077 9149
9077 9186
9078 9187
9079 9080
9079 9188
9080 9188
9081 9150
9081 9189
9082 9151
9082 9190
9083 9191
9084 9085
9084 9192
9085 9192
9086 9152
9086 9193
9087 9153
9087 9194
9088 9195
9089 9090
9089 9196
9090 9196
9091 9154
9091 9197
9092 9155
9092 9198
9093 9199
9094 9095
9094 9200
9095 9200
9096 9156
9096 9201
9097 9157
9097 9202
9098 9203
9099 9100
9099 9204
9100 9204
9101 9158
9101 9205
9102 9159
9102 9206
9103 9207
9104 9105
9104 9208
9105 9208
9106 9160
9106 9209
9107 9161
9107 9210
9108 9211
9109 9110
9109 9212
9110 9212
9111 9162
9111 9213
9112 9163
9112 9214
9113 9215
9114 9115
9114 9216
9115 9216
9116 9164
9116 9217
9117 9165
9117 9218
9118 9219
9119 9120
9119 9220
9120 9220
9121 9166
9121 9221
9122 9167
9122 9222
9123 9223
9124 9125
9124 9224
9125 9224
9126 9168
9126 9225
9127 9169
9127 9226
9128 9227
9129 9130
9129 9228
9130 9228
9131 9170
9131 9229
9132 9171
9132 9230
9133 9231
9134 9135
9134 9232
9135 9232
9136 9172
9136 9233
9137 9173
9137 9234
9138 9235
9139 9140
9139 9236
9140 9236
9141 9174
9141 9237
9142 9175
9142 9238
9143 9239
9144 9145
9144 9177
9145 9178
9146 9147
9146 9181
9147 9182
9148 9149
9148 9185
9149 9186
9150 9151
9150 9189
9151 9190
9152 9153
9152 9193
9153 9194
9154 9155
9154 9197
9155 9198
9156 9157
9156 9201
9157 9202
9158 9159
9158 9205
9159 9206
9160 9161
9160 9209
9161 9210
9162 9163
9162 9213
9163 9214
9164 9165
9164 9217
9165 9218
9166 9167
9166 9221
9167 9222
9168 9169
9168 9225
9169 9226
9170 9171
9170 9229
9171 9230
9172 9173
9172 9233
9173 9234
9174 9175
9174 9237
9175 9238
9176 9240
9176 9241
9177 9241
9178 9242
9178 9243
9179 9244
9179 9245
9180 9246
9180 9247
9181 9247
9182 9248
9182 9249
9183 9250
9183 9251
9184 9252
9184 9253
9185 9253
9186 9254
9186 9255
9187 9256
9187 9257
9188 9258
9188 9259
9189 9259
9190 9260
9190 9261
9191 9262
9191 9263
9192 9264
9192 9265
9193 9265
9194 9266
9194 9267
9195 9268
9195 9269
9196 9270
9196 9271
9197 9271
9198 9272
9198 9273
9199 9274
9199 9275
9200 9276
9200 9277
9201 9277
9202 9278
9202 9279
9203 9280
9203 9281
9204 9282
9204 9283
9205 9283
9206 9284
9206 9285
9207 9286
9207 9287
9208 9288
9208 9289
9209 9289
9210 9290
9210 9291
9211 9292
9211 9293
9212 9294
9212 9295
9213 9295
9214 9296
9214 9297
9215 9298
9215 9299
9216 9300
9216 9301
9217 9301
9218 9302
9218 9303
9219 9304
9219 9305
9220 9306
9220 9307
9221 9307
9222 9308
9222 9309
9223 9310
9223 9311
9224 9312
9224 9313
9225 9313
9226 9314
9226 9315
9227 9316
9227 9317
9228 9318
9228 9319
9229 9319
9230 9320
9230 9321
9231 9322
9231 9323
9232 9324
9232 9325
9233 9325
9234 9326
9234 9327
9235 9328
9235 9329
9236 9330
9236 9331
9237 9331
9238 9332
9238 9333
9239 9334
9239 9335
9240 9241
9240 9336
9240 9401
9240 9402
9241 9337
9241 9401
9241 9402
9242 9243
9242 9338
9242 9403
9242 9404
9243 9339
9243 9403
9243 9404
9244 9245
9244 9339
9245 9340
9246 9247
9246 9340
9246 9405
9246 9406
9247 9341
9247 9405
9247 9406
9248 9249
9248 9342
9248 9407
9248 9408
9249 9343
9249 9407
9249 9408
9250 9251
9250 9343
9251 9344
9252 9253
9252 9344
9252 9409
9252 9410
9253 9345
9253 9409
9253 9410
9254 9255
9254 9346
9254 9411
9254 9412
9255 9347
9255 9411
9255 9412
9256 9257
9256 9347
9256 9413
9256 9414
9257 9348
9257 9413
9257 9414
9258 9259
9258 9348
9258 9415
9258 9416
9259 9349
9259 9415
9259 9416
9260 9261
9260 9350
9260 9417
9260 9418
9261 9351
9261 9417
9261 9418
9262 9263
9262 9351
9263 9352
9264 9265
9264 9352
9264 9419
9264 9420
9265 9353
9265 9419
9265 9420
9266 9267
9266 9354
9266 9421
9266 9422
9267 9355
9267 9421
9267 9422
9268 9269
9268 9355
9269 9356
9270 9271
9270 9356
9270 9423
9270 9424
9271 9357
9271 9423
9271 9424
9272 9273
9272 9358
9272 9425
9272 9426
9273 9359
9273 9425
9273 9426
9274 9275
9274 9359
9274 9427
9274 9428
9275 9360
9275 9427
9275 9428
9276 9277
9276 9360
9276 9429
9276 9430
9277 9361
9277 9429
9277 9430
9278 9279
9278 9362
9278 9431
9278 9432
9279 9363
9279 9431
9279 9432
9280 9281
9280 9363
9281 9364
9282 9283
9282 9364
9282 9433
9282 9434
9283 9365
9283 9433
9283 9434
9284 9285
9284 9366
9284 9435
9284 9436
9285 9367
9285 9435
9285 9436
9286 9287
9286 9367
9287 9368
9288 9289
9288 9368
9288 9437
9288 9438
9289 9369
9289 9437
9289 9438
9290 9291
9290 9370
9290 9439
9290 9440
9291 9371
9291 9439
9291 9440
9292 9293
9292 9371
9293 9372
9294 9295
9294 9372
9294 9441
9294 9442
9295 9373
9295 9441
9295 9442
9296 9297
9296 9374
9296 9443
9296 9444
9297 9375
9297 9443
9297 9444
9298 9299
9298 9375
9299 9376
9300 9301
9300 9376
9300 9445
9300 9446
9301 9377
9301 9445
9301 9446
9302 9303
9302 9378
9302 9447
9302 9448
9303 9379
9303 9447
9303 9448
9304 9305
9304 9379
9304 9449
9304 9450
9305 9380
9305 9449
9305 9450
9306 9307
9306 9380
9306 9451
9306 9452
9307 9381
9307 9451
9307 9452
9308 9309
9308 9382
9308 9453
9308 9454
9309 9383
9309 9453
9309 9454
9310 9311
9310 9383
9311 9384
9312 9313
9312 9384
9312 9455
9312 9456
9313 9385
9313 9455
9313 9456
9314 9315
9314 9386
9314 9457
9314 9458
9315 9387
9315 9457
9315 9458
9316 9317
9316 9387
9317 9388
9318 9319
9318 9388
9318 9459
9318 9460
9319 9389
9319 9459
9319 9460
9320 9321
9320 9390
9320 9461
9320 9462
9321 9391
9321 9461
9321 9462
9322 9323
9322 9391
9323 9392
9324 9325
9324 9392
9324 9463
9324 9464
9325 9393
9325 9463
9325 9464
9326 9327
9326 9394
9326 9465
9326 9466
9327 9395
9327 9465
9327 9466
9328 9329
9328 9395
9328 9467
9328 9468
9329 9396
9329 9467
9329 9468
9330 9331
9330 9396
9330 9469
9330 9470
9331 9397
9331 9469
9331 9470
9332 9333
9332 9398
9332 9471
9332 9472
9333 9399
9333 9471
9333 9472
9334 9335
9334 9399
9334 9473
9334 9474
9335 9400
9335 9473
9335 9474
9336 9401
9337 9338
9337 9402
9338 9403
9339 9404
9340 9405
9341 9342
9341 9406
9342 9407
9343 9408
9344 9409
9345 9346
9345 9410
9346 9411
9347 9412
9347 9413
9348 9414
9348 9415
9349 9350
9349 9416
9350 9417
9351 9418
9352 9419
9353 9354
9353 9420
9354 9421
9355 9422
9356 9423
9357 9358
9357 9424
9358 9425
9359 9426
9359 9427
9360 9428
9360 9429
9361 9362
9361 9430
9362 9431
9363 9432
9364 9433
9365 9366
9365 9434
9366 9435
9367 9436
9368 9437
9369 9370
9369 9438
9370 9439
9371 9440
9372 9441
9373 9374
9373 9442
9374 9443
9375 9444
9376 9445
9377 9378
9377 9446
9378 9447
9379 9448
9379 9449
9380 9450
9380 9451
9381 9382
9381 9452
9382 9453
9383 9454
9384 9455
9385 9386
9385 9456
9386 9457
9387 9458
9388 9459
9389 9390
9389 9460
9390 9461
9391 9462
9392 9463
9393 9394
9393 9464
9394 9465
9395 9466
9395 9467
9396 9468
9396 9469
9397 9398
9397 9470
9398 9471
9399 9472
9399 9473
9400 9474
9401 9402
9401 9475
9402 9475
9403 9404
9405 9406
9405 9476
9406 9476
9407 9408
9409 9410
9409 9477
9410 9477
9411 9412
9413 9414
9415 9416
9415 9478
9416 9478
9417 9418
9419 9420
9419 9479
9420 9479
9421 9422
9423 9424
9423 9480
9424 9480
9425 9426
9427 9428
9429 9430
9429 9481
9430 9481
9431 9432
9433 9434
9433 9482
9434 9482
9435 9436
9437 9438
9437 9483
9438 9483
9439 9440
9441 9442
9441 9484
9442 9484
9443 9444
9445 9446
9445 9485
9446 9485
9447 9448
9449 9450
9451 9452
9451 9486
9452 9486
9453 9454
9455 9456
9455 9487
9456 9487
9457 9458
9459 9460
9459 9488
9460 9488
9461 9462
9463 9464
9463 9489
9464 9489
9465 9466
9467 9468
9469 9470
9469 9490
9470 9490
9471 9472
9473 9474
