# Factoring MIS graph
n = 3848546131
n1 = 60763
n2 = 63337
k1 = 16
k2 = 16
seed = 4
type = fact_map

vertices: 9500

weights:
0 2.0
1 2.0
2 2.0
3 2.0
4 2.0
5 2.0
6 2.0
7 2.0
8 2.0
9 2.0
10 2.0
11 2.0
12 2.0
13 2.0
14 2.0
15 2.0
16 2.0
17 2.0
18 2.0
19 2.0
20 2.0
21 2.0
22 2.0
23 2.0
24 2.0
25 2.0
26 2.0
27 2.0
28 2.0
29 2.0
30 2.0
31 2.0
32 2.0
33 2.0
34 2.0
35 2.0
36 2.0
37 2.0
38 2.0
39 2.0
40 2.0
41 2.0
42 2.0
43 2.0
44 2.0
45 1.0
46 2.0
47 2.0
48 1.0
49 2.0
50 2.0
51 1.0
52 2.0
53 2.0
54 1.0
55 2.0
56 2.0
57 1.0
58 2.0
59 2.0
60 1.0
61 2.0
62 2.0
63 1.0
64 2.0
65 2.0
66 1.0
67 2.0
68 2.0
69 1.0
70 2.0
71 2.0
72 1.0
73 2.0
74 2.0
75 1.0
76 2.0
77 2.0
78 1.0
79 2.0
80 2.0
81 1.0
82 2.0
83 2.0
84 1.0
85 2.0
86 2.0
87 1.0
88 2.0
89 2.0
90 1.0
91 3.0
92 3.0
93 2.0
94 2.0
95 3.0
96 3.0
97 2.0
98 2.0
99 3.0
100 3.0
101 2.0
102 2.0
103 3.0
104 3.0
105 2.0
106 2.0
107 3.0
108 3.0
109 2.0
110 2.0
111 3.0
112 3.0
113 2.0
114 2.0
115 3.0
116 3.0
117 2.0
118 2.0
119 3.0
120 3.0
121 2.0
122 2.0
123 3.0
124 3.0
125 2.0
126 2.0
127 3.0
128 3.0
129 2.0
130 2.0
131 3.0
132 3.0
133 2.0
134 2.0
135 3.0
136 3.0
137 2.0
138 2.0
139 3.0
140 3.0
141 2.0
142 2.0
143 3.0
144 3.0
145 2.0
146 2.0
147 3.0
148 3.0
149 2.0
150 2.0
151 3.0
152 3.0
153 2.0
154 2.0
155 2.0
156 3.0
157 3.0
158 2.0
159 3.0
160 3.0
161 2.0
162 3.0
163 3.0
164 2.0
165 3.0
166 3.0
167 2.0
168 3.0
169 3.0
170 2.0
171 3.0
172 3.0
173 2.0
174 3.0
175 3.0
176 2.0
177 3.0
178 3.0
179 2.0
180 3.0
181 3.0
182 2.0
183 3.0
184 3.0
185 2.0
186 3.0
187 3.0
188 2.0
189 3.0
190 3.0
191 2.0
192 3.0
193 3.0
194 2.0
195 3.0
196 3.0
197 2.0
198 3.0
199 3.0
200 2.0
201 3.0
202 3.0
203 2.0
204 2.0
205 2.0
206 3.0
207 3.0
208 2.0
209 2.0
210 2.0
211 3.0
212 3.0
213 2.0
214 2.0
215 2.0
216 3.0
217 3.0
218 2.0
219 2.0
220 2.0
221 3.0
222 3.0
223 2.0
224 2.0
225 2.0
226 3.0
227 3.0
228 2.0
229 2.0
230 2.0
231 3.0
232 3.0
233 2.0
234 2.0
235 2.0
236 3.0
237 3.0
238 2.0
239 2.0
240 2.0
241 3.0
242 3.0
243 2.0
244 2.0
245 2.0
246 3.0
247 3.0
248 2.0
249 2.0
250 2.0
251 3.0
252 3.0
253 2.0
254 2.0
255 2.0
256 3.0
257 3.0
258 2.0
259 2.0
260 2.0
261 3.0
262 3.0
263 2.0
264 2.0
265 2.0
266 3.0
267 3.0
268 2.0
269 2.0
270 2.0
271 3.0
272 3.0
273 2.0
274 2.0
275 2.0
276 3.0
277 3.0
278 2.0
279 2.0
280 2.0
281 2.0
282 2.0
283 2.0
284 2.0
285 2.0
286 2.0
287 2.0
288 2.0
289 2.0
290 2.0
291 2.0
292 2.0
293 2.0
294 2.0
295 2.0
296 2.0
297 2.0
298 2.0
299 2.0
300 2.0
301 2.0
302 2.0
303 2.0
304 2.0
305 2.0
306 2.0
307 2.0
308 2.0
309 2.0
310 2.0
311 2.0
312 2.0
313 2.0
314 2.0
315 2.0
316 2.0
317 2.0
318 2.0
319 2.0
320 2.0
321 2.0
322 2.0
323 2.0
324 2.0
325 2.0
326 2.0
327 2.0
328 2.0
329 2.0
330 2.0
331 2.0
332 2.0
333 2.0
334 2.0
335 2.0
336 2.0
337 2.0
338 2.0
339 2.0
340 2.0
341 2.0
342 2.0
343 2.0
344 2.0
345 2.0
346 2.0
347 2.0
348 2.0
349 2.0
350 2.0
351 2.0
352 2.0
353 2.0
354 2.0
355 2.0
356 2.0
357 2.0
358 2.0
359 2.0
360 2.0
361 2.0
362 2.0
363 2.0
364 2.0
365 2.0
366 2.0
367 2.0
368 2.0
369 2.0
370 2.0
371 2.0
372 2.0
373 2.0
374 2.0
375 2.0
376 2.0
377 3.0
378 4.0
379 3.0
380 3.0
381 3.0
382 3.0
383 3.0
384 4.0
385 3.0
386 3.0
387 3.0
388 3.0
389 3.0
390 4.0
391 3.0
392 3.0
393 3.0
394 3.0
395 3.0
396 4.0
397 3.0
398 3.0
399 3.0
400 3.0
401 3.0
402 4.0
403 3.0
404 3.0
405 3.0
406 3.0
407 3.0
408 4.0
409 3.0
410 3.0
411 3.0
412 3.0
413 3.0
414 4.0
415 3.0
416 3.0
417 3.0
418 3.0
419 3.0
420 4.0
421 3.0
422 3.0
423 3.0
424 3.0
425 3.0
426 4.0
427 3.0
428 3.0
429 3.0
430 3.0
431 3.0
432 4.0
433 3.0
434 3.0
435 3.0
436 3.0
437 3.0
438 4.0
439 3.0
440 3.0
441 3.0
442 3.0
443 3.0
444 4.0
445 3.0
446 3.0
447 3.0
448 3.0
449 3.0
450 4.0
451 3.0
452 3.0
453 3.0
454 3.0
455 3.0
456 4.0
457 3.0
458 3.0
459 3.0
460 3.0
461 3.0
462 4.0
463 3.0
464 3.0
465 3.0
466 3.0
467 3.0
468 4.0
469 3.0
470 3.0
471 3.0
472 3.0
473 1.0
474 2.0
475 2.0
476 2.0
477 2.0
478 2.0
479 2.0
480 2.0
481 2.0
482 2.0
483 2.0
484 2.0
485 2.0
486 2.0
487 2.0
488 2.0
489 2.0
490 2.0
491 2.0
492 2.0
493 2.0
494 2.0
495 2.0
496 2.0
497 2.0
498 2.0
499 2.0
500 2.0
501 2.0
502 2.0
503 2.0
504 2.0
505 2.0
506 2.0
507 2.0
508 2.0
509 2.0
510 2.0
511 2.0
512 2.0
513 2.0
514 2.0
515 2.0
516 2.0
517 2.0
518 2.0
519 2.0
520 2.0
521 2.0
522 2.0
523 2.0
524 2.0
525 2.0
526 2.0
527 2.0
528 2.0
529 2.0
530 2.0
531 2.0
532 2.0
533 2.0
534 2.0
535 2.0
536 2.0
537 1.0
538 3.0
539 3.0
540 3.0
541 3.0
542 3.0
543 3.0
544 3.0
545 3.0
546 3.0
547 3.0
548 3.0
549 3.0
550 3.0
551 3.0
552 3.0
553 3.0
554 3.0
555 3.0
556 3.0
557 3.0
558 3.0
559 3.0
560 3.0
561 3.0
562 3.0
563 3.0
564 3.0
565 3.0
566 3.0
567 3.0
568 3.0
569 3.0
570 3.0
571 3.0
572 3.0
573 3.0
574 3.0
575 3.0
576 3.0
577 3.0
578 3.0
579 3.0
580 3.0
581 3.0
582 3.0
583 3.0
584 3.0
585 3.0
586 3.0
587 3.0
588 3.0
589 3.0
590 3.0
591 3.0
592 3.0
593 3.0
594 3.0
595 3.0
596 3.0
597 3.0
598 3.0
599 3.0
600 3.0
601 3.0
602 3.0
603 3.0
604 3.0
605 3.0
606 3.0
607 3.0
608 3.0
609 3.0
610 3.0
611 3.0
612 3.0
613 3.0
614 3.0
615 3.0
616 3.0
617 3.0
618 3.0
619 3.0
620 3.0
621 3.0
622 3.0
623 3.0
624 3.0
625 3.0
626 3.0
627 3.0
628 3.0
629 3.0
630 3.0
631 3.0
632 2.0
633 2.0
634 2.0
635 2.0
636 2.0
637 2.0
638 2.0
639 2.0
640 2.0
641 2.0
642 2.0
643 2.0
644 2.0
645 2.0
646 2.0
647 2.0
648 2.0
649 2.0
650 2.0
651 2.0
652 2.0
653 2.0
654 2.0
655 2.0
656 2.0
657 2.0
658 2.0
659 2.0
660 2.0
661 2.0
662 2.0
663 2.0
664 2.0
665 2.0
666 2.0
667 2.0
668 2.0
669 2.0
670 2.0
671 2.0
672 2.0
673 2.0
674 2.0
675 2.0
676 2.0
677 2.0
678 2.0
679 3.0
680 3.0
681 2.0
682 2.0
683 3.0
684 3.0
685 2.0
686 2.0
687 3.0
688 3.0
689 2.0
690 2.0
691 3.0
692 3.0
693 2.0
694 2.0
695 3.0
696 3.0
697 2.0
698 2.0
699 3.0
700 3.0
701 2.0
702 2.0
703 3.0
704 3.0
705 2.0
706 2.0
707 3.0
708 3.0
709 2.0
710 2.0
711 3.0
712 3.0
713 2.0
714 2.0
715 3.0
716 3.0
717 2.0
718 2.0
719 3.0
720 3.0
721 2.0
722 2.0
723 3.0
724 3.0
725 2.0
726 2.0
727 3.0
728 3.0
729 2.0
730 2.0
731 3.0
732 3.0
733 2.0
734 2.0
735 3.0
736 3.0
737 2.0
738 2.0
739 3.0
740 3.0
741 2.0
742 2.0
743 2.0
744 3.0
745 3.0
746 2.0
747 3.0
748 3.0
749 2.0
750 3.0
751 3.0
752 2.0
753 3.0
754 3.0
755 2.0
756 3.0
757 3.0
758 2.0
759 3.0
760 3.0
761 2.0
762 3.0
763 3.0
764 2.0
765 3.0
766 3.0
767 2.0
768 3.0
769 3.0
770 2.0
771 3.0
772 3.0
773 2.0
774 3.0
775 3.0
776 2.0
777 3.0
778 3.0
779 2.0
780 3.0
781 3.0
782 2.0
783 3.0
784 3.0
785 2.0
786 3.0
787 3.0
788 2.0
789 3.0
790 3.0
791 3.0
792 3.0
793 2.0
794 2.0
795 2.0
796 3.0
797 3.0
798 2.0
799 2.0
800 2.0
801 3.0
802 3.0
803 2.0
804 2.0
805 2.0
806 3.0
807 3.0
808 2.0
809 2.0
810 2.0
811 3.0
812 3.0
813 2.0
814 2.0
815 2.0
816 3.0
817 3.0
818 2.0
819 2.0
820 2.0
821 3.0
822 3.0
823 2.0
824 2.0
825 2.0
826 3.0
827 3.0
828 2.0
829 2.0
830 2.0
831 3.0
832 3.0
833 2.0
834 2.0
835 2.0
836 3.0
837 3.0
838 2.0
839 2.0
840 2.0
841 3.0
842 3.0
843 2.0
844 2.0
845 2.0
846 3.0
847 3.0
848 2.0
849 2.0
850 2.0
851 3.0
852 3.0
853 2.0
854 2.0
855 2.0
856 3.0
857 3.0
858 2.0
859 2.0
860 2.0
861 3.0
862 3.0
863 2.0
864 2.0
865 2.0
866 3.0
867 3.0
868 2.0
869 2.0
870 2.0
871 2.0
872 2.0
873 2.0
874 2.0
875 2.0
876 2.0
877 2.0
878 2.0
879 2.0
880 2.0
881 2.0
882 2.0
883 2.0
884 2.0
885 2.0
886 2.0
887 2.0
888 2.0
889 2.0
890 2.0
891 2.0
892 2.0
893 2.0
894 2.0
895 2.0
896 2.0
897 2.0
898 2.0
899 2.0
900 2.0
901 2.0
902 2.0
903 2.0
904 2.0
905 2.0
906 2.0
907 2.0
908 2.0
909 2.0
910 2.0
911 2.0
912 2.0
913 2.0
914 2.0
915 2.0
916 2.0
917 2.0
918 2.0
919 2.0
920 2.0
921 2.0
922 2.0
923 2.0
924 2.0
925 2.0
926 2.0
927 2.0
928 2.0
929 2.0
930 2.0
931 2.0
932 2.0
933 2.0
934 2.0
935 2.0
936 2.0
937 2.0
938 2.0
939 2.0
940 2.0
941 2.0
942 2.0
943 2.0
944 2.0
945 2.0
946 2.0
947 2.0
948 2.0
949 2.0
950 2.0
951 2.0
952 2.0
953 2.0
954 2.0
955 2.0
956 2.0
957 2.0
958 2.0
959 2.0
960 2.0
961 2.0
962 2.0
963 2.0
964 2.0
965 2.0
966 2.0
967 3.0
968 4.0
969 3.0
970 3.0
971 3.0
972 3.0
973 3.0
974 4.0
975 3.0
976 3.0
977 3.0
978 3.0
979 3.0
980 4.0
981 3.0
982 3.0
983 3.0
984 3.0
985 3.0
986 4.0
987 3.0
988 3.0
989 3.0
990 3.0
991 3.0
992 4.0
993 3.0
994 3.0
995 3.0
996 3.0
997 3.0
998 4.0
999 3.0
1000 3.0
1001 3.0
1002 3.0
1003 3.0
1004 4.0
1005 3.0
1006 3.0
1007 3.0
1008 3.0
1009 3.0
1010 4.0
1011 3.0
1012 3.0
1013 3.0
1014 3.0
1015 3.0
1016 4.0
1017 3.0
1018 3.0
1019 3.0
1020 3.0
1021 3.0
1022 4.0
1023 3.0
1024 3.0
1025 3.0
1026 3.0
1027 3.0
1028 4.0
1029 3.0
1030 3.0
1031 3.0
1032 3.0
1033 3.0
1034 4.0
1035 3.0
1036 3.0
1037 3.0
1038 3.0
1039 3.0
1040 4.0
1041 3.0
1042 3.0
1043 3.0
1044 3.0
1045 3.0
1046 4.0
1047 3.0
1048 3.0
1049 3.0
1050 3.0
1051 3.0
1052 4.0
1053 3.0
1054 3.0
1055 3.0
1056 3.0
1057 3.0
1058 4.0
1059 3.0
1060 3.0
1061 3.0
1062 3.0
1063 1.0
1064 2.0
1065 2.0
1066 2.0
1067 2.0
1068 2.0
1069 2.0
1070 2.0
1071 2.0
1072 2.0
1073 2.0
1074 2.0
1075 2.0
1076 2.0
1077 2.0
1078 2.0
1079 2.0
1080 2.0
1081 2.0
1082 2.0
1083 2.0
1084 2.0
1085 2.0
1086 2.0
1087 2.0
1088 2.0
1089 2.0
1090 2.0
1091 2.0
1092 2.0
1093 2.0
1094 2.0
1095 2.0
1096 2.0
1097 2.0
1098 2.0
1099 2.0
1100 2.0
1101 2.0
1102 2.0
1103 2.0
1104 2.0
1105 2.0
1106 2.0
1107 2.0
1108 2.0
1109 2.0
1110 2.0
1111 2.0
1112 2.0
1113 2.0
1114 2.0
1115 2.0
1116 2.0
1117 2.0
1118 2.0
1119 2.0
1120 2.0
1121 2.0
1122 2.0
1123 2.0
1124 2.0
1125 2.0
1126 2.0
1127 1.0
1128 3.0
1129 3.0
1130 3.0
1131 3.0
1132 3.0
1133 3.0
1134 3.0
1135 3.0
1136 3.0
1137 3.0
1138 3.0
1139 3.0
1140 3.0
1141 3.0
1142 3.0
1143 3.0
1144 3.0
1145 3.0
1146 3.0
1147 3.0
1148 3.0
1149 3.0
1150 3.0
1151 3.0
1152 3.0
1153 3.0
1154 3.0
1155 3.0
1156 3.0
1157 3.0
1158 3.0
1159 3.0
1160 3.0
1161 3.0
1162 3.0
1163 3.0
1164 3.0
1165 3.0
1166 3.0
1167 3.0
1168 3.0
1169 3.0
1170 3.0
1171 3.0
1172 3.0
1173 3.0
1174 3.0
1175 3.0
1176 3.0
1177 3.0
1178 3.0
1179 3.0
1180 3.0
1181 3.0
1182 3.0
1183 3.0
1184 3.0
1185 3.0
1186 3.0
1187 3.0
1188 3.0
1189 3.0
1190 3.0
1191 3.0
1192 3.0
1193 3.0
1194 3.0
1195 3.0
1196 3.0
1197 3.0
1198 3.0
1199 3.0
1200 3.0
1201 3.0
1202 3.0
1203 3.0
1204 3.0
1205 3.0
1206 3.0
1207 3.0
1208 3.0
1209 3.0
1210 3.0
1211 3.0
1212 3.0
1213 3.0
1214 3.0
1215 3.0
1216 3.0
1217 3.0
1218 3.0
1219 3.0
1220 3.0
1221 3.0
1222 2.0
1223 2.0
1224 2.0
1225 2.0
1226 2.0
1227 2.0
1228 2.0
1229 2.0
1230 2.0
1231 2.0
1232 2.0
1233 2.0
1234 2.0
1235 2.0
1236 2.0
1237 2.0
1238 2.0
1239 2.0
1240 2.0
1241 2.0
1242 2.0
1243 2.0
1244 2.0
1245 2.0
1246 2.0
1247 2.0
1248 2.0
1249 2.0
1250 2.0
1251 2.0
1252 2.0
1253 2.0
1254 2.0
1255 2.0
1256 2.0
1257 2.0
1258 2.0
1259 2.0
1260 2.0
1261 2.0
1262 2.0
1263 2.0
1264 2.0
1265 2.0
1266 2.0
1267 2.0
1268 2.0
1269 3.0
1270 3.0
1271 2.0
1272 2.0
1273 3.0
1274 3.0
1275 2.0
1276 2.0
1277 3.0
1278 3.0
1279 2.0
1280 2.0
1281 3.0
1282 3.0
1283 2.0
1284 2.0
1285 3.0
1286 3.0
1287 2.0
1288 2.0
1289 3.0
1290 3.0
1291 2.0
1292 2.0
1293 3.0
1294 3.0
1295 2.0
1296 2.0
1297 3.0
1298 3.0
1299 2.0
1300 2.0
1301 3.0
1302 3.0
1303 2.0
1304 2.0
1305 3.0
1306 3.0
1307 2.0
1308 2.0
1309 3.0
1310 3.0
1311 2.0
1312 2.0
1313 3.0
1314 3.0
1315 2.0
1316 2.0
1317 3.0
1318 3.0
1319 2.0
1320 2.0
1321 3.0
1322 3.0
1323 2.0
1324 2.0
1325 3.0
1326 3.0
1327 2.0
1328 2.0
1329 3.0
1330 3.0
1331 2.0
1332 2.0
1333 2.0
1334 3.0
1335 3.0
1336 2.0
1337 3.0
1338 3.0
1339 2.0
1340 3.0
1341 3.0
1342 2.0
1343 3.0
1344 3.0
1345 2.0
1346 3.0
1347 3.0
1348 2.0
1349 3.0
1350 3.0
1351 2.0
1352 3.0
1353 3.0
1354 2.0
1355 3.0
1356 3.0
1357 2.0
1358 3.0
1359 3.0
1360 2.0
1361 3.0
1362 3.0
1363 2.0
1364 3.0
1365 3.0
1366 2.0
1367 3.0
1368 3.0
1369 2.0
1370 3.0
1371 3.0
1372 2.0
1373 3.0
1374 3.0
1375 2.0
1376 3.0
1377 3.0
1378 2.0
1379 3.0
1380 3.0
1381 3.0
1382 3.0
1383 2.0
1384 2.0
1385 2.0
1386 3.0
1387 3.0
1388 2.0
1389 2.0
1390 2.0
1391 3.0
1392 3.0
1393 2.0
1394 2.0
1395 2.0
1396 3.0
1397 3.0
1398 2.0
1399 2.0
1400 2.0
1401 3.0
1402 3.0
1403 2.0
1404 2.0
1405 2.0
1406 3.0
1407 3.0
1408 2.0
1409 2.0
1410 2.0
1411 3.0
1412 3.0
1413 2.0
1414 2.0
1415 2.0
1416 3.0
1417 3.0
1418 2.0
1419 2.0
1420 2.0
1421 3.0
1422 3.0
1423 2.0
1424 2.0
1425 2.0
1426 3.0
1427 3.0
1428 2.0
1429 2.0
1430 2.0
1431 3.0
1432 3.0
1433 2.0
1434 2.0
1435 2.0
1436 3.0
1437 3.0
1438 2.0
1439 2.0
1440 2.0
1441 3.0
1442 3.0
1443 2.0
1444 2.0
1445 2.0
1446 3.0
1447 3.0
1448 2.0
1449 2.0
1450 2.0
1451 3.0
1452 3.0
1453 2.0
1454 2.0
1455 2.0
1456 3.0
1457 3.0
1458 2.0
1459 2.0
1460 2.0
1461 2.0
1462 2.0
1463 2.0
1464 2.0
1465 2.0
1466 2.0
1467 2.0
1468 2.0
1469 2.0
1470 2.0
1471 2.0
1472 2.0
1473 2.0
1474 2.0
1475 2.0
1476 2.0
1477 2.0
1478 2.0
1479 2.0
1480 2.0
1481 2.0
1482 2.0
1483 2.0
1484 2.0
1485 2.0
1486 2.0
1487 2.0
1488 2.0
1489 2.0
1490 2.0
1491 2.0
1492 2.0
1493 2.0
1494 2.0
1495 2.0
1496 2.0
1497 2.0
1498 2.0
1499 2.0
1500 2.0
1501 2.0
1502 2.0
1503 2.0
1504 2.0
1505 2.0
1506 2.0
1507 2.0
1508 2.0
1509 2.0
1510 2.0
1511 2.0
1512 2.0
1513 2.0
1514 2.0
1515 2.0
1516 2.0
1517 2.0
1518 2.0
1519 2.0
1520 2.0
1521 2.0
1522 2.0
1523 2.0
1524 2.0
1525 2.0
1526 2.0
1527 2.0
1528 2.0
1529 2.0
1530 2.0
1531 2.0
1532 2.0
1533 2.0
1534 2.0
1535 2.0
1536 2.0
1537 2.0
1538 2.0
1539 2.0
1540 2.0
1541 2.0
1542 2.0
1543 2.0
1544 2.0
1545 2.0
1546 2.0
1547 2.0
1548 2.0
1549 2.0
1550 2.0
1551 2.0
1552 2.0
1553 2.0
1554 2.0
1555 2.0
1556 2.0
1557 3.0
1558 4.0
1559 3.0
1560 3.0
1561 3.0
1562 3.0
1563 3.0
1564 4.0
1565 3.0
1566 3.0
1567 3.0
1568 3.0
1569 3.0
1570 4.0
1571 3.0
1572 3.0
1573 3.0
1574 3.0
1575 3.0
1576 4.0
1577 3.0
1578 3.0
1579 3.0
1580 3.0
1581 3.0
1582 4.0
1583 3.0
1584 3.0
1585 3.0
1586 3.0
1587 3.0
1588 4.0
1589 3.0
1590 3.0
1591 3.0
1592 3.0
1593 3.0
1594 4.0
1595 3.0
1596 3.0
1597 3.0
1598 3.0
1599 3.0
1600 4.0
1601 3.0
1602 3.0
1603 3.0
1604 3.0
1605 3.0
1606 4.0
1607 3.0
1608 3.0
1609 3.0
1610 3.0
1611 3.0
1612 4.0
1613 3.0
1614 3.0
1615 3.0
1616 3.0
1617 3.0
1618 4.0
1619 3.0
1620 3.0
1621 3.0
1622 3.0
1623 3.0
1624 4.0
1625 3.0
1626 3.0
1627 3.0
1628 3.0
1629 3.0
1630 4.0
1631 3.0
1632 3.0
1633 3.0
1634 3.0
1635 3.0
1636 4.0
1637 3.0
1638 3.0
1639 3.0
1640 3.0
1641 3.0
1642 4.0
1643 3.0
1644 3.0
1645 3.0
1646 3.0
1647 3.0
1648 4.0
1649 3.0
1650 3.0
1651 3.0
1652 3.0
1653 1.0
1654 2.0
1655 2.0
1656 2.0
1657 2.0
1658 2.0
1659 2.0
1660 2.0
1661 2.0
1662 2.0
1663 2.0
1664 2.0
1665 2.0
1666 2.0
1667 2.0
1668 2.0
1669 2.0
1670 2.0
1671 2.0
1672 2.0
1673 2.0
1674 2.0
1675 2.0
1676 2.0
1677 2.0
1678 2.0
1679 2.0
1680 2.0
1681 2.0
1682 2.0
1683 2.0
1684 2.0
1685 2.0
1686 2.0
1687 2.0
1688 2.0
1689 2.0
1690 2.0
1691 2.0
1692 2.0
1693 2.0
1694 2.0
1695 2.0
1696 2.0
1697 2.0
1698 2.0
1699 2.0
1700 2.0
1701 2.0
1702 2.0
1703 2.0
1704 2.0
1705 2.0
1706 2.0
1707 2.0
1708 2.0
1709 2.0
1710 2.0
1711 2.0
1712 2.0
1713 2.0
1714 2.0
1715 2.0
1716 2.0
1717 1.0
1718 3.0
1719 3.0
1720 3.0
1721 3.0
1722 3.0
1723 3.0
1724 3.0
1725 3.0
1726 3.0
1727 3.0
1728 3.0
1729 3.0
1730 3.0
1731 3.0
1732 3.0
1733 3.0
1734 3.0
1735 3.0
1736 3.0
1737 3.0
1738 3.0
1739 3.0
1740 3.0
1741 3.0
1742 3.0
1743 3.0
1744 3.0
1745 3.0
1746 3.0
1747 3.0
1748 3.0
1749 3.0
1750 3.0
1751 3.0
1752 3.0
1753 3.0
1754 3.0
1755 3.0
1756 3.0
1757 3.0
1758 3.0
1759 3.0
1760 3.0
1761 3.0
1762 3.0
1763 3.0
1764 3.0
1765 3.0
1766 3.0
1767 3.0
1768 3.0
1769 3.0
1770 3.0
1771 3.0
1772 3.0
1773 3.0
1774 3.0
1775 3.0
1776 3.0
1777 3.0
1778 3.0
1779 3.0
1780 3.0
1781 3.0
1782 3.0
1783 3.0
1784 3.0
1785 3.0
1786 3.0
1787 3.0
1788 3.0
1789 3.0
1790 3.0
1791 3.0
1792 3.0
1793 3.0
1794 3.0
1795 3.0
1796 3.0
1797 3.0
1798 3.0
1799 3.0
1800 3.0
1801 3.0
1802 3.0
1803 3.0
1804 3.0
1805 3.0
1806 3.0
1807 3.0
1808 3.0
1809 3.0
1810 3.0
1811 3.0
1812 3.0
1813 3.0
1814 2.0
1815 2.0
1816 2.0
1817 2.0
1818 2.0
1819 2.0
1820 2.0
1821 2.0
1822 2.0
1823 2.0
1824 2.0
1825 2.0
1826 2.0
1827 2.0
1828 2.0
1829 2.0
1830 2.0
1831 2.0
1832 2.0
1833 2.0
1834 2.0
1835 2.0
1836 2.0
1837 2.0
1838 2.0
1839 2.0
1840 2.0
1841 2.0
1842 2.0
1843 2.0
1844 2.0
1845 2.0
1846 2.0
1847 2.0
1848 2.0
1849 2.0
1850 2.0
1851 2.0
1852 2.0
1853 2.0
1854 2.0
1855 2.0
1856 2.0
1857 2.0
1858 2.0
1859 2.0
1860 2.0
1861 3.0
1862 3.0
1863 2.0
1864 2.0
1865 3.0
1866 3.0
1867 2.0
1868 2.0
1869 3.0
1870 3.0
1871 2.0
1872 2.0
1873 3.0
1874 3.0
1875 2.0
1876 2.0
1877 3.0
1878 3.0
1879 2.0
1880 2.0
1881 3.0
1882 3.0
1883 2.0
1884 2.0
1885 3.0
1886 3.0
1887 2.0
1888 2.0
1889 3.0
1890 3.0
1891 2.0
1892 2.0
1893 3.0
1894 3.0
1895 2.0
1896 2.0
1897 3.0
1898 3.0
1899 2.0
1900 2.0
1901 3.0
1902 3.0
1903 2.0
1904 2.0
1905 3.0
1906 3.0
1907 2.0
1908 2.0
1909 3.0
1910 3.0
1911 2.0
1912 2.0
1913 3.0
1914 3.0
1915 2.0
1916 2.0
1917 3.0
1918 3.0
1919 2.0
1920 2.0
1921 3.0
1922 3.0
1923 2.0
1924 2.0
1925 2.0
1926 3.0
1927 3.0
1928 2.0
1929 3.0
1930 3.0
1931 2.0
1932 3.0
1933 3.0
1934 2.0
1935 3.0
1936 3.0
1937 2.0
1938 3.0
1939 3.0
1940 2.0
1941 3.0
1942 3.0
1943 2.0
1944 3.0
1945 3.0
1946 2.0
1947 3.0
1948 3.0
1949 2.0
1950 3.0
1951 3.0
1952 2.0
1953 3.0
1954 3.0
1955 2.0
1956 3.0
1957 3.0
1958 2.0
1959 3.0
1960 3.0
1961 2.0
1962 3.0
1963 3.0
1964 2.0
1965 3.0
1966 3.0
1967 2.0
1968 3.0
1969 3.0
1970 2.0
1971 3.0
1972 3.0
1973 3.0
1974 3.0
1975 2.0
1976 2.0
1977 2.0
1978 3.0
1979 3.0
1980 2.0
1981 2.0
1982 2.0
1983 3.0
1984 3.0
1985 2.0
1986 2.0
1987 2.0
1988 3.0
1989 3.0
1990 2.0
1991 2.0
1992 2.0
1993 3.0
1994 3.0
1995 2.0
1996 2.0
1997 2.0
1998 3.0
1999 3.0
2000 2.0
2001 2.0
2002 2.0
2003 3.0
2004 3.0
2005 2.0
2006 2.0
2007 2.0
2008 3.0
2009 3.0
2010 2.0
2011 2.0
2012 2.0
2013 3.0
2014 3.0
2015 2.0
2016 2.0
2017 2.0
2018 3.0
2019 3.0
2020 2.0
2021 2.0
2022 2.0
2023 3.0
2024 3.0
2025 2.0
2026 2.0
2027 2.0
2028 3.0
2029 3.0
2030 2.0
2031 2.0
2032 2.0
2033 3.0
2034 3.0
2035 2.0
2036 2.0
2037 2.0
2038 3.0
2039 3.0
2040 2.0
2041 2.0
2042 2.0
2043 3.0
2044 3.0
2045 2.0
2046 2.0
2047 2.0
2048 3.0
2049 3.0
2050 2.0
2051 2.0
2052 2.0
2053 2.0
2054 2.0
2055 2.0
2056 2.0
2057 2.0
2058 2.0
2059 2.0
2060 2.0
2061 2.0
2062 2.0
2063 2.0
2064 2.0
2065 2.0
2066 2.0
2067 2.0
2068 2.0
2069 2.0
2070 2.0
2071 2.0
2072 2.0
2073 2.0
2074 2.0
2075 2.0
2076 2.0
2077 2.0
2078 2.0
2079 2.0
2080 2.0
2081 2.0
2082 2.0
2083 2.0
2084 2.0
2085 2.0
2086 2.0
2087 2.0
2088 2.0
2089 2.0
2090 2.0
2091 2.0
2092 2.0
2093 2.0
2094 2.0
2095 2.0
2096 2.0
2097 2.0
2098 2.0
2099 2.0
2100 2.0
2101 2.0
2102 2.0
2103 2.0
2104 2.0
2105 2.0
2106 2.0
2107 2.0
2108 2.0
2109 2.0
2110 2.0
2111 2.0
2112 2.0
2113 2.0
2114 2.0
2115 2.0
2116 2.0
2117 2.0
2118 2.0
2119 2.0
2120 2.0
2121 2.0
2122 2.0
2123 2.0
2124 2.0
2125 2.0
2126 2.0
2127 2.0
2128 2.0
2129 2.0
2130 2.0
2131 2.0
2132 2.0
2133 2.0
2134 2.0
2135 2.0
2136 2.0
2137 2.0
2138 2.0
2139 2.0
2140 2.0
2141 2.0
2142 2.0
2143 2.0
2144 2.0
2145 2.0
2146 2.0
2147 2.0
2148 2.0
2149 3.0
2150 4.0
2151 3.0
2152 3.0
2153 3.0
2154 3.0
2155 3.0
2156 4.0
2157 3.0
2158 3.0
2159 3.0
2160 3.0
2161 3.0
2162 4.0
2163 3.0
2164 3.0
2165 3.0
2166 3.0
2167 3.0
2168 4.0
2169 3.0
2170 3.0
2171 3.0
2172 3.0
2173 3.0
2174 4.0
2175 3.0
2176 3.0
2177 3.0
2178 3.0
2179 3.0
2180 4.0
2181 3.0
2182 3.0
2183 3.0
2184 3.0
2185 3.0
2186 4.0
2187 3.0
2188 3.0
2189 3.0
2190 3.0
2191 3.0
2192 4.0
2193 3.0
2194 3.0
2195 3.0
2196 3.0
2197 3.0
2198 4.0
2199 3.0
2200 3.0
2201 3.0
2202 3.0
2203 3.0
2204 4.0
2205 3.0
2206 3.0
2207 3.0
2208 3.0
2209 3.0
2210 4.0
2211 3.0
2212 3.0
2213 3.0
2214 3.0
2215 3.0
2216 4.0
2217 3.0
2218 3.0
2219 3.0
2220 3.0
2221 3.0
2222 4.0
2223 3.0
2224 3.0
2225 3.0
2226 3.0
2227 3.0
2228 4.0
2229 3.0
2230 3.0
2231 3.0
2232 3.0
2233 3.0
2234 4.0
2235 3.0
2236 3.0
2237 3.0
2238 3.0
2239 3.0
2240 4.0
2241 3.0
2242 3.0
2243 3.0
2244 3.0
2245 1.0
2246 2.0
2247 2.0
2248 2.0
2249 2.0
2250 2.0
2251 2.0
2252 2.0
2253 2.0
2254 2.0
2255 2.0
2256 2.0
2257 2.0
2258 2.0
2259 2.0
2260 2.0
2261 2.0
2262 2.0
2263 2.0
2264 2.0
2265 2.0
2266 2.0
2267 2.0
2268 2.0
2269 2.0
2270 2.0
2271 2.0
2272 2.0
2273 2.0
2274 2.0
2275 2.0
2276 2.0
2277 2.0
2278 2.0
2279 2.0
2280 2.0
2281 2.0
2282 2.0
2283 2.0
2284 2.0
2285 2.0
2286 2.0
2287 2.0
2288 2.0
2289 2.0
2290 2.0
2291 2.0
2292 2.0
2293 2.0
2294 2.0
2295 2.0
2296 2.0
2297 2.0
2298 2.0
2299 2.0
2300 2.0
2301 2.0
2302 2.0
2303 2.0
2304 2.0
2305 2.0
2306 2.0
2307 2.0
2308 2.0
2309 1.0
2310 3.0
2311 3.0
2312 3.0
2313 3.0
2314 3.0
2315 3.0
2316 3.0
2317 3.0
2318 3.0
2319 3.0
2320 3.0
2321 3.0
2322 3.0
2323 3.0
2324 3.0
2325 3.0
2326 3.0
2327 3.0
2328 3.0
2329 3.0
2330 3.0
2331 3.0
2332 3.0
2333 3.0
2334 3.0
2335 3.0
2336 3.0
2337 3.0
2338 3.0
2339 3.0
2340 3.0
2341 3.0
2342 3.0
2343 3.0
2344 3.0
2345 3.0
2346 3.0
2347 3.0
2348 3.0
2349 3.0
2350 3.0
2351 3.0
2352 3.0
2353 3.0
2354 3.0
2355 3.0
2356 3.0
2357 3.0
2358 3.0
2359 3.0
2360 3.0
2361 3.0
2362 3.0
2363 3.0
2364 3.0
2365 3.0
2366 3.0
2367 3.0
2368 3.0
2369 3.0
2370 3.0
2371 3.0
2372 3.0
2373 3.0
2374 3.0
2375 3.0
2376 3.0
2377 3.0
2378 3.0
2379 3.0
2380 3.0
2381 3.0
2382 3.0
2383 3.0
2384 3.0
2385 3.0
2386 3.0
2387 3.0
2388 3.0
2389 3.0
2390 3.0
2391 3.0
2392 3.0
2393 3.0
2394 3.0
2395 3.0
2396 3.0
2397 3.0
2398 3.0
2399 3.0
2400 3.0
2401 3.0
2402 3.0
2403 3.0
2404 3.0
2405 3.0
2406 2.0
2407 2.0
2408 2.0
2409 2.0
2410 2.0
2411 2.0
2412 2.0
2413 2.0
2414 2.0
2415 2.0
2416 2.0
2417 2.0
2418 2.0
2419 2.0
2420 2.0
2421 2.0
2422 2.0
2423 2.0
2424 2.0
2425 2.0
2426 2.0
2427 2.0
2428 2.0
2429 2.0
2430 2.0
2431 2.0
2432 2.0
2433 2.0
2434 2.0
2435 2.0
2436 2.0
2437 2.0
2438 2.0
2439 2.0
2440 2.0
2441 2.0
2442 2.0
2443 2.0
2444 2.0
2445 2.0
2446 2.0
2447 2.0
2448 2.0
2449 2.0
2450 2.0
2451 2.0
2452 2.0
2453 3.0
2454 3.0
2455 2.0
2456 2.0
2457 3.0
2458 3.0
2459 2.0
2460 2.0
2461 3.0
2462 3.0
2463 2.0
2464 2.0
2465 3.0
2466 3.0
2467 2.0
2468 2.0
2469 3.0
2470 3.0
2471 2.0
2472 2.0
2473 3.0
2474 3.0
2475 2.0
2476 2.0
2477 3.0
2478 3.0
2479 2.0
2480 2.0
2481 3.0
2482 3.0
2483 2.0
2484 2.0
2485 3.0
2486 3.0
2487 2.0
2488 2.0
2489 3.0
2490 3.0
2491 2.0
2492 2.0
2493 3.0
2494 3.0
2495 2.0
2496 2.0
2497 3.0
2498 3.0
2499 2.0
2500 2.0
2501 3.0
2502 3.0
2503 2.0
2504 2.0
2505 3.0
2506 3.0
2507 2.0
2508 2.0
2509 3.0
2510 3.0
2511 2.0
2512 2.0
2513 3.0
2514 3.0
2515 2.0
2516 2.0
2517 2.0
2518 3.0
2519 3.0
2520 2.0
2521 3.0
2522 3.0
2523 2.0
2524 3.0
2525 3.0
2526 2.0
2527 3.0
2528 3.0
2529 2.0
2530 3.0
2531 3.0
2532 2.0
2533 3.0
2534 3.0
2535 2.0
2536 3.0
2537 3.0
2538 2.0
2539 3.0
2540 3.0
2541 2.0
2542 3.0
2543 3.0
2544 2.0
2545 3.0
2546 3.0
2547 2.0
2548 3.0
2549 3.0
2550 2.0
2551 3.0
2552 3.0
2553 2.0
2554 3.0
2555 3.0
2556 2.0
2557 3.0
2558 3.0
2559 2.0
2560 3.0
2561 3.0
2562 2.0
2563 3.0
2564 3.0
2565 3.0
2566 3.0
2567 2.0
2568 2.0
2569 2.0
2570 3.0
2571 3.0
2572 2.0
2573 2.0
2574 2.0
2575 3.0
2576 3.0
2577 2.0
2578 2.0
2579 2.0
2580 3.0
2581 3.0
2582 2.0
2583 2.0
2584 2.0
2585 3.0
2586 3.0
2587 2.0
2588 2.0
2589 2.0
2590 3.0
2591 3.0
2592 2.0
2593 2.0
2594 2.0
2595 3.0
2596 3.0
2597 2.0
2598 2.0
2599 2.0
2600 3.0
2601 3.0
2602 2.0
2603 2.0
2604 2.0
2605 3.0
2606 3.0
2607 2.0
2608 2.0
2609 2.0
2610 3.0
2611 3.0
2612 2.0
2613 2.0
2614 2.0
2615 3.0
2616 3.0
2617 2.0
2618 2.0
2619 2.0
2620 3.0
2621 3.0
2622 2.0
2623 2.0
2624 2.0
2625 3.0
2626 3.0
2627 2.0
2628 2.0
2629 2.0
2630 3.0
2631 3.0
2632 2.0
2633 2.0
2634 2.0
2635 3.0
2636 3.0
2637 2.0
2638 2.0
2639 2.0
2640 3.0
2641 3.0
2642 2.0
2643 2.0
2644 2.0
2645 2.0
2646 2.0
2647 2.0
2648 2.0
2649 2.0
2650 2.0
2651 2.0
2652 2.0
2653 2.0
2654 2.0
2655 2.0
2656 2.0
2657 2.0
2658 2.0
2659 2.0
2660 2.0
2661 2.0
2662 2.0
2663 2.0
2664 2.0
2665 2.0
2666 2.0
2667 2.0
2668 2.0
2669 2.0
2670 2.0
2671 2.0
2672 2.0
2673 2.0
2674 2.0
2675 2.0
2676 2.0
2677 2.0
2678 2.0
2679 2.0
2680 2.0
2681 2.0
2682 2.0
2683 2.0
2684 2.0
2685 2.0
2686 2.0
2687 2.0
2688 2.0
2689 2.0
2690 2.0
2691 2.0
2692 2.0
2693 2.0
2694 2.0
2695 2.0
2696 2.0
2697 2.0
2698 2.0
2699 2.0
2700 2.0
2701 2.0
2702 2.0
2703 2.0
2704 2.0
2705 2.0
2706 2.0
2707 2.0
2708 2.0
2709 2.0
2710 2.0
2711 2.0
2712 2.0
2713 2.0
2714 2.0
2715 2.0
2716 2.0
2717 2.0
2718 2.0
2719 2.0
2720 2.0
2721 2.0
2722 2.0
2723 2.0
2724 2.0
2725 2.0
2726 2.0
2727 2.0
2728 2.0
2729 2.0
2730 2.0
2731 2.0
2732 2.0
2733 2.0
2734 2.0
2735 2.0
2736 2.0
2737 2.0
2738 2.0
2739 2.0
2740 2.0
2741 3.0
2742 4.0
2743 3.0
2744 3.0
2745 3.0
2746 3.0
2747 3.0
2748 4.0
2749 3.0
2750 3.0
2751 3.0
2752 3.0
2753 3.0
2754 4.0
2755 3.0
2756 3.0
2757 3.0
2758 3.0
2759 3.0
2760 4.0
2761 3.0
2762 3.0
2763 3.0
2764 3.0
2765 3.0
2766 4.0
2767 3.0
2768 3.0
2769 3.0
2770 3.0
2771 3.0
2772 4.0
2773 3.0
2774 3.0
2775 3.0
2776 3.0
2777 3.0
2778 4.0
2779 3.0
2780 3.0
2781 3.0
2782 3.0
2783 3.0
2784 4.0
2785 3.0
2786 3.0
2787 3.0
2788 3.0
2789 3.0
2790 4.0
2791 3.0
2792 3.0
2793 3.0
2794 3.0
2795 3.0
2796 4.0
2797 3.0
2798 3.0
2799 3.0
2800 3.0
2801 3.0
2802 4.0
2803 3.0
2804 3.0
2805 3.0
2806 3.0
2807 3.0
2808 4.0
2809 3.0
2810 3.0
2811 3.0
2812 3.0
2813 3.0
2814 4.0
2815 3.0
2816 3.0
2817 3.0
2818 3.0
2819 3.0
2820 4.0
2821 3.0
2822 3.0
2823 3.0
2824 3.0
2825 3.0
2826 4.0
2827 3.0
2828 3.0
2829 3.0
2830 3.0
2831 3.0
2832 4.0
2833 3.0
2834 3.0
2835 3.0
2836 3.0
2837 1.0
2838 2.0
2839 2.0
2840 2.0
2841 2.0
2842 2.0
2843 2.0
2844 2.0
2845 2.0
2846 2.0
2847 2.0
2848 2.0
2849 2.0
2850 2.0
2851 2.0
2852 2.0
2853 2.0
2854 2.0
2855 2.0
2856 2.0
2857 2.0
2858 2.0
2859 2.0
2860 2.0
2861 2.0
2862 2.0
2863 2.0
2864 2.0
2865 2.0
2866 2.0
2867 2.0
2868 2.0
2869 2.0
2870 2.0
2871 2.0
2872 2.0
2873 2.0
2874 2.0
2875 2.0
2876 2.0
2877 2.0
2878 2.0
2879 2.0
2880 2.0
2881 2.0
2882 2.0
2883 2.0
2884 2.0
2885 2.0
2886 2.0
2887 2.0
2888 2.0
2889 2.0
2890 2.0
2891 2.0
2892 2.0
2893 2.0
2894 2.0
2895 2.0
2896 2.0
2897 2.0
2898 2.0
2899 2.0
2900 2.0
2901 1.0
2902 3.0
2903 3.0
2904 3.0
2905 3.0
2906 3.0
2907 3.0
2908 3.0
2909 3.0
2910 3.0
2911 3.0
2912 3.0
2913 3.0
2914 3.0
2915 3.0
2916 3.0
2917 3.0
2918 3.0
2919 3.0
2920 3.0
2921 3.0
2922 3.0
2923 3.0
2924 3.0
2925 3.0
2926 3.0
2927 3.0
2928 3.0
2929 3.0
2930 3.0
2931 3.0
2932 3.0
2933 3.0
2934 3.0
2935 3.0
2936 3.0
2937 3.0
2938 3.0
2939 3.0
2940 3.0
2941 3.0
2942 3.0
2943 3.0
2944 3.0
2945 3.0
2946 3.0
2947 3.0
2948 3.0
2949 3.0
2950 3.0
2951 3.0
2952 3.0
2953 3.0
2954 3.0
2955 3.0
2956 3.0
2957 3.0
2958 3.0
2959 3.0
2960 3.0
2961 3.0
2962 3.0
2963 3.0
2964 3.0
2965 3.0
2966 3.0
2967 3.0
2968 3.0
2969 3.0
2970 3.0
2971 3.0
2972 3.0
2973 3.0
2974 3.0
2975 3.0
2976 3.0
2977 3.0
2978 3.0
2979 3.0
2980 3.0
2981 3.0
2982 3.0
2983 3.0
2984 3.0
2985 3.0
2986 3.0
2987 3.0
2988 3.0
2989 3.0
2990 3.0
2991 3.0
2992 3.0
2993 3.0
2994 3.0
2995 3.0
2996 2.0
2997 2.0
2998 2.0
2999 2.0
3000 2.0
3001 2.0
3002 2.0
3003 2.0
3004 2.0
3005 2.0
3006 2.0
3007 2.0
3008 2.0
3009 2.0
3010 2.0
3011 2.0
3012 2.0
3013 2.0
3014 2.0
3015 2.0
3016 2.0
3017 2.0
3018 2.0
3019 2.0
3020 2.0
3021 2.0
3022 2.0
3023 2.0
3024 2.0
3025 2.0
3026 2.0
3027 2.0
3028 2.0
3029 2.0
3030 2.0
3031 2.0
3032 2.0
3033 2.0
3034 2.0
3035 2.0
3036 2.0
3037 2.0
3038 2.0
3039 2.0
3040 2.0
3041 2.0
3042 2.0
3043 3.0
3044 3.0
3045 2.0
3046 2.0
3047 3.0
3048 3.0
3049 2.0
3050 2.0
3051 3.0
3052 3.0
3053 2.0
3054 2.0
3055 3.0
3056 3.0
3057 2.0
3058 2.0
3059 3.0
3060 3.0
3061 2.0
3062 2.0
3063 3.0
3064 3.0
3065 2.0
3066 2.0
3067 3.0
3068 3.0
3069 2.0
3070 2.0
3071 3.0
3072 3.0
3073 2.0
3074 2.0
3075 3.0
3076 3.0
3077 2.0
3078 2.0
3079 3.0
3080 3.0
3081 2.0
3082 2.0
3083 3.0
3084 3.0
3085 2.0
3086 2.0
3087 3.0
3088 3.0
3089 2.0
3090 2.0
3091 3.0
3092 3.0
3093 2.0
3094 2.0
3095 3.0
3096 3.0
3097 2.0
3098 2.0
3099 3.0
3100 3.0
3101 2.0
3102 2.0
3103 3.0
3104 3.0
3105 2.0
3106 2.0
3107 2.0
3108 3.0
3109 3.0
3110 2.0
3111 3.0
3112 3.0
3113 2.0
3114 3.0
3115 3.0
3116 2.0
3117 3.0
3118 3.0
3119 2.0
3120 3.0
3121 3.0
3122 2.0
3123 3.0
3124 3.0
3125 2.0
3126 3.0
3127 3.0
3128 2.0
3129 3.0
3130 3.0
3131 2.0
3132 3.0
3133 3.0
3134 2.0
3135 3.0
3136 3.0
3137 2.0
3138 3.0
3139 3.0
3140 2.0
3141 3.0
3142 3.0
3143 2.0
3144 3.0
3145 3.0
3146 2.0
3147 3.0
3148 3.0
3149 2.0
3150 3.0
3151 3.0
3152 2.0
3153 3.0
3154 3.0
3155 3.0
3156 3.0
3157 2.0
3158 2.0
3159 2.0
3160 3.0
3161 3.0
3162 2.0
3163 2.0
3164 2.0
3165 3.0
3166 3.0
3167 2.0
3168 2.0
3169 2.0
3170 3.0
3171 3.0
3172 2.0
3173 2.0
3174 2.0
3175 3.0
3176 3.0
3177 2.0
3178 2.0
3179 2.0
3180 3.0
3181 3.0
3182 2.0
3183 2.0
3184 2.0
3185 3.0
3186 3.0
3187 2.0
3188 2.0
3189 2.0
3190 3.0
3191 3.0
3192 2.0
3193 2.0
3194 2.0
3195 3.0
3196 3.0
3197 2.0
3198 2.0
3199 2.0
3200 3.0
3201 3.0
3202 2.0
3203 2.0
3204 2.0
3205 3.0
3206 3.0
3207 2.0
3208 2.0
3209 2.0
3210 3.0
3211 3.0
3212 2.0
3213 2.0
3214 2.0
3215 3.0
3216 3.0
3217 2.0
3218 2.0
3219 2.0
3220 3.0
3221 3.0
3222 2.0
3223 2.0
3224 2.0
3225 3.0
3226 3.0
3227 2.0
3228 2.0
3229 2.0
3230 3.0
3231 3.0
3232 2.0
3233 2.0
3234 2.0
3235 2.0
3236 2.0
3237 2.0
3238 2.0
3239 2.0
3240 2.0
3241 2.0
3242 2.0
3243 2.0
3244 2.0
3245 2.0
3246 2.0
3247 2.0
3248 2.0
3249 2.0
3250 2.0
3251 2.0
3252 2.0
3253 2.0
3254 2.0
3255 2.0
3256 2.0
3257 2.0
3258 2.0
3259 2.0
3260 2.0
3261 2.0
3262 2.0
3263 2.0
3264 2.0
3265 2.0
3266 2.0
3267 2.0
3268 2.0
3269 2.0
3270 2.0
3271 2.0
3272 2.0
3273 2.0
3274 2.0
3275 2.0
3276 2.0
3277 2.0
3278 2.0
3279 2.0
3280 2.0
3281 2.0
3282 2.0
3283 2.0
3284 2.0
3285 2.0
3286 2.0
3287 2.0
3288 2.0
3289 2.0
3290 2.0
3291 2.0
3292 2.0
3293 2.0
3294 2.0
3295 2.0
3296 2.0
3297 2.0
3298 2.0
3299 2.0
3300 2.0
3301 2.0
3302 2.0
3303 2.0
3304 2.0
3305 2.0
3306 2.0
3307 2.0
3308 2.0
3309 2.0
3310 2.0
3311 2.0
3312 2.0
3313 2.0
3314 2.0
3315 2.0
3316 2.0
3317 2.0
3318 2.0
3319 2.0
3320 2.0
3321 2.0
3322 2.0
3323 2.0
3324 2.0
3325 2.0
3326 2.0
3327 2.0
3328 2.0
3329 2.0
3330 2.0
3331 3.0
3332 4.0
3333 3.0
3334 3.0
3335 3.0
3336 3.0
3337 3.0
3338 4.0
3339 3.0
3340 3.0
3341 3.0
3342 3.0
3343 3.0
3344 4.0
3345 3.0
3346 3.0
3347 3.0
3348 3.0
3349 3.0
3350 4.0
3351 3.0
3352 3.0
3353 3.0
3354 3.0
3355 3.0
3356 4.0
3357 3.0
3358 3.0
3359 3.0
3360 3.0
3361 3.0
3362 4.0
3363 3.0
3364 3.0
3365 3.0
3366 3.0
3367 3.0
3368 4.0
3369 3.0
3370 3.0
3371 3.0
3372 3.0
3373 3.0
3374 4.0
3375 3.0
3376 3.0
3377 3.0
3378 3.0
3379 3.0
3380 4.0
3381 3.0
3382 3.0
3383 3.0
3384 3.0
3385 3.0
3386 4.0
3387 3.0
3388 3.0
3389 3.0
3390 3.0
3391 3.0
3392 4.0
3393 3.0
3394 3.0
3395 3.0
3396 3.0
3397 3.0
3398 4.0
3399 3.0
3400 3.0
3401 3.0
3402 3.0
3403 3.0
3404 4.0
3405 3.0
3406 3.0
3407 3.0
3408 3.0
3409 3.0
3410 4.0
3411 3.0
3412 3.0
3413 3.0
3414 3.0
3415 3.0
3416 4.0
3417 3.0
3418 3.0
3419 3.0
3420 3.0
3421 3.0
3422 4.0
3423 3.0
3424 3.0
3425 3.0
3426 3.0
3427 1.0
3428 2.0
3429 2.0
3430 2.0
3431 2.0
3432 2.0
3433 2.0
3434 2.0
3435 2.0
3436 2.0
3437 2.0
3438 2.0
3439 2.0
3440 2.0
3441 2.0
3442 2.0
3443 2.0
3444 2.0
3445 2.0
3446 2.0
3447 2.0
3448 2.0
3449 2.0
3450 2.0
3451 2.0
3452 2.0
3453 2.0
3454 2.0
3455 2.0
3456 2.0
3457 2.0
3458 2.0
3459 2.0
3460 2.0
3461 2.0
3462 2.0
3463 2.0
3464 2.0
3465 2.0
3466 2.0
3467 2.0
3468 2.0
3469 2.0
3470 2.0
3471 2.0
3472 2.0
3473 2.0
3474 2.0
3475 2.0
3476 2.0
3477 2.0
3478 2.0
3479 2.0
3480 2.0
3481 2.0
3482 2.0
3483 2.0
3484 2.0
3485 2.0
3486 2.0
3487 2.0
3488 2.0
3489 2.0
3490 2.0
3491 1.0
3492 3.0
3493 3.0
3494 3.0
3495 3.0
3496 3.0
3497 3.0
3498 3.0
3499 3.0
3500 3.0
3501 3.0
3502 3.0
3503 3.0
3504 3.0
3505 3.0
3506 3.0
3507 3.0
3508 3.0
3509 3.0
3510 3.0
3511 3.0
3512 3.0
3513 3.0
3514 3.0
3515 3.0
3516 3.0
3517 3.0
3518 3.0
3519 3.0
3520 3.0
3521 3.0
3522 3.0
3523 3.0
3524 3.0
3525 3.0
3526 3.0
3527 3.0
3528 3.0
3529 3.0
3530 3.0
3531 3.0
3532 3.0
3533 3.0
3534 3.0
3535 3.0
3536 3.0
3537 3.0
3538 3.0
3539 3.0
3540 3.0
3541 3.0
3542 3.0
3543 3.0
3544 3.0
3545 3.0
3546 3.0
3547 3.0
3548 3.0
3549 3.0
3550 3.0
3551 3.0
3552 3.0
3553 3.0
3554 3.0
3555 3.0
3556 3.0
3557 3.0
3558 3.0
3559 3.0
3560 3.0
3561 3.0
3562 3.0
3563 3.0
3564 3.0
3565 3.0
3566 3.0
3567 3.0
3568 3.0
3569 3.0
3570 3.0
3571 3.0
3572 3.0
3573 3.0
3574 3.0
3575 3.0
3576 3.0
3577 3.0
3578 3.0
3579 3.0
3580 3.0
3581 3.0
3582 3.0
3583 3.0
3584 3.0
3585 3.0
3586 3.0
3587 3.0
3588 2.0
3589 2.0
3590 2.0
3591 2.0
3592 2.0
3593 2.0
3594 2.0
3595 2.0
3596 2.0
3597 2.0
3598 2.0
3599 2.0
3600 2.0
3601 2.0
3602 2.0
3603 2.0
3604 2.0
3605 2.0
3606 2.0
3607 2.0
3608 2.0
3609 2.0
3610 2.0
3611 2.0
3612 2.0
3613 2.0
3614 2.0
3615 2.0
3616 2.0
3617 2.0
3618 2.0
3619 2.0
3620 2.0
3621 2.0
3622 2.0
3623 2.0
3624 2.0
3625 2.0
3626 2.0
3627 2.0
3628 2.0
3629 2.0
3630 2.0
3631 2.0
3632 2.0
3633 2.0
3634 2.0
3635 3.0
3636 3.0
3637 2.0
3638 2.0
3639 3.0
3640 3.0
3641 2.0
3642 2.0
3643 3.0
3644 3.0
3645 2.0
3646 2.0
3647 3.0
3648 3.0
3649 2.0
3650 2.0
3651 3.0
3652 3.0
3653 2.0
3654 2.0
3655 3.0
3656 3.0
3657 2.0
3658 2.0
3659 3.0
3660 3.0
3661 2.0
3662 2.0
3663 3.0
3664 3.0
3665 2.0
3666 2.0
3667 3.0
3668 3.0
3669 2.0
3670 2.0
3671 3.0
3672 3.0
3673 2.0
3674 2.0
3675 3.0
3676 3.0
3677 2.0
3678 2.0
3679 3.0
3680 3.0
3681 2.0
3682 2.0
3683 3.0
3684 3.0
3685 2.0
3686 2.0
3687 3.0
3688 3.0
3689 2.0
3690 2.0
3691 3.0
3692 3.0
3693 2.0
3694 2.0
3695 3.0
3696 3.0
3697 2.0
3698 2.0
3699 2.0
3700 3.0
3701 3.0
3702 2.0
3703 3.0
3704 3.0
3705 2.0
3706 3.0
3707 3.0
3708 2.0
3709 3.0
3710 3.0
3711 2.0
3712 3.0
3713 3.0
3714 2.0
3715 3.0
3716 3.0
3717 2.0
3718 3.0
3719 3.0
3720 2.0
3721 3.0
3722 3.0
3723 2.0
3724 3.0
3725 3.0
3726 2.0
3727 3.0
3728 3.0
3729 2.0
3730 3.0
3731 3.0
3732 2.0
3733 3.0
3734 3.0
3735 2.0
3736 3.0
3737 3.0
3738 2.0
3739 3.0
3740 3.0
3741 2.0
3742 3.0
3743 3.0
3744 2.0
3745 3.0
3746 3.0
3747 3.0
3748 3.0
3749 2.0
3750 2.0
3751 2.0
3752 3.0
3753 3.0
3754 2.0
3755 2.0
3756 2.0
3757 3.0
3758 3.0
3759 2.0
3760 2.0
3761 2.0
3762 3.0
3763 3.0
3764 2.0
3765 2.0
3766 2.0
3767 3.0
3768 3.0
3769 2.0
3770 2.0
3771 2.0
3772 3.0
3773 3.0
3774 2.0
3775 2.0
3776 2.0
3777 3.0
3778 3.0
3779 2.0
3780 2.0
3781 2.0
3782 3.0
3783 3.0
3784 2.0
3785 2.0
3786 2.0
3787 3.0
3788 3.0
3789 2.0
3790 2.0
3791 2.0
3792 3.0
3793 3.0
3794 2.0
3795 2.0
3796 2.0
3797 3.0
3798 3.0
3799 2.0
3800 2.0
3801 2.0
3802 3.0
3803 3.0
3804 2.0
3805 2.0
3806 2.0
3807 3.0
3808 3.0
3809 2.0
3810 2.0
3811 2.0
3812 3.0
3813 3.0
3814 2.0
3815 2.0
3816 2.0
3817 3.0
3818 3.0
3819 2.0
3820 2.0
3821 2.0
3822 3.0
3823 3.0
3824 2.0
3825 2.0
3826 2.0
3827 2.0
3828 2.0
3829 2.0
3830 2.0
3831 2.0
3832 2.0
3833 2.0
3834 2.0
3835 2.0
3836 2.0
3837 2.0
3838 2.0
3839 2.0
3840 2.0
3841 2.0
3842 2.0
3843 2.0
3844 2.0
3845 2.0
3846 2.0
3847 2.0
3848 2.0
3849 2.0
3850 2.0
3851 2.0
3852 2.0
3853 2.0
3854 2.0
3855 2.0
3856 2.0
3857 2.0
3858 2.0
3859 2.0
3860 2.0
3861 2.0
3862 2.0
3863 2.0
3864 2.0
3865 2.0
3866 2.0
3867 2.0
3868 2.0
3869 2.0
3870 2.0
3871 2.0
3872 2.0
3873 2.0
3874 2.0
3875 2.0
3876 2.0
3877 2.0
3878 2.0
3879 2.0
3880 2.0
3881 2.0
3882 2.0
3883 2.0
3884 2.0
3885 2.0
3886 2.0
3887 2.0
3888 2.0
3889 2.0
3890 2.0
3891 2.0
3892 2.0
3893 2.0
3894 2.0
3895 2.0
3896 2.0
3897 2.0
3898 2.0
3899 2.0
3900 2.0
3901 2.0
3902 2.0
3903 2.0
3904 2.0
3905 2.0
3906 2.0
3907 2.0
3908 2.0
3909 2.0
3910 2.0
3911 2.0
3912 2.0
3913 2.0
3914 2.0
3915 2.0
3916 2.0
3917 2.0
3918 2.0
3919 2.0
3920 2.0
3921 2.0
3922 2.0
3923 3.0
3924 4.0
3925 3.0
3926 3.0
3927 3.0
3928 3.0
3929 3.0
3930 4.0
3931 3.0
3932 3.0
3933 3.0
3934 3.0
3935 3.0
3936 4.0
3937 3.0
3938 3.0
3939 3.0
3940 3.0
3941 3.0
3942 4.0
3943 3.0
3944 3.0
3945 3.0
3946 3.0
3947 3.0
3948 4.0
3949 3.0
3950 3.0
3951 3.0
3952 3.0
3953 3.0
3954 4.0
3955 3.0
3956 3.0
3957 3.0
3958 3.0
3959 3.0
3960 4.0
3961 3.0
3962 3.0
3963 3.0
3964 3.0
3965 3.0
3966 4.0
3967 3.0
3968 3.0
3969 3.0
3970 3.0
3971 3.0
3972 4.0
3973 3.0
3974 3.0
3975 3.0
3976 3.0
3977 3.0
3978 4.0
3979 3.0
3980 3.0
3981 3.0
3982 3.0
3983 3.0
3984 4.0
3985 3.0
3986 3.0
3987 3.0
3988 3.0
3989 3.0
3990 4.0
3991 3.0
3992 3.0
3993 3.0
3994 3.0
3995 3.0
3996 4.0
3997 3.0
3998 3.0
3999 3.0
4000 3.0
4001 3.0
4002 4.0
4003 3.0
4004 3.0
4005 3.0
4006 3.0
4007 3.0
4008 4.0
4009 3.0
4010 3.0
4011 3.0
4012 3.0
4013 3.0
4014 4.0
4015 3.0
4016 3.0
4017 3.0
4018 3.0
4019 1.0
4020 2.0
4021 2.0
4022 2.0
4023 2.0
4024 2.0
4025 2.0
4026 2.0
4027 2.0
4028 2.0
4029 2.0
4030 2.0
4031 2.0
4032 2.0
4033 2.0
4034 2.0
4035 2.0
4036 2.0
4037 2.0
4038 2.0
4039 2.0
4040 2.0
4041 2.0
4042 2.0
4043 2.0
4044 2.0
4045 2.0
4046 2.0
4047 2.0
4048 2.0
4049 2.0
4050 2.0
4051 2.0
4052 2.0
4053 2.0
4054 2.0
4055 2.0
4056 2.0
4057 2.0
4058 2.0
4059 2.0
4060 2.0
4061 2.0
4062 2.0
4063 2.0
4064 2.0
4065 2.0
4066 2.0
4067 2.0
4068 2.0
4069 2.0
4070 2.0
4071 2.0
4072 2.0
4073 2.0
4074 2.0
4075 2.0
4076 2.0
4077 2.0
4078 2.0
4079 2.0
4080 2.0
4081 2.0
4082 2.0
4083 1.0
4084 3.0
4085 3.0
4086 3.0
4087 3.0
4088 3.0
4089 3.0
4090 3.0
4091 3.0
4092 3.0
4093 3.0
4094 3.0
4095 3.0
4096 3.0
4097 3.0
4098 3.0
4099 3.0
4100 3.0
4101 3.0
4102 3.0
4103 3.0
4104 3.0
4105 3.0
4106 3.0
4107 3.0
4108 3.0
4109 3.0
4110 3.0
4111 3.0
4112 3.0
4113 3.0
4114 3.0
4115 3.0
4116 3.0
4117 3.0
4118 3.0
4119 3.0
4120 3.0
4121 3.0
4122 3.0
4123 3.0
4124 3.0
4125 3.0
4126 3.0
4127 3.0
4128 3.0
4129 3.0
4130 3.0
4131 3.0
4132 3.0
4133 3.0
4134 3.0
4135 3.0
4136 3.0
4137 3.0
4138 3.0
4139 3.0
4140 3.0
4141 3.0
4142 3.0
4143 3.0
4144 3.0
4145 3.0
4146 3.0
4147 3.0
4148 3.0
4149 3.0
4150 3.0
4151 3.0
4152 3.0
4153 3.0
4154 3.0
4155 3.0
4156 3.0
4157 3.0
4158 3.0
4159 3.0
4160 3.0
4161 3.0
4162 3.0
4163 3.0
4164 3.0
4165 3.0
4166 3.0
4167 3.0
4168 3.0
4169 3.0
4170 3.0
4171 3.0
4172 3.0
4173 3.0
4174 3.0
4175 3.0
4176 3.0
4177 3.0
4178 2.0
4179 2.0
4180 2.0
4181 2.0
4182 2.0
4183 2.0
4184 2.0
4185 2.0
4186 2.0
4187 2.0
4188 2.0
4189 2.0
4190 2.0
4191 2.0
4192 2.0
4193 2.0
4194 2.0
4195 2.0
4196 2.0
4197 2.0
4198 2.0
4199 2.0
4200 2.0
4201 2.0
4202 2.0
4203 2.0
4204 2.0
4205 2.0
4206 2.0
4207 2.0
4208 2.0
4209 2.0
4210 2.0
4211 2.0
4212 2.0
4213 2.0
4214 2.0
4215 2.0
4216 2.0
4217 2.0
4218 2.0
4219 2.0
4220 2.0
4221 2.0
4222 2.0
4223 2.0
4224 2.0
4225 3.0
4226 3.0
4227 2.0
4228 2.0
4229 3.0
4230 3.0
4231 2.0
4232 2.0
4233 3.0
4234 3.0
4235 2.0
4236 2.0
4237 3.0
4238 3.0
4239 2.0
4240 2.0
4241 3.0
4242 3.0
4243 2.0
4244 2.0
4245 3.0
4246 3.0
4247 2.0
4248 2.0
4249 3.0
4250 3.0
4251 2.0
4252 2.0
4253 3.0
4254 3.0
4255 2.0
4256 2.0
4257 3.0
4258 3.0
4259 2.0
4260 2.0
4261 3.0
4262 3.0
4263 2.0
4264 2.0
4265 3.0
4266 3.0
4267 2.0
4268 2.0
4269 3.0
4270 3.0
4271 2.0
4272 2.0
4273 3.0
4274 3.0
4275 2.0
4276 2.0
4277 3.0
4278 3.0
4279 2.0
4280 2.0
4281 3.0
4282 3.0
4283 2.0
4284 2.0
4285 3.0
4286 3.0
4287 2.0
4288 2.0
4289 2.0
4290 3.0
4291 3.0
4292 2.0
4293 3.0
4294 3.0
4295 2.0
4296 3.0
4297 3.0
4298 2.0
4299 3.0
4300 3.0
4301 2.0
4302 3.0
4303 3.0
4304 2.0
4305 3.0
4306 3.0
4307 2.0
4308 3.0
4309 3.0
4310 2.0
4311 3.0
4312 3.0
4313 2.0
4314 3.0
4315 3.0
4316 2.0
4317 3.0
4318 3.0
4319 2.0
4320 3.0
4321 3.0
4322 2.0
4323 3.0
4324 3.0
4325 2.0
4326 3.0
4327 3.0
4328 2.0
4329 3.0
4330 3.0
4331 2.0
4332 3.0
4333 3.0
4334 2.0
4335 3.0
4336 3.0
4337 3.0
4338 3.0
4339 2.0
4340 2.0
4341 2.0
4342 3.0
4343 3.0
4344 2.0
4345 2.0
4346 2.0
4347 3.0
4348 3.0
4349 2.0
4350 2.0
4351 2.0
4352 3.0
4353 3.0
4354 2.0
4355 2.0
4356 2.0
4357 3.0
4358 3.0
4359 2.0
4360 2.0
4361 2.0
4362 3.0
4363 3.0
4364 2.0
4365 2.0
4366 2.0
4367 3.0
4368 3.0
4369 2.0
4370 2.0
4371 2.0
4372 3.0
4373 3.0
4374 2.0
4375 2.0
4376 2.0
4377 3.0
4378 3.0
4379 2.0
4380 2.0
4381 2.0
4382 3.0
4383 3.0
4384 2.0
4385 2.0
4386 2.0
4387 3.0
4388 3.0
4389 2.0
4390 2.0
4391 2.0
4392 3.0
4393 3.0
4394 2.0
4395 2.0
4396 2.0
4397 3.0
4398 3.0
4399 2.0
4400 2.0
4401 2.0
4402 3.0
4403 3.0
4404 2.0
4405 2.0
4406 2.0
4407 3.0
4408 3.0
4409 2.0
4410 2.0
4411 2.0
4412 3.0
4413 3.0
4414 2.0
4415 2.0
4416 2.0
4417 2.0
4418 2.0
4419 2.0
4420 2.0
4421 2.0
4422 2.0
4423 2.0
4424 2.0
4425 2.0
4426 2.0
4427 2.0
4428 2.0
4429 2.0
4430 2.0
4431 2.0
4432 2.0
4433 2.0
4434 2.0
4435 2.0
4436 2.0
4437 2.0
4438 2.0
4439 2.0
4440 2.0
4441 2.0
4442 2.0
4443 2.0
4444 2.0
4445 2.0
4446 2.0
4447 2.0
4448 2.0
4449 2.0
4450 2.0
4451 2.0
4452 2.0
4453 2.0
4454 2.0
4455 2.0
4456 2.0
4457 2.0
4458 2.0
4459 2.0
4460 2.0
4461 2.0
4462 2.0
4463 2.0
4464 2.0
4465 2.0
4466 2.0
4467 2.0
4468 2.0
4469 2.0
4470 2.0
4471 2.0
4472 2.0
4473 2.0
4474 2.0
4475 2.0
4476 2.0
4477 2.0
4478 2.0
4479 2.0
4480 2.0
4481 2.0
4482 2.0
4483 2.0
4484 2.0
4485 2.0
4486 2.0
4487 2.0
4488 2.0
4489 2.0
4490 2.0
4491 2.0
4492 2.0
4493 2.0
4494 2.0
4495 2.0
4496 2.0
4497 2.0
4498 2.0
4499 2.0
4500 2.0
4501 2.0
4502 2.0
4503 2.0
4504 2.0
4505 2.0
4506 2.0
4507 2.0
4508 2.0
4509 2.0
4510 2.0
4511 2.0
4512 2.0
4513 3.0
4514 4.0
4515 3.0
4516 3.0
4517 3.0
4518 3.0
4519 3.0
4520 4.0
4521 3.0
4522 3.0
4523 3.0
4524 3.0
4525 3.0
4526 4.0
4527 3.0
4528 3.0
4529 3.0
4530 3.0
4531 3.0
4532 4.0
4533 3.0
4534 3.0
4535 3.0
4536 3.0
4537 3.0
4538 4.0
4539 3.0
4540 3.0
4541 3.0
4542 3.0
4543 3.0
4544 4.0
4545 3.0
4546 3.0
4547 3.0
4548 3.0
4549 3.0
4550 4.0
4551 3.0
4552 3.0
4553 3.0
4554 3.0
4555 3.0
4556 4.0
4557 3.0
4558 3.0
4559 3.0
4560 3.0
4561 3.0
4562 4.0
4563 3.0
4564 3.0
4565 3.0
4566 3.0
4567 3.0
4568 4.0
4569 3.0
4570 3.0
4571 3.0
4572 3.0
4573 3.0
4574 4.0
4575 3.0
4576 3.0
4577 3.0
4578 3.0
4579 3.0
4580 4.0
4581 3.0
4582 3.0
4583 3.0
4584 3.0
4585 3.0
4586 4.0
4587 3.0
4588 3.0
4589 3.0
4590 3.0
4591 3.0
4592 4.0
4593 3.0
4594 3.0
4595 3.0
4596 3.0
4597 3.0
4598 4.0
4599 3.0
4600 3.0
4601 3.0
4602 3.0
4603 3.0
4604 4.0
4605 3.0
4606 3.0
4607 3.0
4608 3.0
4609 1.0
4610 2.0
4611 2.0
4612 2.0
4613 2.0
4614 2.0
4615 2.0
4616 2.0
4617 2.0
4618 2.0
4619 2.0
4620 2.0
4621 2.0
4622 2.0
4623 2.0
4624 2.0
4625 2.0
4626 2.0
4627 2.0
4628 2.0
4629 2.0
4630 2.0
4631 2.0
4632 2.0
4633 2.0
4634 2.0
4635 2.0
4636 2.0
4637 2.0
4638 2.0
4639 2.0
4640 2.0
4641 2.0
4642 2.0
4643 2.0
4644 2.0
4645 2.0
4646 2.0
4647 2.0
4648 2.0
4649 2.0
4650 2.0
4651 2.0
4652 2.0
4653 2.0
4654 2.0
4655 2.0
4656 2.0
4657 2.0
4658 2.0
4659 2.0
4660 2.0
4661 2.0
4662 2.0
4663 2.0
4664 2.0
4665 2.0
4666 2.0
4667 2.0
4668 2.0
4669 2.0
4670 2.0
4671 2.0
4672 2.0
4673 1.0
4674 3.0
4675 3.0
4676 3.0
4677 3.0
4678 3.0
4679 3.0
4680 3.0
4681 3.0
4682 3.0
4683 3.0
4684 3.0
4685 3.0
4686 3.0
4687 3.0
4688 3.0
4689 3.0
4690 3.0
4691 3.0
4692 3.0
4693 3.0
4694 3.0
4695 3.0
4696 3.0
4697 3.0
4698 3.0
4699 3.0
4700 3.0
4701 3.0
4702 3.0
4703 3.0
4704 3.0
4705 3.0
4706 3.0
4707 3.0
4708 3.0
4709 3.0
4710 3.0
4711 3.0
4712 3.0
4713 3.0
4714 3.0
4715 3.0
4716 3.0
4717 3.0
4718 3.0
4719 3.0
4720 3.0
4721 3.0
4722 3.0
4723 3.0
4724 3.0
4725 3.0
4726 3.0
4727 3.0
4728 3.0
4729 3.0
4730 3.0
4731 3.0
4732 3.0
4733 3.0
4734 3.0
4735 3.0
4736 3.0
4737 3.0
4738 3.0
4739 3.0
4740 3.0
4741 3.0
4742 3.0
4743 3.0
4744 3.0
4745 3.0
4746 3.0
4747 3.0
4748 3.0
4749 3.0
4750 3.0
4751 3.0
4752 3.0
4753 3.0
4754 3.0
4755 3.0
4756 3.0
4757 3.0
4758 3.0
4759 3.0
4760 3.0
4761 3.0
4762 3.0
4763 3.0
4764 3.0
4765 3.0
4766 3.0
4767 3.0
4768 3.0
4769 3.0
4770 2.0
4771 2.0
4772 2.0
4773 2.0
4774 2.0
4775 2.0
4776 2.0
4777 2.0
4778 2.0
4779 2.0
4780 2.0
4781 2.0
4782 2.0
4783 2.0
4784 2.0
4785 2.0
4786 2.0
4787 2.0
4788 2.0
4789 2.0
4790 2.0
4791 2.0
4792 2.0
4793 2.0
4794 2.0
4795 2.0
4796 2.0
4797 2.0
4798 2.0
4799 2.0
4800 2.0
4801 2.0
4802 2.0
4803 2.0
4804 2.0
4805 2.0
4806 2.0
4807 2.0
4808 2.0
4809 2.0
4810 2.0
4811 2.0
4812 2.0
4813 2.0
4814 2.0
4815 2.0
4816 2.0
4817 3.0
4818 3.0
4819 2.0
4820 2.0
4821 3.0
4822 3.0
4823 2.0
4824 2.0
4825 3.0
4826 3.0
4827 2.0
4828 2.0
4829 3.0
4830 3.0
4831 2.0
4832 2.0
4833 3.0
4834 3.0
4835 2.0
4836 2.0
4837 3.0
4838 3.0
4839 2.0
4840 2.0
4841 3.0
4842 3.0
4843 2.0
4844 2.0
4845 3.0
4846 3.0
4847 2.0
4848 2.0
4849 3.0
4850 3.0
4851 2.0
4852 2.0
4853 3.0
4854 3.0
4855 2.0
4856 2.0
4857 3.0
4858 3.0
4859 2.0
4860 2.0
4861 3.0
4862 3.0
4863 2.0
4864 2.0
4865 3.0
4866 3.0
4867 2.0
4868 2.0
4869 3.0
4870 3.0
4871 2.0
4872 2.0
4873 3.0
4874 3.0
4875 2.0
4876 2.0
4877 3.0
4878 3.0
4879 2.0
4880 2.0
4881 2.0
4882 3.0
4883 3.0
4884 2.0
4885 3.0
4886 3.0
4887 2.0
4888 3.0
4889 3.0
4890 2.0
4891 3.0
4892 3.0
4893 2.0
4894 3.0
4895 3.0
4896 2.0
4897 3.0
4898 3.0
4899 2.0
4900 3.0
4901 3.0
4902 2.0
4903 3.0
4904 3.0
4905 2.0
4906 3.0
4907 3.0
4908 2.0
4909 3.0
4910 3.0
4911 2.0
4912 3.0
4913 3.0
4914 2.0
4915 3.0
4916 3.0
4917 2.0
4918 3.0
4919 3.0
4920 2.0
4921 3.0
4922 3.0
4923 2.0
4924 3.0
4925 3.0
4926 2.0
4927 3.0
4928 3.0
4929 3.0
4930 3.0
4931 2.0
4932 2.0
4933 2.0
4934 3.0
4935 3.0
4936 2.0
4937 2.0
4938 2.0
4939 3.0
4940 3.0
4941 2.0
4942 2.0
4943 2.0
4944 3.0
4945 3.0
4946 2.0
4947 2.0
4948 2.0
4949 3.0
4950 3.0
4951 2.0
4952 2.0
4953 2.0
4954 3.0
4955 3.0
4956 2.0
4957 2.0
4958 2.0
4959 3.0
4960 3.0
4961 2.0
4962 2.0
4963 2.0
4964 3.0
4965 3.0
4966 2.0
4967 2.0
4968 2.0
4969 3.0
4970 3.0
4971 2.0
4972 2.0
4973 2.0
4974 3.0
4975 3.0
4976 2.0
4977 2.0
4978 2.0
4979 3.0
4980 3.0
4981 2.0
4982 2.0
4983 2.0
4984 3.0
4985 3.0
4986 2.0
4987 2.0
4988 2.0
4989 3.0
4990 3.0
4991 2.0
4992 2.0
4993 2.0
4994 3.0
4995 3.0
4996 2.0
4997 2.0
4998 2.0
4999 3.0
5000 3.0
5001 2.0
5002 2.0
5003 2.0
5004 3.0
5005 3.0
5006 2.0
5007 2.0
5008 2.0
5009 2.0
5010 2.0
5011 2.0
5012 2.0
5013 2.0
5014 2.0
5015 2.0
5016 2.0
5017 2.0
5018 2.0
5019 2.0
5020 2.0
5021 2.0
5022 2.0
5023 2.0
5024 2.0
5025 2.0
5026 2.0
5027 2.0
5028 2.0
5029 2.0
5030 2.0
5031 2.0
5032 2.0
5033 2.0
5034 2.0
5035 2.0
5036 2.0
5037 2.0
5038 2.0
5039 2.0
5040 2.0
5041 2.0
5042 2.0
5043 2.0
5044 2.0
5045 2.0
5046 2.0
5047 2.0
5048 2.0
5049 2.0
5050 2.0
5051 2.0
5052 2.0
5053 2.0
5054 2.0
5055 2.0
5056 2.0
5057 2.0
5058 2.0
5059 2.0
5060 2.0
5061 2.0
5062 2.0
5063 2.0
5064 2.0
5065 2.0
5066 2.0
5067 2.0
5068 2.0
5069 2.0
5070 2.0
5071 2.0
5072 2.0
5073 2.0
5074 2.0
5075 2.0
5076 2.0
5077 2.0
5078 2.0
5079 2.0
5080 2.0
5081 2.0
5082 2.0
5083 2.0
5084 2.0
5085 2.0
5086 2.0
5087 2.0
5088 2.0
5089 2.0
5090 2.0
5091 2.0
5092 2.0
5093 2.0
5094 2.0
5095 2.0
5096 2.0
5097 2.0
5098 2.0
5099 2.0
5100 2.0
5101 2.0
5102 2.0
5103 2.0
5104 2.0
5105 3.0
5106 4.0
5107 3.0
5108 3.0
5109 3.0
5110 3.0
5111 3.0
5112 4.0
5113 3.0
5114 3.0
5115 3.0
5116 3.0
5117 3.0
5118 4.0
5119 3.0
5120 3.0
5121 3.0
5122 3.0
5123 3.0
5124 4.0
5125 3.0
5126 3.0
5127 3.0
5128 3.0
5129 3.0
5130 4.0
5131 3.0
5132 3.0
5133 3.0
5134 3.0
5135 3.0
5136 4.0
5137 3.0
5138 3.0
5139 3.0
5140 3.0
5141 3.0
5142 4.0
5143 3.0
5144 3.0
5145 3.0
5146 3.0
5147 3.0
5148 4.0
5149 3.0
5150 3.0
5151 3.0
5152 3.0
5153 3.0
5154 4.0
5155 3.0
5156 3.0
5157 3.0
5158 3.0
5159 3.0
5160 4.0
5161 3.0
5162 3.0
5163 3.0
5164 3.0
5165 3.0
5166 4.0
5167 3.0
5168 3.0
5169 3.0
5170 3.0
5171 3.0
5172 4.0
5173 3.0
5174 3.0
5175 3.0
5176 3.0
5177 3.0
5178 4.0
5179 3.0
5180 3.0
5181 3.0
5182 3.0
5183 3.0
5184 4.0
5185 3.0
5186 3.0
5187 3.0
5188 3.0
5189 3.0
5190 4.0
5191 3.0
5192 3.0
5193 3.0
5194 3.0
5195 3.0
5196 4.0
5197 3.0
5198 3.0
5199 3.0
5200 3.0
5201 1.0
5202 2.0
5203 2.0
5204 2.0
5205 2.0
5206 2.0
5207 2.0
5208 2.0
5209 2.0
5210 2.0
5211 2.0
5212 2.0
5213 2.0
5214 2.0
5215 2.0
5216 2.0
5217 2.0
5218 2.0
5219 2.0
5220 2.0
5221 2.0
5222 2.0
5223 2.0
5224 2.0
5225 2.0
5226 2.0
5227 2.0
5228 2.0
5229 2.0
5230 2.0
5231 2.0
5232 2.0
5233 2.0
5234 2.0
5235 2.0
5236 2.0
5237 2.0
5238 2.0
5239 2.0
5240 2.0
5241 2.0
5242 2.0
5243 2.0
5244 2.0
5245 2.0
5246 2.0
5247 2.0
5248 2.0
5249 2.0
5250 2.0
5251 2.0
5252 2.0
5253 2.0
5254 2.0
5255 2.0
5256 2.0
5257 2.0
5258 2.0
5259 2.0
5260 2.0
5261 2.0
5262 2.0
5263 2.0
5264 2.0
5265 1.0
5266 3.0
5267 3.0
5268 3.0
5269 3.0
5270 3.0
5271 3.0
5272 3.0
5273 3.0
5274 3.0
5275 3.0
5276 3.0
5277 3.0
5278 3.0
5279 3.0
5280 3.0
5281 3.0
5282 3.0
5283 3.0
5284 3.0
5285 3.0
5286 3.0
5287 3.0
5288 3.0
5289 3.0
5290 3.0
5291 3.0
5292 3.0
5293 3.0
5294 3.0
5295 3.0
5296 3.0
5297 3.0
5298 3.0
5299 3.0
5300 3.0
5301 3.0
5302 3.0
5303 3.0
5304 3.0
5305 3.0
5306 3.0
5307 3.0
5308 3.0
5309 3.0
5310 3.0
5311 3.0
5312 3.0
5313 3.0
5314 3.0
5315 3.0
5316 3.0
5317 3.0
5318 3.0
5319 3.0
5320 3.0
5321 3.0
5322 3.0
5323 3.0
5324 3.0
5325 3.0
5326 3.0
5327 3.0
5328 3.0
5329 3.0
5330 3.0
5331 3.0
5332 3.0
5333 3.0
5334 3.0
5335 3.0
5336 3.0
5337 3.0
5338 3.0
5339 3.0
5340 3.0
5341 3.0
5342 3.0
5343 3.0
5344 3.0
5345 3.0
5346 3.0
5347 3.0
5348 3.0
5349 3.0
5350 3.0
5351 3.0
5352 3.0
5353 3.0
5354 3.0
5355 3.0
5356 3.0
5357 3.0
5358 3.0
5359 3.0
5360 2.0
5361 2.0
5362 2.0
5363 2.0
5364 2.0
5365 2.0
5366 2.0
5367 2.0
5368 2.0
5369 2.0
5370 2.0
5371 2.0
5372 2.0
5373 2.0
5374 2.0
5375 2.0
5376 2.0
5377 2.0
5378 2.0
5379 2.0
5380 2.0
5381 2.0
5382 2.0
5383 2.0
5384 2.0
5385 2.0
5386 2.0
5387 2.0
5388 2.0
5389 2.0
5390 2.0
5391 2.0
5392 2.0
5393 2.0
5394 2.0
5395 2.0
5396 2.0
5397 2.0
5398 2.0
5399 2.0
5400 2.0
5401 2.0
5402 2.0
5403 2.0
5404 2.0
5405 2.0
5406 2.0
5407 3.0
5408 3.0
5409 2.0
5410 2.0
5411 3.0
5412 3.0
5413 2.0
5414 2.0
5415 3.0
5416 3.0
5417 2.0
5418 2.0
5419 3.0
5420 3.0
5421 2.0
5422 2.0
5423 3.0
5424 3.0
5425 2.0
5426 2.0
5427 3.0
5428 3.0
5429 2.0
5430 2.0
5431 3.0
5432 3.0
5433 2.0
5434 2.0
5435 3.0
5436 3.0
5437 2.0
5438 2.0
5439 3.0
5440 3.0
5441 2.0
5442 2.0
5443 3.0
5444 3.0
5445 2.0
5446 2.0
5447 3.0
5448 3.0
5449 2.0
5450 2.0
5451 3.0
5452 3.0
5453 2.0
5454 2.0
5455 3.0
5456 3.0
5457 2.0
5458 2.0
5459 3.0
5460 3.0
5461 2.0
5462 2.0
5463 3.0
5464 3.0
5465 2.0
5466 2.0
5467 3.0
5468 3.0
5469 2.0
5470 2.0
5471 2.0
5472 3.0
5473 3.0
5474 2.0
5475 3.0
5476 3.0
5477 2.0
5478 3.0
5479 3.0
5480 2.0
5481 3.0
5482 3.0
5483 2.0
5484 3.0
5485 3.0
5486 2.0
5487 3.0
5488 3.0
5489 2.0
5490 3.0
5491 3.0
5492 2.0
5493 3.0
5494 3.0
5495 2.0
5496 3.0
5497 3.0
5498 2.0
5499 3.0
5500 3.0
5501 2.0
5502 3.0
5503 3.0
5504 2.0
5505 3.0
5506 3.0
5507 2.0
5508 3.0
5509 3.0
5510 2.0
5511 3.0
5512 3.0
5513 2.0
5514 3.0
5515 3.0
5516 2.0
5517 3.0
5518 3.0
5519 3.0
5520 3.0
5521 2.0
5522 2.0
5523 2.0
5524 3.0
5525 3.0
5526 2.0
5527 2.0
5528 2.0
5529 3.0
5530 3.0
5531 2.0
5532 2.0
5533 2.0
5534 3.0
5535 3.0
5536 2.0
5537 2.0
5538 2.0
5539 3.0
5540 3.0
5541 2.0
5542 2.0
5543 2.0
5544 3.0
5545 3.0
5546 2.0
5547 2.0
5548 2.0
5549 3.0
5550 3.0
5551 2.0
5552 2.0
5553 2.0
5554 3.0
5555 3.0
5556 2.0
5557 2.0
5558 2.0
5559 3.0
5560 3.0
5561 2.0
5562 2.0
5563 2.0
5564 3.0
5565 3.0
5566 2.0
5567 2.0
5568 2.0
5569 3.0
5570 3.0
5571 2.0
5572 2.0
5573 2.0
5574 3.0
5575 3.0
5576 2.0
5577 2.0
5578 2.0
5579 3.0
5580 3.0
5581 2.0
5582 2.0
5583 2.0
5584 3.0
5585 3.0
5586 2.0
5587 2.0
5588 2.0
5589 3.0
5590 3.0
5591 2.0
5592 2.0
5593 2.0
5594 3.0
5595 3.0
5596 2.0
5597 2.0
5598 2.0
5599 2.0
5600 2.0
5601 2.0
5602 2.0
5603 2.0
5604 2.0
5605 2.0
5606 2.0
5607 2.0
5608 2.0
5609 2.0
5610 2.0
5611 2.0
5612 2.0
5613 2.0
5614 2.0
5615 2.0
5616 2.0
5617 2.0
5618 2.0
5619 2.0
5620 2.0
5621 2.0
5622 2.0
5623 2.0
5624 2.0
5625 2.0
5626 2.0
5627 2.0
5628 2.0
5629 2.0
5630 2.0
5631 2.0
5632 2.0
5633 2.0
5634 2.0
5635 2.0
5636 2.0
5637 2.0
5638 2.0
5639 2.0
5640 2.0
5641 2.0
5642 2.0
5643 2.0
5644 2.0
5645 2.0
5646 2.0
5647 2.0
5648 2.0
5649 2.0
5650 2.0
5651 2.0
5652 2.0
5653 2.0
5654 2.0
5655 2.0
5656 2.0
5657 2.0
5658 2.0
5659 2.0
5660 2.0
5661 2.0
5662 2.0
5663 2.0
5664 2.0
5665 2.0
5666 2.0
5667 2.0
5668 2.0
5669 2.0
5670 2.0
5671 2.0
5672 2.0
5673 2.0
5674 2.0
5675 2.0
5676 2.0
5677 2.0
5678 2.0
5679 2.0
5680 2.0
5681 2.0
5682 2.0
5683 2.0
5684 2.0
5685 2.0
5686 2.0
5687 2.0
5688 2.0
5689 2.0
5690 2.0
5691 2.0
5692 2.0
5693 2.0
5694 2.0
5695 3.0
5696 4.0
5697 3.0
5698 3.0
5699 3.0
5700 3.0
5701 3.0
5702 4.0
5703 3.0
5704 3.0
5705 3.0
5706 3.0
5707 3.0
5708 4.0
5709 3.0
5710 3.0
5711 3.0
5712 3.0
5713 3.0
5714 4.0
5715 3.0
5716 3.0
5717 3.0
5718 3.0
5719 3.0
5720 4.0
5721 3.0
5722 3.0
5723 3.0
5724 3.0
5725 3.0
5726 4.0
5727 3.0
5728 3.0
5729 3.0
5730 3.0
5731 3.0
5732 4.0
5733 3.0
5734 3.0
5735 3.0
5736 3.0
5737 3.0
5738 4.0
5739 3.0
5740 3.0
5741 3.0
5742 3.0
5743 3.0
5744 4.0
5745 3.0
5746 3.0
5747 3.0
5748 3.0
5749 3.0
5750 4.0
5751 3.0
5752 3.0
5753 3.0
5754 3.0
5755 3.0
5756 4.0
5757 3.0
5758 3.0
5759 3.0
5760 3.0
5761 3.0
5762 4.0
5763 3.0
5764 3.0
5765 3.0
5766 3.0
5767 3.0
5768 4.0
5769 3.0
5770 3.0
5771 3.0
5772 3.0
5773 3.0
5774 4.0
5775 3.0
5776 3.0
5777 3.0
5778 3.0
5779 3.0
5780 4.0
5781 3.0
5782 3.0
5783 3.0
5784 3.0
5785 3.0
5786 4.0
5787 3.0
5788 3.0
5789 3.0
5790 3.0
5791 1.0
5792 2.0
5793 2.0
5794 2.0
5795 2.0
5796 2.0
5797 2.0
5798 2.0
5799 2.0
5800 2.0
5801 2.0
5802 2.0
5803 2.0
5804 2.0
5805 2.0
5806 2.0
5807 2.0
5808 2.0
5809 2.0
5810 2.0
5811 2.0
5812 2.0
5813 2.0
5814 2.0
5815 2.0
5816 2.0
5817 2.0
5818 2.0
5819 2.0
5820 2.0
5821 2.0
5822 2.0
5823 2.0
5824 2.0
5825 2.0
5826 2.0
5827 2.0
5828 2.0
5829 2.0
5830 2.0
5831 2.0
5832 2.0
5833 2.0
5834 2.0
5835 2.0
5836 2.0
5837 2.0
5838 2.0
5839 2.0
5840 2.0
5841 2.0
5842 2.0
5843 2.0
5844 2.0
5845 2.0
5846 2.0
5847 2.0
5848 2.0
5849 2.0
5850 2.0
5851 2.0
5852 2.0
5853 2.0
5854 2.0
5855 1.0
5856 3.0
5857 3.0
5858 3.0
5859 3.0
5860 3.0
5861 3.0
5862 3.0
5863 3.0
5864 3.0
5865 3.0
5866 3.0
5867 3.0
5868 3.0
5869 3.0
5870 3.0
5871 3.0
5872 3.0
5873 3.0
5874 3.0
5875 3.0
5876 3.0
5877 3.0
5878 3.0
5879 3.0
5880 3.0
5881 3.0
5882 3.0
5883 3.0
5884 3.0
5885 3.0
5886 3.0
5887 3.0
5888 3.0
5889 3.0
5890 3.0
5891 3.0
5892 3.0
5893 3.0
5894 3.0
5895 3.0
5896 3.0
5897 3.0
5898 3.0
5899 3.0
5900 3.0
5901 3.0
5902 3.0
5903 3.0
5904 3.0
5905 3.0
5906 3.0
5907 3.0
5908 3.0
5909 3.0
5910 3.0
5911 3.0
5912 3.0
5913 3.0
5914 3.0
5915 3.0
5916 3.0
5917 3.0
5918 3.0
5919 3.0
5920 3.0
5921 3.0
5922 3.0
5923 3.0
5924 3.0
5925 3.0
5926 3.0
5927 3.0
5928 3.0
5929 3.0
5930 3.0
5931 3.0
5932 3.0
5933 3.0
5934 3.0
5935 3.0
5936 3.0
5937 3.0
5938 3.0
5939 3.0
5940 3.0
5941 3.0
5942 3.0
5943 3.0
5944 3.0
5945 3.0
5946 3.0
5947 3.0
5948 3.0
5949 3.0
5950 2.0
5951 2.0
5952 2.0
5953 2.0
5954 2.0
5955 2.0
5956 2.0
5957 2.0
5958 2.0
5959 2.0
5960 2.0
5961 2.0
5962 2.0
5963 2.0
5964 2.0
5965 2.0
5966 2.0
5967 2.0
5968 2.0
5969 2.0
5970 2.0
5971 2.0
5972 2.0
5973 2.0
5974 2.0
5975 2.0
5976 2.0
5977 2.0
5978 2.0
5979 2.0
5980 2.0
5981 2.0
5982 2.0
5983 2.0
5984 2.0
5985 2.0
5986 2.0
5987 2.0
5988 2.0
5989 2.0
5990 2.0
5991 2.0
5992 2.0
5993 2.0
5994 2.0
5995 2.0
5996 2.0
5997 3.0
5998 3.0
5999 2.0
6000 2.0
6001 3.0
6002 3.0
6003 2.0
6004 2.0
6005 3.0
6006 3.0
6007 2.0
6008 2.0
6009 3.0
6010 3.0
6011 2.0
6012 2.0
6013 3.0
6014 3.0
6015 2.0
6016 2.0
6017 3.0
6018 3.0
6019 2.0
6020 2.0
6021 3.0
6022 3.0
6023 2.0
6024 2.0
6025 3.0
6026 3.0
6027 2.0
6028 2.0
6029 3.0
6030 3.0
6031 2.0
6032 2.0
6033 3.0
6034 3.0
6035 2.0
6036 2.0
6037 3.0
6038 3.0
6039 2.0
6040 2.0
6041 3.0
6042 3.0
6043 2.0
6044 2.0
6045 3.0
6046 3.0
6047 2.0
6048 2.0
6049 3.0
6050 3.0
6051 2.0
6052 2.0
6053 3.0
6054 3.0
6055 2.0
6056 2.0
6057 3.0
6058 3.0
6059 2.0
6060 2.0
6061 2.0
6062 3.0
6063 3.0
6064 2.0
6065 3.0
6066 3.0
6067 2.0
6068 3.0
6069 3.0
6070 2.0
6071 3.0
6072 3.0
6073 2.0
6074 3.0
6075 3.0
6076 2.0
6077 3.0
6078 3.0
6079 2.0
6080 3.0
6081 3.0
6082 2.0
6083 3.0
6084 3.0
6085 2.0
6086 3.0
6087 3.0
6088 2.0
6089 3.0
6090 3.0
6091 2.0
6092 3.0
6093 3.0
6094 2.0
6095 3.0
6096 3.0
6097 2.0
6098 3.0
6099 3.0
6100 2.0
6101 3.0
6102 3.0
6103 2.0
6104 3.0
6105 3.0
6106 2.0
6107 3.0
6108 3.0
6109 3.0
6110 3.0
6111 2.0
6112 2.0
6113 2.0
6114 3.0
6115 3.0
6116 2.0
6117 2.0
6118 2.0
6119 3.0
6120 3.0
6121 2.0
6122 2.0
6123 2.0
6124 3.0
6125 3.0
6126 2.0
6127 2.0
6128 2.0
6129 3.0
6130 3.0
6131 2.0
6132 2.0
6133 2.0
6134 3.0
6135 3.0
6136 2.0
6137 2.0
6138 2.0
6139 3.0
6140 3.0
6141 2.0
6142 2.0
6143 2.0
6144 3.0
6145 3.0
6146 2.0
6147 2.0
6148 2.0
6149 3.0
6150 3.0
6151 2.0
6152 2.0
6153 2.0
6154 3.0
6155 3.0
6156 2.0
6157 2.0
6158 2.0
6159 3.0
6160 3.0
6161 2.0
6162 2.0
6163 2.0
6164 3.0
6165 3.0
6166 2.0
6167 2.0
6168 2.0
6169 3.0
6170 3.0
6171 2.0
6172 2.0
6173 2.0
6174 3.0
6175 3.0
6176 2.0
6177 2.0
6178 2.0
6179 3.0
6180 3.0
6181 2.0
6182 2.0
6183 2.0
6184 3.0
6185 3.0
6186 2.0
6187 2.0
6188 2.0
6189 2.0
6190 2.0
6191 2.0
6192 2.0
6193 2.0
6194 2.0
6195 2.0
6196 2.0
6197 2.0
6198 2.0
6199 2.0
6200 2.0
6201 2.0
6202 2.0
6203 2.0
6204 2.0
6205 2.0
6206 2.0
6207 2.0
6208 2.0
6209 2.0
6210 2.0
6211 2.0
6212 2.0
6213 2.0
6214 2.0
6215 2.0
6216 2.0
6217 2.0
6218 2.0
6219 2.0
6220 2.0
6221 2.0
6222 2.0
6223 2.0
6224 2.0
6225 2.0
6226 2.0
6227 2.0
6228 2.0
6229 2.0
6230 2.0
6231 2.0
6232 2.0
6233 2.0
6234 2.0
6235 2.0
6236 2.0
6237 2.0
6238 2.0
6239 2.0
6240 2.0
6241 2.0
6242 2.0
6243 2.0
6244 2.0
6245 2.0
6246 2.0
6247 2.0
6248 2.0
6249 2.0
6250 2.0
6251 2.0
6252 2.0
6253 2.0
6254 2.0
6255 2.0
6256 2.0
6257 2.0
6258 2.0
6259 2.0
6260 2.0
6261 2.0
6262 2.0
6263 2.0
6264 2.0
6265 2.0
6266 2.0
6267 2.0
6268 2.0
6269 2.0
6270 2.0
6271 2.0
6272 2.0
6273 2.0
6274 2.0
6275 2.0
6276 2.0
6277 2.0
6278 2.0
6279 2.0
6280 2.0
6281 2.0
6282 2.0
6283 2.0
6284 2.0
6285 3.0
6286 4.0
6287 3.0
6288 3.0
6289 3.0
6290 3.0
6291 3.0
6292 4.0
6293 3.0
6294 3.0
6295 3.0
6296 3.0
6297 3.0
6298 4.0
6299 3.0
6300 3.0
6301 3.0
6302 3.0
6303 3.0
6304 4.0
6305 3.0
6306 3.0
6307 3.0
6308 3.0
6309 3.0
6310 4.0
6311 3.0
6312 3.0
6313 3.0
6314 3.0
6315 3.0
6316 4.0
6317 3.0
6318 3.0
6319 3.0
6320 3.0
6321 3.0
6322 4.0
6323 3.0
6324 3.0
6325 3.0
6326 3.0
6327 3.0
6328 4.0
6329 3.0
6330 3.0
6331 3.0
6332 3.0
6333 3.0
6334 4.0
6335 3.0
6336 3.0
6337 3.0
6338 3.0
6339 3.0
6340 4.0
6341 3.0
6342 3.0
6343 3.0
6344 3.0
6345 3.0
6346 4.0
6347 3.0
6348 3.0
6349 3.0
6350 3.0
6351 3.0
6352 4.0
6353 3.0
6354 3.0
6355 3.0
6356 3.0
6357 3.0
6358 4.0
6359 3.0
6360 3.0
6361 3.0
6362 3.0
6363 3.0
6364 4.0
6365 3.0
6366 3.0
6367 3.0
6368 3.0
6369 3.0
6370 4.0
6371 3.0
6372 3.0
6373 3.0
6374 3.0
6375 3.0
6376 4.0
6377 3.0
6378 3.0
6379 3.0
6380 3.0
6381 1.0
6382 2.0
6383 2.0
6384 2.0
6385 2.0
6386 2.0
6387 2.0
6388 2.0
6389 2.0
6390 2.0
6391 2.0
6392 2.0
6393 2.0
6394 2.0
6395 2.0
6396 2.0
6397 2.0
6398 2.0
6399 2.0
6400 2.0
6401 2.0
6402 2.0
6403 2.0
6404 2.0
6405 2.0
6406 2.0
6407 2.0
6408 2.0
6409 2.0
6410 2.0
6411 2.0
6412 2.0
6413 2.0
6414 2.0
6415 2.0
6416 2.0
6417 2.0
6418 2.0
6419 2.0
6420 2.0
6421 2.0
6422 2.0
6423 2.0
6424 2.0
6425 2.0
6426 2.0
6427 2.0
6428 2.0
6429 2.0
6430 2.0
6431 2.0
6432 2.0
6433 2.0
6434 2.0
6435 2.0
6436 2.0
6437 2.0
6438 2.0
6439 2.0
6440 2.0
6441 2.0
6442 2.0
6443 2.0
6444 2.0
6445 1.0
6446 3.0
6447 3.0
6448 3.0
6449 3.0
6450 3.0
6451 3.0
6452 3.0
6453 3.0
6454 3.0
6455 3.0
6456 3.0
6457 3.0
6458 3.0
6459 3.0
6460 3.0
6461 3.0
6462 3.0
6463 3.0
6464 3.0
6465 3.0
6466 3.0
6467 3.0
6468 3.0
6469 3.0
6470 3.0
6471 3.0
6472 3.0
6473 3.0
6474 3.0
6475 3.0
6476 3.0
6477 3.0
6478 3.0
6479 3.0
6480 3.0
6481 3.0
6482 3.0
6483 3.0
6484 3.0
6485 3.0
6486 3.0
6487 3.0
6488 3.0
6489 3.0
6490 3.0
6491 3.0
6492 3.0
6493 3.0
6494 3.0
6495 3.0
6496 3.0
6497 3.0
6498 3.0
6499 3.0
6500 3.0
6501 3.0
6502 3.0
6503 3.0
6504 3.0
6505 3.0
6506 3.0
6507 3.0
6508 3.0
6509 3.0
6510 3.0
6511 3.0
6512 3.0
6513 3.0
6514 3.0
6515 3.0
6516 3.0
6517 3.0
6518 3.0
6519 3.0
6520 3.0
6521 3.0
6522 3.0
6523 3.0
6524 3.0
6525 3.0
6526 3.0
6527 3.0
6528 3.0
6529 3.0
6530 3.0
6531 3.0
6532 3.0
6533 3.0
6534 3.0
6535 3.0
6536 3.0
6537 3.0
6538 3.0
6539 3.0
6540 3.0
6541 3.0
6542 2.0
6543 2.0
6544 2.0
6545 2.0
6546 2.0
6547 2.0
6548 2.0
6549 2.0
6550 2.0
6551 2.0
6552 2.0
6553 2.0
6554 2.0
6555 2.0
6556 2.0
6557 2.0
6558 2.0
6559 2.0
6560 2.0
6561 2.0
6562 2.0
6563 2.0
6564 2.0
6565 2.0
6566 2.0
6567 2.0
6568 2.0
6569 2.0
6570 2.0
6571 2.0
6572 2.0
6573 2.0
6574 2.0
6575 2.0
6576 2.0
6577 2.0
6578 2.0
6579 2.0
6580 2.0
6581 2.0
6582 2.0
6583 2.0
6584 2.0
6585 2.0
6586 2.0
6587 2.0
6588 2.0
6589 3.0
6590 3.0
6591 2.0
6592 2.0
6593 3.0
6594 3.0
6595 2.0
6596 2.0
6597 3.0
6598 3.0
6599 2.0
6600 2.0
6601 3.0
6602 3.0
6603 2.0
6604 2.0
6605 3.0
6606 3.0
6607 2.0
6608 2.0
6609 3.0
6610 3.0
6611 2.0
6612 2.0
6613 3.0
6614 3.0
6615 2.0
6616 2.0
6617 3.0
6618 3.0
6619 2.0
6620 2.0
6621 3.0
6622 3.0
6623 2.0
6624 2.0
6625 3.0
6626 3.0
6627 2.0
6628 2.0
6629 3.0
6630 3.0
6631 2.0
6632 2.0
6633 3.0
6634 3.0
6635 2.0
6636 2.0
6637 3.0
6638 3.0
6639 2.0
6640 2.0
6641 3.0
6642 3.0
6643 2.0
6644 2.0
6645 3.0
6646 3.0
6647 2.0
6648 2.0
6649 3.0
6650 3.0
6651 2.0
6652 2.0
6653 2.0
6654 3.0
6655 3.0
6656 2.0
6657 3.0
6658 3.0
6659 2.0
6660 3.0
6661 3.0
6662 2.0
6663 3.0
6664 3.0
6665 2.0
6666 3.0
6667 3.0
6668 2.0
6669 3.0
6670 3.0
6671 2.0
6672 3.0
6673 3.0
6674 2.0
6675 3.0
6676 3.0
6677 2.0
6678 3.0
6679 3.0
6680 2.0
6681 3.0
6682 3.0
6683 2.0
6684 3.0
6685 3.0
6686 2.0
6687 3.0
6688 3.0
6689 2.0
6690 3.0
6691 3.0
6692 2.0
6693 3.0
6694 3.0
6695 2.0
6696 3.0
6697 3.0
6698 2.0
6699 3.0
6700 3.0
6701 3.0
6702 3.0
6703 2.0
6704 2.0
6705 2.0
6706 3.0
6707 3.0
6708 2.0
6709 2.0
6710 2.0
6711 3.0
6712 3.0
6713 2.0
6714 2.0
6715 2.0
6716 3.0
6717 3.0
6718 2.0
6719 2.0
6720 2.0
6721 3.0
6722 3.0
6723 2.0
6724 2.0
6725 2.0
6726 3.0
6727 3.0
6728 2.0
6729 2.0
6730 2.0
6731 3.0
6732 3.0
6733 2.0
6734 2.0
6735 2.0
6736 3.0
6737 3.0
6738 2.0
6739 2.0
6740 2.0
6741 3.0
6742 3.0
6743 2.0
6744 2.0
6745 2.0
6746 3.0
6747 3.0
6748 2.0
6749 2.0
6750 2.0
6751 3.0
6752 3.0
6753 2.0
6754 2.0
6755 2.0
6756 3.0
6757 3.0
6758 2.0
6759 2.0
6760 2.0
6761 3.0
6762 3.0
6763 2.0
6764 2.0
6765 2.0
6766 3.0
6767 3.0
6768 2.0
6769 2.0
6770 2.0
6771 3.0
6772 3.0
6773 2.0
6774 2.0
6775 2.0
6776 3.0
6777 3.0
6778 2.0
6779 2.0
6780 2.0
6781 2.0
6782 2.0
6783 2.0
6784 2.0
6785 2.0
6786 2.0
6787 2.0
6788 2.0
6789 2.0
6790 2.0
6791 2.0
6792 2.0
6793 2.0
6794 2.0
6795 2.0
6796 2.0
6797 2.0
6798 2.0
6799 2.0
6800 2.0
6801 2.0
6802 2.0
6803 2.0
6804 2.0
6805 2.0
6806 2.0
6807 2.0
6808 2.0
6809 2.0
6810 2.0
6811 2.0
6812 2.0
6813 2.0
6814 2.0
6815 2.0
6816 2.0
6817 2.0
6818 2.0
6819 2.0
6820 2.0
6821 2.0
6822 2.0
6823 2.0
6824 2.0
6825 2.0
6826 2.0
6827 2.0
6828 2.0
6829 2.0
6830 2.0
6831 2.0
6832 2.0
6833 2.0
6834 2.0
6835 2.0
6836 2.0
6837 2.0
6838 2.0
6839 2.0
6840 2.0
6841 2.0
6842 2.0
6843 2.0
6844 2.0
6845 2.0
6846 2.0
6847 2.0
6848 2.0
6849 2.0
6850 2.0
6851 2.0
6852 2.0
6853 2.0
6854 2.0
6855 2.0
6856 2.0
6857 2.0
6858 2.0
6859 2.0
6860 2.0
6861 2.0
6862 2.0
6863 2.0
6864 2.0
6865 2.0
6866 2.0
6867 2.0
6868 2.0
6869 2.0
6870 2.0
6871 2.0
6872 2.0
6873 2.0
6874 2.0
6875 2.0
6876 2.0
6877 3.0
6878 4.0
6879 3.0
6880 3.0
6881 3.0
6882 3.0
6883 3.0
6884 4.0
6885 3.0
6886 3.0
6887 3.0
6888 3.0
6889 3.0
6890 4.0
6891 3.0
6892 3.0
6893 3.0
6894 3.0
6895 3.0
6896 4.0
6897 3.0
6898 3.0
6899 3.0
6900 3.0
6901 3.0
6902 4.0
6903 3.0
6904 3.0
6905 3.0
6906 3.0
6907 3.0
6908 4.0
6909 3.0
6910 3.0
6911 3.0
6912 3.0
6913 3.0
6914 4.0
6915 3.0
6916 3.0
6917 3.0
6918 3.0
6919 3.0
6920 4.0
6921 3.0
6922 3.0
6923 3.0
6924 3.0
6925 3.0
6926 4.0
6927 3.0
6928 3.0
6929 3.0
6930 3.0
6931 3.0
6932 4.0
6933 3.0
6934 3.0
6935 3.0
6936 3.0
6937 3.0
6938 4.0
6939 3.0
6940 3.0
6941 3.0
6942 3.0
6943 3.0
6944 4.0
6945 3.0
6946 3.0
6947 3.0
6948 3.0
6949 3.0
6950 4.0
6951 3.0
6952 3.0
6953 3.0
6954 3.0
6955 3.0
6956 4.0
6957 3.0
6958 3.0
6959 3.0
6960 3.0
6961 3.0
6962 4.0
6963 3.0
6964 3.0
6965 3.0
6966 3.0
6967 3.0
6968 4.0
6969 3.0
6970 3.0
6971 3.0
6972 3.0
6973 1.0
6974 2.0
6975 2.0
6976 2.0
6977 2.0
6978 2.0
6979 2.0
6980 2.0
6981 2.0
6982 2.0
6983 2.0
6984 2.0
6985 2.0
6986 2.0
6987 2.0
6988 2.0
6989 2.0
6990 2.0
6991 2.0
6992 2.0
6993 2.0
6994 2.0
6995 2.0
6996 2.0
6997 2.0
6998 2.0
6999 2.0
7000 2.0
7001 2.0
7002 2.0
7003 2.0
7004 2.0
7005 2.0
7006 2.0
7007 2.0
7008 2.0
7009 2.0
7010 2.0
7011 2.0
7012 2.0
7013 2.0
7014 2.0
7015 2.0
7016 2.0
7017 2.0
7018 2.0
7019 2.0
7020 2.0
7021 2.0
7022 2.0
7023 2.0
7024 2.0
7025 2.0
7026 2.0
7027 2.0
7028 2.0
7029 2.0
7030 2.0
7031 2.0
7032 2.0
7033 2.0
7034 2.0
7035 2.0
7036 2.0
7037 1.0
7038 3.0
7039 3.0
7040 3.0
7041 3.0
7042 3.0
7043 3.0
7044 3.0
7045 3.0
7046 3.0
7047 3.0
7048 3.0
7049 3.0
7050 3.0
7051 3.0
7052 3.0
7053 3.0
7054 3.0
7055 3.0
7056 3.0
7057 3.0
7058 3.0
7059 3.0
7060 3.0
7061 3.0
7062 3.0
7063 3.0
7064 3.0
7065 3.0
7066 3.0
7067 3.0
7068 3.0
7069 3.0
7070 3.0
7071 3.0
7072 3.0
7073 3.0
7074 3.0
7075 3.0
7076 3.0
7077 3.0
7078 3.0
7079 3.0
7080 3.0
7081 3.0
7082 3.0
7083 3.0
7084 3.0
7085 3.0
7086 3.0
7087 3.0
7088 3.0
7089 3.0
7090 3.0
7091 3.0
7092 3.0
7093 3.0
7094 3.0
7095 3.0
7096 3.0
7097 3.0
7098 3.0
7099 3.0
7100 3.0
7101 3.0
7102 3.0
7103 3.0
7104 3.0
7105 3.0
7106 3.0
7107 3.0
7108 3.0
7109 3.0
7110 3.0
7111 3.0
7112 3.0
7113 3.0
7114 3.0
7115 3.0
7116 3.0
7117 3.0
7118 3.0
7119 3.0
7120 3.0
7121 3.0
7122 3.0
7123 3.0
7124 3.0
7125 3.0
7126 3.0
7127 3.0
7128 3.0
7129 3.0
7130 3.0
7131 3.0
7132 3.0
7133 3.0
7134 2.0
7135 2.0
7136 2.0
7137 2.0
7138 2.0
7139 2.0
7140 2.0
7141 2.0
7142 2.0
7143 2.0
7144 2.0
7145 2.0
7146 2.0
7147 2.0
7148 2.0
7149 2.0
7150 2.0
7151 2.0
7152 2.0
7153 2.0
7154 2.0
7155 2.0
7156 2.0
7157 2.0
7158 2.0
7159 2.0
7160 2.0
7161 2.0
7162 2.0
7163 2.0
7164 2.0
7165 2.0
7166 2.0
7167 2.0
7168 2.0
7169 2.0
7170 2.0
7171 2.0
7172 2.0
7173 2.0
7174 2.0
7175 2.0
7176 2.0
7177 2.0
7178 2.0
7179 2.0
7180 2.0
7181 3.0
7182 3.0
7183 2.0
7184 2.0
7185 3.0
7186 3.0
7187 2.0
7188 2.0
7189 3.0
7190 3.0
7191 2.0
7192 2.0
7193 3.0
7194 3.0
7195 2.0
7196 2.0
7197 3.0
7198 3.0
7199 2.0
7200 2.0
7201 3.0
7202 3.0
7203 2.0
7204 2.0
7205 3.0
7206 3.0
7207 2.0
7208 2.0
7209 3.0
7210 3.0
7211 2.0
7212 2.0
7213 3.0
7214 3.0
7215 2.0
7216 2.0
7217 3.0
7218 3.0
7219 2.0
7220 2.0
7221 3.0
7222 3.0
7223 2.0
7224 2.0
7225 3.0
7226 3.0
7227 2.0
7228 2.0
7229 3.0
7230 3.0
7231 2.0
7232 2.0
7233 3.0
7234 3.0
7235 2.0
7236 2.0
7237 3.0
7238 3.0
7239 2.0
7240 2.0
7241 3.0
7242 3.0
7243 2.0
7244 2.0
7245 2.0
7246 3.0
7247 3.0
7248 2.0
7249 3.0
7250 3.0
7251 2.0
7252 3.0
7253 3.0
7254 2.0
7255 3.0
7256 3.0
7257 2.0
7258 3.0
7259 3.0
7260 2.0
7261 3.0
7262 3.0
7263 2.0
7264 3.0
7265 3.0
7266 2.0
7267 3.0
7268 3.0
7269 2.0
7270 3.0
7271 3.0
7272 2.0
7273 3.0
7274 3.0
7275 2.0
7276 3.0
7277 3.0
7278 2.0
7279 3.0
7280 3.0
7281 2.0
7282 3.0
7283 3.0
7284 2.0
7285 3.0
7286 3.0
7287 2.0
7288 3.0
7289 3.0
7290 2.0
7291 3.0
7292 3.0
7293 3.0
7294 3.0
7295 2.0
7296 2.0
7297 2.0
7298 3.0
7299 3.0
7300 2.0
7301 2.0
7302 2.0
7303 3.0
7304 3.0
7305 2.0
7306 2.0
7307 2.0
7308 3.0
7309 3.0
7310 2.0
7311 2.0
7312 2.0
7313 3.0
7314 3.0
7315 2.0
7316 2.0
7317 2.0
7318 3.0
7319 3.0
7320 2.0
7321 2.0
7322 2.0
7323 3.0
7324 3.0
7325 2.0
7326 2.0
7327 2.0
7328 3.0
7329 3.0
7330 2.0
7331 2.0
7332 2.0
7333 3.0
7334 3.0
7335 2.0
7336 2.0
7337 2.0
7338 3.0
7339 3.0
7340 2.0
7341 2.0
7342 2.0
7343 3.0
7344 3.0
7345 2.0
7346 2.0
7347 2.0
7348 3.0
7349 3.0
7350 2.0
7351 2.0
7352 2.0
7353 3.0
7354 3.0
7355 2.0
7356 2.0
7357 2.0
7358 3.0
7359 3.0
7360 2.0
7361 2.0
7362 2.0
7363 3.0
7364 3.0
7365 2.0
7366 2.0
7367 2.0
7368 3.0
7369 3.0
7370 2.0
7371 2.0
7372 2.0
7373 2.0
7374 2.0
7375 2.0
7376 2.0
7377 2.0
7378 2.0
7379 2.0
7380 2.0
7381 2.0
7382 2.0
7383 2.0
7384 2.0
7385 2.0
7386 2.0
7387 2.0
7388 2.0
7389 2.0
7390 2.0
7391 2.0
7392 2.0
7393 2.0
7394 2.0
7395 2.0
7396 2.0
7397 2.0
7398 2.0
7399 2.0
7400 2.0
7401 2.0
7402 2.0
7403 2.0
7404 2.0
7405 2.0
7406 2.0
7407 2.0
7408 2.0
7409 2.0
7410 2.0
7411 2.0
7412 2.0
7413 2.0
7414 2.0
7415 2.0
7416 2.0
7417 2.0
7418 2.0
7419 2.0
7420 2.0
7421 2.0
7422 2.0
7423 2.0
7424 2.0
7425 2.0
7426 2.0
7427 2.0
7428 2.0
7429 2.0
7430 2.0
7431 2.0
7432 2.0
7433 2.0
7434 2.0
7435 2.0
7436 2.0
7437 2.0
7438 2.0
7439 2.0
7440 2.0
7441 2.0
7442 2.0
7443 2.0
7444 2.0
7445 2.0
7446 2.0
7447 2.0
7448 2.0
7449 2.0
7450 2.0
7451 2.0
7452 2.0
7453 2.0
7454 2.0
7455 2.0
7456 2.0
7457 2.0
7458 2.0
7459 2.0
7460 2.0
7461 2.0
7462 2.0
7463 2.0
7464 2.0
7465 2.0
7466 2.0
7467 2.0
7468 2.0
7469 3.0
7470 4.0
7471 3.0
7472 3.0
7473 3.0
7474 3.0
7475 3.0
7476 4.0
7477 3.0
7478 3.0
7479 3.0
7480 3.0
7481 3.0
7482 4.0
7483 3.0
7484 3.0
7485 3.0
7486 3.0
7487 3.0
7488 4.0
7489 3.0
7490 3.0
7491 3.0
7492 3.0
7493 3.0
7494 4.0
7495 3.0
7496 3.0
7497 3.0
7498 3.0
7499 3.0
7500 4.0
7501 3.0
7502 3.0
7503 3.0
7504 3.0
7505 3.0
7506 4.0
7507 3.0
7508 3.0
7509 3.0
7510 3.0
7511 3.0
7512 4.0
7513 3.0
7514 3.0
7515 3.0
7516 3.0
7517 3.0
7518 4.0
7519 3.0
7520 3.0
7521 3.0
7522 3.0
7523 3.0
7524 4.0
7525 3.0
7526 3.0
7527 3.0
7528 3.0
7529 3.0
7530 4.0
7531 3.0
7532 3.0
7533 3.0
7534 3.0
7535 3.0
7536 4.0
7537 3.0
7538 3.0
7539 3.0
7540 3.0
7541 3.0
7542 4.0
7543 3.0
7544 3.0
7545 3.0
7546 3.0
7547 3.0
7548 4.0
7549 3.0
7550 3.0
7551 3.0
7552 3.0
7553 3.0
7554 4.0
7555 3.0
7556 3.0
7557 3.0
7558 3.0
7559 3.0
7560 4.0
7561 3.0
7562 3.0
7563 3.0
7564 3.0
7565 1.0
7566 2.0
7567 2.0
7568 2.0
7569 2.0
7570 2.0
7571 2.0
7572 2.0
7573 2.0
7574 2.0
7575 2.0
7576 2.0
7577 2.0
7578 2.0
7579 2.0
7580 2.0
7581 2.0
7582 2.0
7583 2.0
7584 2.0
7585 2.0
7586 2.0
7587 2.0
7588 2.0
7589 2.0
7590 2.0
7591 2.0
7592 2.0
7593 2.0
7594 2.0
7595 2.0
7596 2.0
7597 2.0
7598 2.0
7599 2.0
7600 2.0
7601 2.0
7602 2.0
7603 2.0
7604 2.0
7605 2.0
7606 2.0
7607 2.0
7608 2.0
7609 2.0
7610 2.0
7611 2.0
7612 2.0
7613 2.0
7614 2.0
7615 2.0
7616 2.0
7617 2.0
7618 2.0
7619 2.0
7620 2.0
7621 2.0
7622 2.0
7623 2.0
7624 2.0
7625 2.0
7626 2.0
7627 2.0
7628 2.0
7629 1.0
7630 3.0
7631 3.0
7632 3.0
7633 3.0
7634 3.0
7635 3.0
7636 3.0
7637 3.0
7638 3.0
7639 3.0
7640 3.0
7641 3.0
7642 3.0
7643 3.0
7644 3.0
7645 3.0
7646 3.0
7647 3.0
7648 3.0
7649 3.0
7650 3.0
7651 3.0
7652 3.0
7653 3.0
7654 3.0
7655 3.0
7656 3.0
7657 3.0
7658 3.0
7659 3.0
7660 3.0
7661 3.0
7662 3.0
7663 3.0
7664 3.0
7665 3.0
7666 3.0
7667 3.0
7668 3.0
7669 3.0
7670 3.0
7671 3.0
7672 3.0
7673 3.0
7674 3.0
7675 3.0
7676 3.0
7677 3.0
7678 3.0
7679 3.0
7680 3.0
7681 3.0
7682 3.0
7683 3.0
7684 3.0
7685 3.0
7686 3.0
7687 3.0
7688 3.0
7689 3.0
7690 3.0
7691 3.0
7692 3.0
7693 3.0
7694 3.0
7695 3.0
7696 3.0
7697 3.0
7698 3.0
7699 3.0
7700 3.0
7701 3.0
7702 3.0
7703 3.0
7704 3.0
7705 3.0
7706 3.0
7707 3.0
7708 3.0
7709 3.0
7710 3.0
7711 3.0
7712 3.0
7713 3.0
7714 3.0
7715 3.0
7716 3.0
7717 3.0
7718 3.0
7719 3.0
7720 3.0
7721 3.0
7722 3.0
7723 3.0
7724 2.0
7725 2.0
7726 2.0
7727 2.0
7728 2.0
7729 2.0
7730 2.0
7731 2.0
7732 2.0
7733 2.0
7734 2.0
7735 2.0
7736 2.0
7737 2.0
7738 2.0
7739 2.0
7740 2.0
7741 2.0
7742 2.0
7743 2.0
7744 2.0
7745 2.0
7746 2.0
7747 2.0
7748 2.0
7749 2.0
7750 2.0
7751 2.0
7752 2.0
7753 2.0
7754 2.0
7755 2.0
7756 2.0
7757 2.0
7758 2.0
7759 2.0
7760 2.0
7761 2.0
7762 2.0
7763 2.0
7764 2.0
7765 2.0
7766 2.0
7767 2.0
7768 2.0
7769 2.0
7770 2.0
7771 3.0
7772 3.0
7773 2.0
7774 2.0
7775 3.0
7776 3.0
7777 2.0
7778 2.0
7779 3.0
7780 3.0
7781 2.0
7782 2.0
7783 3.0
7784 3.0
7785 2.0
7786 2.0
7787 3.0
7788 3.0
7789 2.0
7790 2.0
7791 3.0
7792 3.0
7793 2.0
7794 2.0
7795 3.0
7796 3.0
7797 2.0
7798 2.0
7799 3.0
7800 3.0
7801 2.0
7802 2.0
7803 3.0
7804 3.0
7805 2.0
7806 2.0
7807 3.0
7808 3.0
7809 2.0
7810 2.0
7811 3.0
7812 3.0
7813 2.0
7814 2.0
7815 3.0
7816 3.0
7817 2.0
7818 2.0
7819 3.0
7820 3.0
7821 2.0
7822 2.0
7823 3.0
7824 3.0
7825 2.0
7826 2.0
7827 3.0
7828 3.0
7829 2.0
7830 2.0
7831 3.0
7832 3.0
7833 2.0
7834 2.0
7835 2.0
7836 3.0
7837 3.0
7838 2.0
7839 3.0
7840 3.0
7841 2.0
7842 3.0
7843 3.0
7844 2.0
7845 3.0
7846 3.0
7847 2.0
7848 3.0
7849 3.0
7850 2.0
7851 3.0
7852 3.0
7853 2.0
7854 3.0
7855 3.0
7856 2.0
7857 3.0
7858 3.0
7859 2.0
7860 3.0
7861 3.0
7862 2.0
7863 3.0
7864 3.0
7865 2.0
7866 3.0
7867 3.0
7868 2.0
7869 3.0
7870 3.0
7871 2.0
7872 3.0
7873 3.0
7874 2.0
7875 3.0
7876 3.0
7877 2.0
7878 3.0
7879 3.0
7880 2.0
7881 3.0
7882 3.0
7883 3.0
7884 3.0
7885 2.0
7886 2.0
7887 2.0
7888 3.0
7889 3.0
7890 2.0
7891 2.0
7892 2.0
7893 3.0
7894 3.0
7895 2.0
7896 2.0
7897 2.0
7898 3.0
7899 3.0
7900 2.0
7901 2.0
7902 2.0
7903 3.0
7904 3.0
7905 2.0
7906 2.0
7907 2.0
7908 3.0
7909 3.0
7910 2.0
7911 2.0
7912 2.0
7913 3.0
7914 3.0
7915 2.0
7916 2.0
7917 2.0
7918 3.0
7919 3.0
7920 2.0
7921 2.0
7922 2.0
7923 3.0
7924 3.0
7925 2.0
7926 2.0
7927 2.0
7928 3.0
7929 3.0
7930 2.0
7931 2.0
7932 2.0
7933 3.0
7934 3.0
7935 2.0
7936 2.0
7937 2.0
7938 3.0
7939 3.0
7940 2.0
7941 2.0
7942 2.0
7943 3.0
7944 3.0
7945 2.0
7946 2.0
7947 2.0
7948 3.0
7949 3.0
7950 2.0
7951 2.0
7952 2.0
7953 3.0
7954 3.0
7955 2.0
7956 2.0
7957 2.0
7958 3.0
7959 3.0
7960 2.0
7961 2.0
7962 2.0
7963 2.0
7964 2.0
7965 2.0
7966 2.0
7967 2.0
7968 2.0
7969 2.0
7970 2.0
7971 2.0
7972 2.0
7973 2.0
7974 2.0
7975 2.0
7976 2.0
7977 2.0
7978 2.0
7979 2.0
7980 2.0
7981 2.0
7982 2.0
7983 2.0
7984 2.0
7985 2.0
7986 2.0
7987 2.0
7988 2.0
7989 2.0
7990 2.0
7991 2.0
7992 2.0
7993 2.0
7994 2.0
7995 2.0
7996 2.0
7997 2.0
7998 2.0
7999 2.0
8000 2.0
8001 2.0
8002 2.0
8003 2.0
8004 2.0
8005 2.0
8006 2.0
8007 2.0
8008 2.0
8009 2.0
8010 2.0
8011 2.0
8012 2.0
8013 2.0
8014 2.0
8015 2.0
8016 2.0
8017 2.0
8018 2.0
8019 2.0
8020 2.0
8021 2.0
8022 2.0
8023 2.0
8024 2.0
8025 2.0
8026 2.0
8027 2.0
8028 2.0
8029 2.0
8030 2.0
8031 2.0
8032 2.0
8033 2.0
8034 2.0
8035 2.0
8036 2.0
8037 2.0
8038 2.0
8039 2.0
8040 2.0
8041 2.0
8042 2.0
8043 2.0
8044 2.0
8045 2.0
8046 2.0
8047 2.0
8048 2.0
8049 2.0
8050 2.0
8051 2.0
8052 2.0
8053 2.0
8054 2.0
8055 2.0
8056 2.0
8057 2.0
8058 2.0
8059 3.0
8060 4.0
8061 3.0
8062 3.0
8063 3.0
8064 3.0
8065 3.0
8066 4.0
8067 3.0
8068 3.0
8069 3.0
8070 3.0
8071 3.0
8072 4.0
8073 3.0
8074 3.0
8075 3.0
8076 3.0
8077 3.0
8078 4.0
8079 3.0
8080 3.0
8081 3.0
8082 3.0
8083 3.0
8084 4.0
8085 3.0
8086 3.0
8087 3.0
8088 3.0
8089 3.0
8090 4.0
8091 3.0
8092 3.0
8093 3.0
8094 3.0
8095 3.0
8096 4.0
8097 3.0
8098 3.0
8099 3.0
8100 3.0
8101 3.0
8102 4.0
8103 3.0
8104 3.0
8105 3.0
8106 3.0
8107 3.0
8108 4.0
8109 3.0
8110 3.0
8111 3.0
8112 3.0
8113 3.0
8114 4.0
8115 3.0
8116 3.0
8117 3.0
8118 3.0
8119 3.0
8120 4.0
8121 3.0
8122 3.0
8123 3.0
8124 3.0
8125 3.0
8126 4.0
8127 3.0
8128 3.0
8129 3.0
8130 3.0
8131 3.0
8132 4.0
8133 3.0
8134 3.0
8135 3.0
8136 3.0
8137 3.0
8138 4.0
8139 3.0
8140 3.0
8141 3.0
8142 3.0
8143 3.0
8144 4.0
8145 3.0
8146 3.0
8147 3.0
8148 3.0
8149 3.0
8150 4.0
8151 3.0
8152 3.0
8153 3.0
8154 3.0
8155 1.0
8156 2.0
8157 2.0
8158 2.0
8159 2.0
8160 2.0
8161 2.0
8162 2.0
8163 2.0
8164 2.0
8165 2.0
8166 2.0
8167 2.0
8168 2.0
8169 2.0
8170 2.0
8171 2.0
8172 2.0
8173 2.0
8174 2.0
8175 2.0
8176 2.0
8177 2.0
8178 2.0
8179 2.0
8180 2.0
8181 2.0
8182 2.0
8183 2.0
8184 2.0
8185 2.0
8186 2.0
8187 2.0
8188 2.0
8189 2.0
8190 2.0
8191 2.0
8192 2.0
8193 2.0
8194 2.0
8195 2.0
8196 2.0
8197 2.0
8198 2.0
8199 2.0
8200 2.0
8201 2.0
8202 2.0
8203 2.0
8204 2.0
8205 2.0
8206 2.0
8207 2.0
8208 2.0
8209 2.0
8210 2.0
8211 2.0
8212 2.0
8213 2.0
8214 2.0
8215 2.0
8216 2.0
8217 2.0
8218 2.0
8219 1.0
8220 3.0
8221 3.0
8222 3.0
8223 3.0
8224 3.0
8225 3.0
8226 3.0
8227 3.0
8228 3.0
8229 3.0
8230 3.0
8231 3.0
8232 3.0
8233 3.0
8234 3.0
8235 3.0
8236 3.0
8237 3.0
8238 3.0
8239 3.0
8240 3.0
8241 3.0
8242 3.0
8243 3.0
8244 3.0
8245 3.0
8246 3.0
8247 3.0
8248 3.0
8249 3.0
8250 3.0
8251 3.0
8252 3.0
8253 3.0
8254 3.0
8255 3.0
8256 3.0
8257 3.0
8258 3.0
8259 3.0
8260 3.0
8261 3.0
8262 3.0
8263 3.0
8264 3.0
8265 3.0
8266 3.0
8267 3.0
8268 3.0
8269 3.0
8270 3.0
8271 3.0
8272 3.0
8273 3.0
8274 3.0
8275 3.0
8276 3.0
8277 3.0
8278 3.0
8279 3.0
8280 3.0
8281 3.0
8282 3.0
8283 3.0
8284 3.0
8285 3.0
8286 3.0
8287 3.0
8288 3.0
8289 3.0
8290 3.0
8291 3.0
8292 3.0
8293 3.0
8294 3.0
8295 3.0
8296 3.0
8297 3.0
8298 3.0
8299 3.0
8300 3.0
8301 3.0
8302 3.0
8303 3.0
8304 3.0
8305 3.0
8306 3.0
8307 3.0
8308 3.0
8309 3.0
8310 3.0
8311 3.0
8312 3.0
8313 3.0
8314 3.0
8315 3.0
8316 2.0
8317 2.0
8318 2.0
8319 2.0
8320 2.0
8321 2.0
8322 2.0
8323 2.0
8324 2.0
8325 2.0
8326 2.0
8327 2.0
8328 2.0
8329 2.0
8330 2.0
8331 2.0
8332 2.0
8333 2.0
8334 2.0
8335 2.0
8336 2.0
8337 2.0
8338 2.0
8339 2.0
8340 2.0
8341 2.0
8342 2.0
8343 2.0
8344 2.0
8345 2.0
8346 2.0
8347 2.0
8348 2.0
8349 2.0
8350 2.0
8351 2.0
8352 2.0
8353 2.0
8354 2.0
8355 2.0
8356 2.0
8357 2.0
8358 2.0
8359 2.0
8360 2.0
8361 2.0
8362 2.0
8363 3.0
8364 3.0
8365 2.0
8366 2.0
8367 3.0
8368 3.0
8369 2.0
8370 2.0
8371 3.0
8372 3.0
8373 2.0
8374 2.0
8375 3.0
8376 3.0
8377 2.0
8378 2.0
8379 3.0
8380 3.0
8381 2.0
8382 2.0
8383 3.0
8384 3.0
8385 2.0
8386 2.0
8387 3.0
8388 3.0
8389 2.0
8390 2.0
8391 3.0
8392 3.0
8393 2.0
8394 2.0
8395 3.0
8396 3.0
8397 2.0
8398 2.0
8399 3.0
8400 3.0
8401 2.0
8402 2.0
8403 3.0
8404 3.0
8405 2.0
8406 2.0
8407 3.0
8408 3.0
8409 2.0
8410 2.0
8411 3.0
8412 3.0
8413 2.0
8414 2.0
8415 3.0
8416 3.0
8417 2.0
8418 2.0
8419 3.0
8420 3.0
8421 2.0
8422 2.0
8423 3.0
8424 3.0
8425 2.0
8426 2.0
8427 2.0
8428 3.0
8429 3.0
8430 2.0
8431 3.0
8432 3.0
8433 2.0
8434 3.0
8435 3.0
8436 2.0
8437 3.0
8438 3.0
8439 2.0
8440 3.0
8441 3.0
8442 2.0
8443 3.0
8444 3.0
8445 2.0
8446 3.0
8447 3.0
8448 2.0
8449 3.0
8450 3.0
8451 2.0
8452 3.0
8453 3.0
8454 2.0
8455 3.0
8456 3.0
8457 2.0
8458 3.0
8459 3.0
8460 2.0
8461 3.0
8462 3.0
8463 2.0
8464 3.0
8465 3.0
8466 2.0
8467 3.0
8468 3.0
8469 2.0
8470 3.0
8471 3.0
8472 2.0
8473 3.0
8474 3.0
8475 3.0
8476 3.0
8477 2.0
8478 2.0
8479 2.0
8480 3.0
8481 3.0
8482 2.0
8483 2.0
8484 2.0
8485 3.0
8486 3.0
8487 2.0
8488 2.0
8489 2.0
8490 3.0
8491 3.0
8492 2.0
8493 2.0
8494 2.0
8495 3.0
8496 3.0
8497 2.0
8498 2.0
8499 2.0
8500 3.0
8501 3.0
8502 2.0
8503 2.0
8504 2.0
8505 3.0
8506 3.0
8507 2.0
8508 2.0
8509 2.0
8510 3.0
8511 3.0
8512 2.0
8513 2.0
8514 2.0
8515 3.0
8516 3.0
8517 2.0
8518 2.0
8519 2.0
8520 3.0
8521 3.0
8522 2.0
8523 2.0
8524 2.0
8525 3.0
8526 3.0
8527 2.0
8528 2.0
8529 2.0
8530 3.0
8531 3.0
8532 2.0
8533 2.0
8534 2.0
8535 3.0
8536 3.0
8537 2.0
8538 2.0
8539 2.0
8540 3.0
8541 3.0
8542 2.0
8543 2.0
8544 2.0
8545 3.0
8546 3.0
8547 2.0
8548 2.0
8549 2.0
8550 3.0
8551 3.0
8552 2.0
8553 2.0
8554 2.0
8555 2.0
8556 2.0
8557 2.0
8558 2.0
8559 2.0
8560 2.0
8561 2.0
8562 2.0
8563 2.0
8564 2.0
8565 2.0
8566 2.0
8567 2.0
8568 2.0
8569 2.0
8570 2.0
8571 2.0
8572 2.0
8573 2.0
8574 2.0
8575 2.0
8576 2.0
8577 2.0
8578 2.0
8579 2.0
8580 2.0
8581 2.0
8582 2.0
8583 2.0
8584 2.0
8585 2.0
8586 2.0
8587 2.0
8588 2.0
8589 2.0
8590 2.0
8591 2.0
8592 2.0
8593 2.0
8594 2.0
8595 2.0
8596 2.0
8597 2.0
8598 2.0
8599 2.0
8600 2.0
8601 2.0
8602 2.0
8603 2.0
8604 2.0
8605 2.0
8606 2.0
8607 2.0
8608 2.0
8609 2.0
8610 2.0
8611 2.0
8612 2.0
8613 2.0
8614 2.0
8615 2.0
8616 2.0
8617 2.0
8618 2.0
8619 2.0
8620 2.0
8621 2.0
8622 2.0
8623 2.0
8624 2.0
8625 2.0
8626 2.0
8627 2.0
8628 2.0
8629 2.0
8630 2.0
8631 2.0
8632 2.0
8633 2.0
8634 2.0
8635 2.0
8636 2.0
8637 2.0
8638 2.0
8639 2.0
8640 2.0
8641 2.0
8642 2.0
8643 2.0
8644 2.0
8645 2.0
8646 2.0
8647 2.0
8648 2.0
8649 2.0
8650 2.0
8651 3.0
8652 4.0
8653 3.0
8654 3.0
8655 3.0
8656 3.0
8657 3.0
8658 4.0
8659 3.0
8660 3.0
8661 3.0
8662 3.0
8663 3.0
8664 4.0
8665 3.0
8666 3.0
8667 3.0
8668 3.0
8669 3.0
8670 4.0
8671 3.0
8672 3.0
8673 3.0
8674 3.0
8675 3.0
8676 4.0
8677 3.0
8678 3.0
8679 3.0
8680 3.0
8681 3.0
8682 4.0
8683 3.0
8684 3.0
8685 3.0
8686 3.0
8687 3.0
8688 4.0
8689 3.0
8690 3.0
8691 3.0
8692 3.0
8693 3.0
8694 4.0
8695 3.0
8696 3.0
8697 3.0
8698 3.0
8699 3.0
8700 4.0
8701 3.0
8702 3.0
8703 3.0
8704 3.0
8705 3.0
8706 4.0
8707 3.0
8708 3.0
8709 3.0
8710 3.0
8711 3.0
8712 4.0
8713 3.0
8714 3.0
8715 3.0
8716 3.0
8717 3.0
8718 4.0
8719 3.0
8720 3.0
8721 3.0
8722 3.0
8723 3.0
8724 4.0
8725 3.0
8726 3.0
8727 3.0
8728 3.0
8729 3.0
8730 4.0
8731 3.0
8732 3.0
8733 3.0
8734 3.0
8735 3.0
8736 4.0
8737 3.0
8738 3.0
8739 3.0
8740 3.0
8741 3.0
8742 4.0
8743 3.0
8744 3.0
8745 3.0
8746 3.0
8747 1.0
8748 2.0
8749 2.0
8750 2.0
8751 2.0
8752 2.0
8753 2.0
8754 2.0
8755 2.0
8756 2.0
8757 2.0
8758 2.0
8759 2.0
8760 2.0
8761 2.0
8762 2.0
8763 2.0
8764 2.0
8765 2.0
8766 2.0
8767 2.0
8768 2.0
8769 2.0
8770 2.0
8771 2.0
8772 2.0
8773 2.0
8774 2.0
8775 2.0
8776 2.0
8777 2.0
8778 2.0
8779 2.0
8780 2.0
8781 2.0
8782 2.0
8783 2.0
8784 2.0
8785 2.0
8786 2.0
8787 2.0
8788 2.0
8789 2.0
8790 2.0
8791 2.0
8792 2.0
8793 2.0
8794 2.0
8795 2.0
8796 2.0
8797 2.0
8798 2.0
8799 2.0
8800 2.0
8801 2.0
8802 2.0
8803 2.0
8804 2.0
8805 2.0
8806 2.0
8807 2.0
8808 2.0
8809 2.0
8810 2.0
8811 1.0
8812 3.0
8813 3.0
8814 3.0
8815 3.0
8816 3.0
8817 3.0
8818 3.0
8819 3.0
8820 3.0
8821 3.0
8822 3.0
8823 3.0
8824 3.0
8825 3.0
8826 3.0
8827 3.0
8828 3.0
8829 3.0
8830 3.0
8831 3.0
8832 3.0
8833 3.0
8834 3.0
8835 3.0
8836 3.0
8837 3.0
8838 3.0
8839 3.0
8840 3.0
8841 3.0
8842 3.0
8843 3.0
8844 3.0
8845 3.0
8846 3.0
8847 3.0
8848 3.0
8849 3.0
8850 3.0
8851 3.0
8852 3.0
8853 3.0
8854 3.0
8855 3.0
8856 3.0
8857 3.0
8858 3.0
8859 3.0
8860 3.0
8861 3.0
8862 3.0
8863 3.0
8864 3.0
8865 3.0
8866 3.0
8867 3.0
8868 3.0
8869 3.0
8870 3.0
8871 3.0
8872 3.0
8873 3.0
8874 3.0
8875 3.0
8876 3.0
8877 3.0
8878 3.0
8879 3.0
8880 3.0
8881 3.0
8882 3.0
8883 3.0
8884 3.0
8885 3.0
8886 3.0
8887 3.0
8888 3.0
8889 3.0
8890 3.0
8891 3.0
8892 3.0
8893 3.0
8894 3.0
8895 3.0
8896 3.0
8897 3.0
8898 3.0
8899 3.0
8900 3.0
8901 3.0
8902 3.0
8903 3.0
8904 3.0
8905 3.0
8906 3.0
8907 3.0
8908 2.0
8909 2.0
8910 2.0
8911 2.0
8912 2.0
8913 2.0
8914 2.0
8915 2.0
8916 2.0
8917 2.0
8918 2.0
8919 2.0
8920 2.0
8921 2.0
8922 2.0
8923 2.0
8924 2.0
8925 2.0
8926 2.0
8927 2.0
8928 2.0
8929 2.0
8930 2.0
8931 2.0
8932 2.0
8933 2.0
8934 2.0
8935 2.0
8936 2.0
8937 2.0
8938 2.0
8939 2.0
8940 2.0
8941 2.0
8942 2.0
8943 2.0
8944 2.0
8945 2.0
8946 2.0
8947 2.0
8948 2.0
8949 2.0
8950 2.0
8951 2.0
8952 2.0
8953 2.0
8954 2.0
8955 3.0
8956 3.0
8957 2.0
8958 2.0
8959 3.0
8960 3.0
8961 2.0
8962 2.0
8963 3.0
8964 3.0
8965 2.0
8966 2.0
8967 3.0
8968 3.0
8969 2.0
8970 2.0
8971 3.0
8972 3.0
8973 2.0
8974 2.0
8975 3.0
8976 3.0
8977 2.0
8978 2.0
8979 3.0
8980 3.0
8981 2.0
8982 2.0
8983 3.0
8984 3.0
8985 2.0
8986 2.0
8987 3.0
8988 3.0
8989 2.0
8990 2.0
8991 3.0
8992 3.0
8993 2.0
8994 2.0
8995 3.0
8996 3.0
8997 2.0
8998 2.0
8999 3.0
9000 3.0
9001 2.0
9002 2.0
9003 3.0
9004 3.0
9005 2.0
9006 2.0
9007 3.0
9008 3.0
9009 2.0
9010 2.0
9011 3.0
9012 3.0
9013 2.0
9014 2.0
9015 3.0
9016 3.0
9017 2.0
9018 2.0
9019 2.0
9020 3.0
9021 3.0
9022 2.0
9023 3.0
9024 3.0
9025 2.0
9026 3.0
9027 3.0
9028 2.0
9029 3.0
9030 3.0
9031 2.0
9032 3.0
9033 3.0
9034 2.0
9035 3.0
9036 3.0
9037 2.0
9038 3.0
9039 3.0
9040 2.0
9041 3.0
9042 3.0
9043 2.0
9044 3.0
9045 3.0
9046 2.0
9047 3.0
9048 3.0
9049 2.0
9050 3.0
9051 3.0
9052 2.0
9053 3.0
9054 3.0
9055 2.0
9056 3.0
9057 3.0
9058 2.0
9059 3.0
9060 3.0
9061 2.0
9062 3.0
9063 3.0
9064 2.0
9065 3.0
9066 3.0
9067 3.0
9068 3.0
9069 2.0
9070 2.0
9071 2.0
9072 3.0
9073 3.0
9074 2.0
9075 2.0
9076 2.0
9077 3.0
9078 3.0
9079 2.0
9080 2.0
9081 2.0
9082 3.0
9083 3.0
9084 2.0
9085 2.0
9086 2.0
9087 3.0
9088 3.0
9089 2.0
9090 2.0
9091 2.0
9092 3.0
9093 3.0
9094 2.0
9095 2.0
9096 2.0
9097 3.0
9098 3.0
9099 2.0
9100 2.0
9101 2.0
9102 3.0
9103 3.0
9104 2.0
9105 2.0
9106 2.0
9107 3.0
9108 3.0
9109 2.0
9110 2.0
9111 2.0
9112 3.0
9113 3.0
9114 2.0
9115 2.0
9116 2.0
9117 3.0
9118 3.0
9119 2.0
9120 2.0
9121 2.0
9122 3.0
9123 3.0
9124 2.0
9125 2.0
9126 2.0
9127 3.0
9128 3.0
9129 2.0
9130 2.0
9131 2.0
9132 3.0
9133 3.0
9134 2.0
9135 2.0
9136 2.0
9137 3.0
9138 3.0
9139 2.0
9140 2.0
9141 2.0
9142 3.0
9143 3.0
9144 2.0
9145 2.0
9146 2.0
9147 2.0
9148 2.0
9149 2.0
9150 2.0
9151 2.0
9152 2.0
9153 2.0
9154 2.0
9155 2.0
9156 2.0
9157 2.0
9158 2.0
9159 2.0
9160 2.0
9161 2.0
9162 2.0
9163 2.0
9164 2.0
9165 2.0
9166 2.0
9167 2.0
9168 2.0
9169 2.0
9170 2.0
9171 2.0
9172 2.0
9173 2.0
9174 2.0
9175 2.0
9176 2.0
9177 2.0
9178 2.0
9179 2.0
9180 2.0
9181 2.0
9182 2.0
9183 2.0
9184 2.0
9185 2.0
9186 2.0
9187 2.0
9188 2.0
9189 2.0
9190 2.0
9191 2.0
9192 2.0
9193 2.0
9194 2.0
9195 2.0
9196 2.0
9197 2.0
9198 2.0
9199 2.0
9200 2.0
9201 2.0
9202 2.0
9203 2.0
9204 2.0
9205 2.0
9206 2.0
9207 2.0
9208 2.0
9209 2.0
9210 2.0
9211 2.0
9212 2.0
9213 2.0
9214 2.0
9215 2.0
9216 2.0
9217 2.0
9218 2.0
9219 2.0
9220 2.0
9221 2.0
9222 2.0
9223 2.0
9224 2.0
9225 2.0
9226 2.0
9227 2.0
9228 2.0
9229 2.0
9230 2.0
9231 2.0
9232 2.0
9233 2.0
9234 2.0
9235 2.0
9236 2.0
9237 2.0
9238 2.0
9239 2.0
9240 2.0
9241 2.0
9242 2.0
9243 3.0
9244 4.0
9245 3.0
9246 3.0
9247 3.0
9248 3.0
9249 3.0
9250 4.0
9251 3.0
9252 3.0
9253 3.0
9254 3.0
9255 3.0
9256 4.0
9257 3.0
9258 3.0
9259 3.0
9260 3.0
9261 3.0
9262 4.0
9263 3.0
9264 3.0
9265 3.0
9266 3.0
9267 3.0
9268 4.0
9269 3.0
9270 3.0
9271 3.0
9272 3.0
9273 3.0
9274 4.0
9275 3.0
9276 3.0
9277 3.0
9278 3.0
9279 3.0
9280 4.0
9281 3.0
9282 3.0
9283 3.0
9284 3.0
9285 3.0
9286 4.0
9287 3.0
9288 3.0
9289 3.0
9290 3.0
9291 3.0
9292 4.0
9293 3.0
9294 3.0
9295 3.0
9296 3.0
9297 3.0
9298 4.0
9299 3.0
9300 3.0
9301 3.0
9302 3.0
9303 3.0
9304 4.0
9305 3.0
9306 3.0
9307 3.0
9308 3.0
9309 3.0
9310 4.0
9311 3.0
9312 3.0
9313 3.0
9314 3.0
9315 3.0
9316 4.0
9317 3.0
9318 3.0
9319 3.0
9320 3.0
9321 3.0
9322 4.0
9323 3.0
9324 3.0
9325 3.0
9326 3.0
9327 3.0
9328 4.0
9329 3.0
9330 3.0
9331 3.0
9332 3.0
9333 3.0
9334 4.0
9335 3.0
9336 3.0
9337 3.0
9338 3.0
9339 1.0
9340 2.0
9341 2.0
9342 2.0
9343 2.0
9344 2.0
9345 2.0
9346 2.0
9347 2.0
9348 2.0
9349 2.0
9350 2.0
9351 2.0
9352 2.0
9353 2.0
9354 2.0
9355 2.0
9356 2.0
9357 2.0
9358 2.0
9359 2.0
9360 2.0
9361 2.0
9362 2.0
9363 2.0
9364 2.0
9365 2.0
9366 2.0
9367 2.0
9368 2.0
9369 2.0
9370 2.0
9371 2.0
9372 2.0
9373 2.0
9374 2.0
9375 2.0
9376 2.0
9377 2.0
9378 2.0
9379 2.0
9380 2.0
9381 2.0
9382 2.0
9383 2.0
9384 2.0
9385 2.0
9386 2.0
9387 2.0
9388 2.0
9389 2.0
9390 2.0
9391 2.0
9392 2.0
9393 2.0
9394 2.0
9395 2.0
9396 2.0
9397 2.0
9398 2.0
9399 2.0
9400 2.0
9401 2.0
9402 2.0
9403 1.0
9404 3.0
9405 3.0
9406 3.0
9407 3.0
9408 3.0
9409 3.0
9410 3.0
9411 3.0
9412 3.0
9413 3.0
9414 3.0
9415 3.0
9416 3.0
9417 3.0
9418 3.0
9419 3.0
9420 3.0
9421 3.0
9422 3.0
9423 3.0
9424 3.0
9425 3.0
9426 3.0
9427 3.0
9428 3.0
9429 3.0
9430 3.0
9431 3.0
9432 3.0
9433 3.0
9434 3.0
9435 3.0
9436 3.0
9437 3.0
9438 3.0
9439 3.0
9440 3.0
9441 3.0
9442 3.0
9443 3.0
9444 3.0
9445 3.0
9446 3.0
9447 3.0
9448 3.0
9449 3.0
9450 3.0
9451 3.0
9452 3.0
9453 3.0
9454 3.0
9455 3.0
9456 3.0
9457 3.0
9458 3.0
9459 3.0
9460 3.0
9461 3.0
9462 3.0
9463 3.0
9464 3.0
9465 3.0
9466 3.0
9467 3.0
9468 3.0
9469 3.0
9470 3.0
9471 3.0
9472 3.0
9473 3.0
9474 3.0
9475 3.0
9476 3.0
9477 3.0
9478 3.0
9479 3.0
9480 3.0
9481 3.0
9482 3.0
9483 3.0
9484 1.0
9485 1.0
9486 1.0
9487 1.0
9488 1.0
9489 1.0
9490 1.0
9491 1.0
9492 1.0
9493 1.0
9494 1.0
9495 1.0
9496 1.0
9497 1.0
9498 1.0
9499 1.0

edges:
1 2
1 47
2 31
3 4
3 50
4 32
5 6
5 53
6 33
7 8
7 56
8 34
9 10
9 59
10 35
11 12
11 62
12 36
13 14
13 65
14 37
15 16
15 68
16 38
17 18
17 71
18 39
19 20
19 74
20 40
21 22
21 77
22 41
23 24
23 80
24 42
25 26
25 83
26 43
27 28
27 86
28 44
29 30
29 89
30 45
31 48
32 51
33 54
34 57
35 60
36 63
37 66
38 69
39 72
40 75
41 78
42 81
43 84
44 87
45 90
46 92
46 93
47 157
47 158
48 159
49 96
49 97
50 160
50 161
51 162
52 100
52 101
53 163
53 164
54 165
55 104
55 105
56 166
56 167
57 168
58 108
58 109
59 169
59 170
60 171
61 112
61 113
62 172
62 173
63 174
64 116
64 117
65 175
65 176
66 177
67 120
67 121
68 178
68 179
69 180
70 124
70 125
71 181
71 182
72 183
73 128
73 129
74 184
74 185
75 186
76 132
76 133
77 187
77 188
78 189
79 136
79 137
80 190
80 191
81 192
82 140
82 141
83 193
83 194
84 195
85 144
85 145
86 196
86 197
87 198
88 148
88 149
89 199
89 200
90 201
91 152
91 153
92 93
92 156
92 202
92 203
93 94
93 202
93 203
94 157
94 203
94 204
95 158
95 205
95 206
96 97
96 159
96 207
96 208
97 98
97 207
97 208
98 160
98 208
98 209
99 161
99 210
99 211
100 101
100 162
100 212
100 213
101 102
101 212
101 213
102 163
102 213
102 214
103 164
103 215
103 216
104 105
104 165
104 217
104 218
105 106
105 217
105 218
106 166
106 218
106 219
107 167
107 220
107 221
108 109
108 168
108 222
108 223
109 110
109 222
109 223
110 169
110 223
110 224
111 170
111 225
111 226
112 113
112 171
112 227
112 228
113 114
113 227
113 228
114 172
114 228
114 229
115 173
115 230
115 231
116 117
116 174
116 232
116 233
117 118
117 232
117 233
118 175
118 233
118 234
119 176
119 235
119 236
120 121
120 177
120 237
120 238
121 122
121 237
121 238
122 178
122 238
122 239
123 179
123 240
123 241
124 125
124 180
124 242
124 243
125 126
125 242
125 243
126 181
126 243
126 244
127 182
127 245
127 246
128 129
128 183
128 247
128 248
129 130
129 247
129 248
130 184
130 248
130 249
131 185
131 250
131 251
132 133
132 186
132 252
132 253
133 134
133 252
133 253
134 187
134 253
134 254
135 188
135 255
135 256
136 137
136 189
136 257
136 258
137 138
137 257
137 258
138 190
138 258
138 259
139 191
139 260
139 261
140 141
140 192
140 262
140 263
141 142
141 262
141 263
142 193
142 263
142 264
143 194
143 265
143 266
144 145
144 195
144 267
144 268
145 146
145 267
145 268
146 196
146 268
146 269
147 197
147 270
147 271
148 149
148 198
148 272
148 273
149 150
149 272
149 273
150 199
150 273
150 274
151 200
151 275
151 276
152 153
152 201
152 277
152 278
153 154
153 277
153 278
154 278
154 279
155 280
155 281
156 202
157 158
157 204
157 282
157 283
158 205
158 282
158 283
159 207
160 161
160 209
160 284
160 285
161 210
161 284
161 285
162 212
163 164
163 214
163 286
163 287
164 215
164 286
164 287
165 217
166 167
166 219
166 288
166 289
167 220
167 288
167 289
168 222
169 170
169 224
169 290
169 291
170 225
170 290
170 291
171 227
172 173
172 229
172 292
172 293
173 230
173 292
173 293
174 232
175 176
175 234
175 294
175 295
176 235
176 294
176 295
177 237
178 179
178 239
178 296
178 297
179 240
179 296
179 297
180 242
181 182
181 244
181 298
181 299
182 245
182 298
182 299
183 247
184 185
184 249
184 300
184 301
185 250
185 300
185 301
186 252
187 188
187 254
187 302
187 303
188 255
188 302
188 303
189 257
190 191
190 259
190 304
190 305
191 260
191 304
191 305
192 262
193 194
193 264
193 306
193 307
194 265
194 306
194 307
195 267
196 197
196 269
196 308
196 309
197 270
197 308
197 309
198 272
199 200
199 274
199 310
199 311
200 275
200 310
200 311
201 277
202 203
202 314
203 314
204 282
204 315
205 283
205 316
206 317
207 208
207 318
208 318
209 284
209 319
210 285
210 320
211 321
212 213
212 322
213 322
214 286
214 323
215 287
215 324
216 325
217 218
217 326
218 326
219 288
219 327
220 289
220 328
221 329
222 223
222 330
223 330
224 290
224 331
225 291
225 332
226 333
227 228
227 334
228 334
229 292
229 335
230 293
230 336
231 337
232 233
232 338
233 338
234 294
234 339
235 295
235 340
236 341
237 238
237 342
238 342
239 296
239 343
240 297
240 344
241 345
242 243
242 346
243 346
244 298
244 347
245 299
245 348
246 349
247 248
247 350
248 350
249 300
249 351
250 301
250 352
251 353
252 253
252 354
253 354
254 302
254 355
255 303
255 356
256 357
257 258
257 358
258 358
259 304
259 359
260 305
260 360
261 361
262 263
262 362
263 362
264 306
264 363
265 307
265 364
266 365
267 268
267 366
268 366
269 308
269 367
270 309
270 368
271 369
272 273
272 370
273 370
274 310
274 371
275 311
275 372
276 373
277 278
277 374
278 374
279 312
279 375
280 313
280 376
281 377
282 283
282 315
283 316
284 285
284 319
285 320
286 287
286 323
287 324
288 289
288 327
289 328
290 291
290 331
291 332
292 293
292 335
293 336
294 295
294 339
295 340
296 297
296 343
297 344
298 299
298 347
299 348
300 301
300 351
301 352
302 303
302 355
303 356
304 305
304 359
305 360
306 307
306 363
307 364
308 309
308 367
309 368
310 311
310 371
311 372
312 313
312 375
313 376
314 378
314 379
315 379
316 380
316 381
317 382
317 383
318 384
318 385
319 385
320 386
320 387
321 388
321 389
322 390
322 391
323 391
324 392
324 393
325 394
325 395
326 396
326 397
327 397
328 398
328 399
329 400
329 401
330 402
330 403
331 403
332 404
332 405
333 406
333 407
334 408
334 409
335 409
336 410
336 411
337 412
337 413
338 414
338 415
339 415
340 416
340 417
341 418
341 419
342 420
342 421
343 421
344 422
344 423
345 424
345 425
346 426
346 427
347 427
348 428
348 429
349 430
349 431
350 432
350 433
351 433
352 434
352 435
353 436
353 437
354 438
354 439
355 439
356 440
356 441
357 442
357 443
358 444
358 445
359 445
360 446
360 447
361 448
361 449
362 450
362 451
363 451
364 452
364 453
365 454
365 455
366 456
366 457
367 457
368 458
368 459
369 460
369 461
370 462
370 463
371 463
372 464
372 465
373 466
373 467
374 468
374 469
375 469
376 470
376 471
377 472
377 473
378 379
378 474
378 539
378 540
379 475
379 539
379 540
380 381
380 476
380 541
380 542
381 477
381 541
381 542
382 383
382 477
382 543
382 544
383 478
383 543
383 544
384 385
384 478
384 545
384 546
385 479
385 545
385 546
386 387
386 480
386 547
386 548
387 481
387 547
387 548
388 389
388 481
388 549
388 550
389 482
389 549
389 550
390 391
390 482
390 551
390 552
391 483
391 551
391 552
392 393
392 484
392 553
392 554
393 485
393 553
393 554
394 395
394 485
394 555
394 556
395 486
395 555
395 556
396 397
396 486
396 557
396 558
397 487
397 557
397 558
398 399
398 488
398 559
398 560
399 489
399 559
399 560
400 401
400 489
400 561
400 562
401 490
401 561
401 562
402 403
402 490
402 563
402 564
403 491
403 563
403 564
404 405
404 492
404 565
404 566
405 493
405 565
405 566
406 407
406 493
406 567
406 568
407 494
407 567
407 568
408 409
408 494
408 569
408 570
409 495
409 569
409 570
410 411
410 496
410 571
410 572
411 497
411 571
411 572
412 413
412 497
412 573
412 574
413 498
413 573
413 574
414 415
414 498
414 575
414 576
415 499
415 575
415 576
416 417
416 500
416 577
416 578
417 501
417 577
417 578
418 419
418 501
418 579
418 580
419 502
419 579
419 580
420 421
420 502
420 581
420 582
421 503
421 581
421 582
422 423
422 504
422 583
422 584
423 505
423 583
423 584
424 425
424 505
424 585
424 586
425 506
425 585
425 586
426 427
426 506
426 587
426 588
427 507
427 587
427 588
428 429
428 508
428 589
428 590
429 509
429 589
429 590
430 431
430 509
430 591
430 592
431 510
431 591
431 592
432 433
432 510
432 593
432 594
433 511
433 593
433 594
434 435
434 512
434 595
434 596
435 513
435 595
435 596
436 437
436 513
436 597
436 598
437 514
437 597
437 598
438 439
438 514
438 599
438 600
439 515
439 599
439 600
440 441
440 516
440 601
440 602
441 517
441 601
441 602
442 443
442 517
442 603
442 604
443 518
443 603
443 604
444 445
444 518
444 605
444 606
445 519
445 605
445 606
446 447
446 520
446 607
446 608
447 521
447 607
447 608
448 449
448 521
448 609
448 610
449 522
449 609
449 610
450 451
450 522
450 611
450 612
451 523
451 611
451 612
452 453
452 524
452 613
452 614
453 525
453 613
453 614
454 455
454 525
454 615
454 616
455 526
455 615
455 616
456 457
456 526
456 617
456 618
457 527
457 617
457 618
458 459
458 528
458 619
458 620
459 529
459 619
459 620
460 461
460 529
460 621
460 622
461 530
461 621
461 622
462 463
462 530
462 623
462 624
463 531
463 623
463 624
464 465
464 532
464 625
464 626
465 533
465 625
465 626
466 467
466 533
466 627
466 628
467 534
467 627
467 628
468 469
468 534
468 629
468 630
469 535
469 629
469 630
470 471
470 536
470 631
470 632
471 537
471 631
471 632
472 473
472 537
473 538
474 539
475 476
475 540
476 541
477 542
477 543
478 544
478 545
479 480
479 546
480 547
481 548
481 549
482 550
482 551
483 484
483 552
484 553
485 554
485 555
486 556
486 557
487 488
487 558
488 559
489 560
489 561
490 562
490 563
491 492
491 564
492 565
493 566
493 567
494 568
494 569
495 496
495 570
496 571
497 572
497 573
498 574
498 575
499 500
499 576
500 577
501 578
501 579
502 580
502 581
503 504
503 582
504 583
505 584
505 585
506 586
506 587
507 508
507 588
508 589
509 590
509 591
510 592
510 593
511 512
511 594
512 595
513 596
513 597
514 598
514 599
515 516
515 600
516 601
517 602
517 603
518 604
518 605
519 520
519 606
520 607
521 608
521 609
522 610
522 611
523 524
523 612
524 613
525 614
525 615
526 616
526 617
527 528
527 618
528 619
529 620
529 621
530 622
530 623
531 532
531 624
532 625
533 626
533 627
534 628
534 629
535 536
535 630
536 631
537 632
539 540
539 633
540 633
541 542
541 634
542 634
543 544
543 635
544 635
545 546
545 636
546 636
547 548
547 637
548 637
549 550
549 638
550 638
551 552
551 639
552 639
553 554
553 640
554 640
555 556
555 641
556 641
557 558
557 642
558 642
559 560
559 643
560 643
561 562
561 644
562 644
563 564
563 645
564 645
565 566
565 646
566 646
567 568
567 647
568 647
569 570
569 648
570 648
571 572
571 649
572 649
573 574
573 650
574 650
575 576
575 651
576 651
577 578
577 652
578 652
579 580
579 653
580 653
581 582
581 654
582 654
583 584
583 655
584 655
585 586
585 656
586 656
587 588
587 657
588 657
589 590
589 658
590 658
591 592
591 659
592 659
593 594
593 660
594 660
595 596
595 661
596 661
597 598
597 662
598 662
599 600
599 663
600 663
601 602
601 664
602 664
603 604
603 665
604 665
605 606
605 666
606 666
607 608
607 667
608 667
609 610
609 668
610 668
611 612
611 669
612 669
613 614
613 670
614 670
615 616
615 671
616 671
617 618
617 672
618 672
619 620
619 673
620 673
621 622
621 674
622 674
623 624
623 675
624 675
625 626
625 676
626 676
627 628
627 677
628 677
629 630
629 678
630 678
631 632
631 679
632 679
633 680
633 681
634 745
634 746
635 747
636 684
636 685
637 748
637 749
638 750
639 688
639 689
640 751
640 752
641 753
642 692
642 693
643 754
643 755
644 756
645 696
645 697
646 757
646 758
647 759
648 700
648 701
649 760
649 761
650 762
651 704
651 705
652 763
652 764
653 765
654 708
654 709
655 766
655 767
656 768
657 712
657 713
658 769
658 770
659 771
660 716
660 717
661 772
661 773
662 774
663 720
663 721
664 775
664 776
665 777
666 724
666 725
667 778
667 779
668 780
669 728
669 729
670 781
670 782
671 783
672 732
672 733
673 784
673 785
674 786
675 736
675 737
676 787
676 788
677 789
678 740
678 741
679 790
679 791
680 681
680 744
680 792
680 793
681 682
681 792
681 793
682 745
682 793
682 794
683 746
683 795
683 796
684 685
684 747
684 797
684 798
685 686
685 797
685 798
686 748
686 798
686 799
687 749
687 800
687 801
688 689
688 750
688 802
688 803
689 690
689 802
689 803
690 751
690 803
690 804
691 752
691 805
691 806
692 693
692 753
692 807
692 808
693 694
693 807
693 808
694 754
694 808
694 809
695 755
695 810
695 811
696 697
696 756
696 812
696 813
697 698
697 812
697 813
698 757
698 813
698 814
699 758
699 815
699 816
700 701
700 759
700 817
700 818
701 702
701 817
701 818
702 760
702 818
702 819
703 761
703 820
703 821
704 705
704 762
704 822
704 823
705 706
705 822
705 823
706 763
706 823
706 824
707 764
707 825
707 826
708 709
708 765
708 827
708 828
709 710
709 827
709 828
710 766
710 828
710 829
711 767
711 830
711 831
712 713
712 768
712 832
712 833
713 714
713 832
713 833
714 769
714 833
714 834
715 770
715 835
715 836
716 717
716 771
716 837
716 838
717 718
717 837
717 838
718 772
718 838
718 839
719 773
719 840
719 841
720 721
720 774
720 842
720 843
721 722
721 842
721 843
722 775
722 843
722 844
723 776
723 845
723 846
724 725
724 777
724 847
724 848
725 726
725 847
725 848
726 778
726 848
726 849
727 779
727 850
727 851
728 729
728 780
728 852
728 853
729 730
729 852
729 853
730 781
730 853
730 854
731 782
731 855
731 856
732 733
732 783
732 857
732 858
733 734
733 857
733 858
734 784
734 858
734 859
735 785
735 860
735 861
736 737
736 786
736 862
736 863
737 738
737 862
737 863
738 787
738 863
738 864
739 788
739 865
739 866
740 741
740 789
740 867
740 868
741 742
741 867
741 868
742 790
742 868
742 869
743 791
743 870
743 871
744 792
745 746
745 794
745 872
745 873
746 795
746 872
746 873
747 797
748 749
748 799
748 874
748 875
749 800
749 874
749 875
750 802
751 752
751 804
751 876
751 877
752 805
752 876
752 877
753 807
754 755
754 809
754 878
754 879
755 810
755 878
755 879
756 812
757 758
757 814
757 880
757 881
758 815
758 880
758 881
759 817
760 761
760 819
760 882
760 883
761 820
761 882
761 883
762 822
763 764
763 824
763 884
763 885
764 825
764 884
764 885
765 827
766 767
766 829
766 886
766 887
767 830
767 886
767 887
768 832
769 770
769 834
769 888
769 889
770 835
770 888
770 889
771 837
772 773
772 839
772 890
772 891
773 840
773 890
773 891
774 842
775 776
775 844
775 892
775 893
776 845
776 892
776 893
777 847
778 779
778 849
778 894
778 895
779 850
779 894
779 895
780 852
781 782
781 854
781 896
781 897
782 855
782 896
782 897
783 857
784 785
784 859
784 898
784 899
785 860
785 898
785 899
786 862
787 788
787 864
787 900
787 901
788 865
788 900
788 901
789 867
790 791
790 869
790 902
790 903
791 870
791 902
791 903
792 793
792 904
793 904
794 872
794 905
795 873
795 906
796 907
797 798
797 908
798 908
799 874
799 909
800 875
800 910
801 911
802 803
802 912
803 912
804 876
804 913
805 877
805 914
806 915
807 808
807 916
808 916
809 878
809 917
810 879
810 918
811 919
812 813
812 920
813 920
814 880
814 921
815 881
815 922
816 923
817 818
817 924
818 924
819 882
819 925
820 883
820 926
821 927
822 823
822 928
823 928
824 884
824 929
825 885
825 930
826 931
827 828
827 932
828 932
829 886
829 933
830 887
830 934
831 935
832 833
832 936
833 936
834 888
834 937
835 889
835 938
836 939
837 838
837 940
838 940
839 890
839 941
840 891
840 942
841 943
842 843
842 944
843 944
844 892
844 945
845 893
845 946
846 947
847 848
847 948
848 948
849 894
849 949
850 895
850 950
851 951
852 853
852 952
853 952
854 896
854 953
855 897
855 954
856 955
857 858
857 956
858 956
859 898
859 957
860 899
860 958
861 959
862 863
862 960
863 960
864 900
864 961
865 901
865 962
866 963
867 868
867 964
868 964
869 902
869 965
870 903
870 966
871 967
872 873
872 905
873 906
874 875
874 909
875 910
876 877
876 913
877 914
878 879
878 917
879 918
880 881
880 921
881 922
882 883
882 925
883 926
884 885
884 929
885 930
886 887
886 933
887 934
888 889
888 937
889 938
890 891
890 941
891 942
892 893
892 945
893 946
894 895
894 949
895 950
896 897
896 953
897 954
898 899
898 957
899 958
900 901
900 961
901 962
902 903
902 965
903 966
904 968
904 969
905 969
906 970
906 971
907 972
907 973
908 974
908 975
909 975
910 976
910 977
911 978
911 979
912 980
912 981
913 981
914 982
914 983
915 984
915 985
916 986
916 987
917 987
918 988
918 989
919 990
919 991
920 992
920 993
921 993
922 994
922 995
923 996
923 997
924 998
924 999
925 999
926 1000
926 1001
927 1002
927 1003
928 1004
928 1005
929 1005
930 1006
930 1007
931 1008
931 1009
932 1010
932 1011
933 1011
934 1012
934 1013
935 1014
935 1015
936 1016
936 1017
937 1017
938 1018
938 1019
939 1020
939 1021
940 1022
940 1023
941 1023
942 1024
942 1025
943 1026
943 1027
944 1028
944 1029
945 1029
946 1030
946 1031
947 1032
947 1033
948 1034
948 1035
949 1035
950 1036
950 1037
951 1038
951 1039
952 1040
952 1041
953 1041
954 1042
954 1043
955 1044
955 1045
956 1046
956 1047
957 1047
958 1048
958 1049
959 1050
959 1051
960 1052
960 1053
961 1053
962 1054
962 1055
963 1056
963 1057
964 1058
964 1059
965 1059
966 1060
966 1061
967 1062
967 1063
968 969
968 1064
968 1129
968 1130
969 1065
969 1129
969 1130
970 971
970 1066
970 1131
970 1132
971 1067
971 1131
971 1132
972 973
972 1067
972 1133
972 1134
973 1068
973 1133
973 1134
974 975
974 1068
974 1135
974 1136
975 1069
975 1135
975 1136
976 977
976 1070
976 1137
976 1138
977 1071
977 1137
977 1138
978 979
978 1071
978 1139
978 1140
979 1072
979 1139
979 1140
980 981
980 1072
980 1141
980 1142
981 1073
981 1141
981 1142
982 983
982 1074
982 1143
982 1144
983 1075
983 1143
983 1144
984 985
984 1075
984 1145
984 1146
985 1076
985 1145
985 1146
986 987
986 1076
986 1147
986 1148
987 1077
987 1147
987 1148
988 989
988 1078
988 1149
988 1150
989 1079
989 1149
989 1150
990 991
990 1079
990 1151
990 1152
991 1080
991 1151
991 1152
992 993
992 1080
992 1153
992 1154
993 1081
993 1153
993 1154
994 995
994 1082
994 1155
994 1156
995 1083
995 1155
995 1156
996 997
996 1083
996 1157
996 1158
997 1084
997 1157
997 1158
998 999
998 1084
998 1159
998 1160
999 1085
999 1159
999 1160
1000 1001
1000 1086
1000 1161
1000 1162
1001 1087
1001 1161
1001 1162
1002 1003
1002 1087
1002 1163
1002 1164
1003 1088
1003 1163
1003 1164
1004 1005
1004 1088
1004 1165
1004 1166
1005 1089
1005 1165
1005 1166
1006 1007
1006 1090
1006 1167
1006 1168
1007 1091
1007 1167
1007 1168
1008 1009
1008 1091
1008 1169
1008 1170
1009 1092
1009 1169
1009 1170
1010 1011
1010 1092
1010 1171
1010 1172
1011 1093
1011 1171
1011 1172
1012 1013
1012 1094
1012 1173
1012 1174
1013 1095
1013 1173
1013 1174
1014 1015
1014 1095
1014 1175
1014 1176
1015 1096
1015 1175
1015 1176
1016 1017
1016 1096
1016 1177
1016 1178
1017 1097
1017 1177
1017 1178
1018 1019
1018 1098
1018 1179
1018 1180
1019 1099
1019 1179
1019 1180
1020 1021
1020 1099
1020 1181
1020 1182
1021 1100
1021 1181
1021 1182
1022 1023
1022 1100
1022 1183
1022 1184
1023 1101
1023 1183
1023 1184
1024 1025
1024 1102
1024 1185
1024 1186
1025 1103
1025 1185
1025 1186
1026 1027
1026 1103
1026 1187
1026 1188
1027 1104
1027 1187
1027 1188
1028 1029
1028 1104
1028 1189
1028 1190
1029 1105
1029 1189
1029 1190
1030 1031
1030 1106
1030 1191
1030 1192
1031 1107
1031 1191
1031 1192
1032 1033
1032 1107
1032 1193
1032 1194
1033 1108
1033 1193
1033 1194
1034 1035
1034 1108
1034 1195
1034 1196
1035 1109
1035 1195
1035 1196
1036 1037
1036 1110
1036 1197
1036 1198
1037 1111
1037 1197
1037 1198
1038 1039
1038 1111
1038 1199
1038 1200
1039 1112
1039 1199
1039 1200
1040 1041
1040 1112
1040 1201
1040 1202
1041 1113
1041 1201
1041 1202
1042 1043
1042 1114
1042 1203
1042 1204
1043 1115
1043 1203
1043 1204
1044 1045
1044 1115
1044 1205
1044 1206
1045 1116
1045 1205
1045 1206
1046 1047
1046 1116
1046 1207
1046 1208
1047 1117
1047 1207
1047 1208
1048 1049
1048 1118
1048 1209
1048 1210
1049 1119
1049 1209
1049 1210
1050 1051
1050 1119
1050 1211
1050 1212
1051 1120
1051 1211
1051 1212
1052 1053
1052 1120
1052 1213
1052 1214
1053 1121
1053 1213
1053 1214
1054 1055
1054 1122
1054 1215
1054 1216
1055 1123
1055 1215
1055 1216
1056 1057
1056 1123
1056 1217
1056 1218
1057 1124
1057 1217
1057 1218
1058 1059
1058 1124
1058 1219
1058 1220
1059 1125
1059 1219
1059 1220
1060 1061
1060 1126
1060 1221
1060 1222
1061 1127
1061 1221
1061 1222
1062 1063
1062 1127
1063 1128
1064 1129
1065 1066
1065 1130
1066 1131
1067 1132
1067 1133
1068 1134
1068 1135
1069 1070
1069 1136
1070 1137
1071 1138
1071 1139
1072 1140
1072 1141
1073 1074
1073 1142
1074 1143
1075 1144
1075 1145
1076 1146
1076 1147
1077 1078
1077 1148
1078 1149
1079 1150
1079 1151
1080 1152
1080 1153
1081 1082
1081 1154
1082 1155
1083 1156
1083 1157
1084 1158
1084 1159
1085 1086
1085 1160
1086 1161
1087 1162
1087 1163
1088 1164
1088 1165
1089 1090
1089 1166
1090 1167
1091 1168
1091 1169
1092 1170
1092 1171
1093 1094
1093 1172
1094 1173
1095 1174
1095 1175
1096 1176
1096 1177
1097 1098
1097 1178
1098 1179
1099 1180
1099 1181
1100 1182
1100 1183
1101 1102
1101 1184
1102 1185
1103 1186
1103 1187
1104 1188
1104 1189
1105 1106
1105 1190
1106 1191
1107 1192
1107 1193
1108 1194
1108 1195
1109 1110
1109 1196
1110 1197
1111 1198
1111 1199
1112 1200
1112 1201
1113 1114
1113 1202
1114 1203
1115 1204
1115 1205
1116 1206
1116 1207
1117 1118
1117 1208
1118 1209
1119 1210
1119 1211
1120 1212
1120 1213
1121 1122
1121 1214
1122 1215
1123 1216
1123 1217
1124 1218
1124 1219
1125 1126
1125 1220
1126 1221
1127 1222
1129 1130
1129 1223
1130 1223
1131 1132
1131 1224
1132 1224
1133 1134
1133 1225
1134 1225
1135 1136
1135 1226
1136 1226
1137 1138
1137 1227
1138 1227
1139 1140
1139 1228
1140 1228
1141 1142
1141 1229
1142 1229
1143 1144
1143 1230
1144 1230
1145 1146
1145 1231
1146 1231
1147 1148
1147 1232
1148 1232
1149 1150
1149 1233
1150 1233
1151 1152
1151 1234
1152 1234
1153 1154
1153 1235
1154 1235
1155 1156
1155 1236
1156 1236
1157 1158
1157 1237
1158 1237
1159 1160
1159 1238
1160 1238
1161 1162
1161 1239
1162 1239
1163 1164
1163 1240
1164 1240
1165 1166
1165 1241
1166 1241
1167 1168
1167 1242
1168 1242
1169 1170
1169 1243
1170 1243
1171 1172
1171 1244
1172 1244
1173 1174
1173 1245
1174 1245
1175 1176
1175 1246
1176 1246
1177 1178
1177 1247
1178 1247
1179 1180
1179 1248
1180 1248
1181 1182
1181 1249
1182 1249
1183 1184
1183 1250
1184 1250
1185 1186
1185 1251
1186 1251
1187 1188
1187 1252
1188 1252
1189 1190
1189 1253
1190 1253
1191 1192
1191 1254
1192 1254
1193 1194
1193 1255
1194 1255
1195 1196
1195 1256
1196 1256
1197 1198
1197 1257
1198 1257
1199 1200
1199 1258
1200 1258
1201 1202
1201 1259
1202 1259
1203 1204
1203 1260
1204 1260
1205 1206
1205 1261
1206 1261
1207 1208
1207 1262
1208 1262
1209 1210
1209 1263
1210 1263
1211 1212
1211 1264
1212 1264
1213 1214
1213 1265
1214 1265
1215 1216
1215 1266
1216 1266
1217 1218
1217 1267
1218 1267
1219 1220
1219 1268
1220 1268
1221 1222
1221 1269
1222 1269
1223 1270
1223 1271
1224 1335
1224 1336
1225 1337
1226 1274
1226 1275
1227 1338
1227 1339
1228 1340
1229 1278
1229 1279
1230 1341
1230 1342
1231 1343
1232 1282
1232 1283
1233 1344
1233 1345
1234 1346
1235 1286
1235 1287
1236 1347
1236 1348
1237 1349
1238 1290
1238 1291
1239 1350
1239 1351
1240 1352
1241 1294
1241 1295
1242 1353
1242 1354
1243 1355
1244 1298
1244 1299
1245 1356
1245 1357
1246 1358
1247 1302
1247 1303
1248 1359
1248 1360
1249 1361
1250 1306
1250 1307
1251 1362
1251 1363
1252 1364
1253 1310
1253 1311
1254 1365
1254 1366
1255 1367
1256 1314
1256 1315
1257 1368
1257 1369
1258 1370
1259 1318
1259 1319
1260 1371
1260 1372
1261 1373
1262 1322
1262 1323
1263 1374
1263 1375
1264 1376
1265 1326
1265 1327
1266 1377
1266 1378
1267 1379
1268 1330
1268 1331
1269 1380
1269 1381
1270 1271
1270 1334
1270 1382
1270 1383
1271 1272
1271 1382
1271 1383
1272 1335
1272 1383
1272 1384
1273 1336
1273 1385
1273 1386
1274 1275
1274 1337
1274 1387
1274 1388
1275 1276
1275 1387
1275 1388
1276 1338
1276 1388
1276 1389
1277 1339
1277 1390
1277 1391
1278 1279
1278 1340
1278 1392
1278 1393
1279 1280
1279 1392
1279 1393
1280 1341
1280 1393
1280 1394
1281 1342
1281 1395
1281 1396
1282 1283
1282 1343
1282 1397
1282 1398
1283 1284
1283 1397
1283 1398
1284 1344
1284 1398
1284 1399
1285 1345
1285 1400
1285 1401
1286 1287
1286 1346
1286 1402
1286 1403
1287 1288
1287 1402
1287 1403
1288 1347
1288 1403
1288 1404
1289 1348
1289 1405
1289 1406
1290 1291
1290 1349
1290 1407
1290 1408
1291 1292
1291 1407
1291 1408
1292 1350
1292 1408
1292 1409
1293 1351
1293 1410
1293 1411
1294 1295
1294 1352
1294 1412
1294 1413
1295 1296
1295 1412
1295 1413
1296 1353
1296 1413
1296 1414
1297 1354
1297 1415
1297 1416
1298 1299
1298 1355
1298 1417
1298 1418
1299 1300
1299 1417
1299 1418
1300 1356
1300 1418
1300 1419
1301 1357
1301 1420
1301 1421
1302 1303
1302 1358
1302 1422
1302 1423
1303 1304
1303 1422
1303 1423
1304 1359
1304 1423
1304 1424
1305 1360
1305 1425
1305 1426
1306 1307
1306 1361
1306 1427
1306 1428
1307 1308
1307 1427
1307 1428
1308 1362
1308 1428
1308 1429
1309 1363
1309 1430
1309 1431
1310 1311
1310 1364
1310 1432
1310 1433
1311 1312
1311 1432
1311 1433
1312 1365
1312 1433
1312 1434
1313 1366
1313 1435
1313 1436
1314 1315
1314 1367
1314 1437
1314 1438
1315 1316
1315 1437
1315 1438
1316 1368
1316 1438
1316 1439
1317 1369
1317 1440
1317 1441
1318 1319
1318 1370
1318 1442
1318 1443
1319 1320
1319 1442
1319 1443
1320 1371
1320 1443
1320 1444
1321 1372
1321 1445
1321 1446
1322 1323
1322 1373
1322 1447
1322 1448
1323 1324
1323 1447
1323 1448
1324 1374
1324 1448
1324 1449
1325 1375
1325 1450
1325 1451
1326 1327
1326 1376
1326 1452
1326 1453
1327 1328
1327 1452
1327 1453
1328 1377
1328 1453
1328 1454
1329 1378
1329 1455
1329 1456
1330 1331
1330 1379
1330 1457
1330 1458
1331 1332
1331 1457
1331 1458
1332 1380
1332 1458
1332 1459
1333 1381
1333 1460
1333 1461
1334 1382
1335 1336
1335 1384
1335 1462
1335 1463
1336 1385
1336 1462
1336 1463
1337 1387
1338 1339
1338 1389
1338 1464
1338 1465
1339 1390
1339 1464
1339 1465
1340 1392
1341 1342
1341 1394
1341 1466
1341 1467
1342 1395
1342 1466
1342 1467
1343 1397
1344 1345
1344 1399
1344 1468
1344 1469
1345 1400
1345 1468
1345 1469
1346 1402
1347 1348
1347 1404
1347 1470
1347 1471
1348 1405
1348 1470
1348 1471
1349 1407
1350 1351
1350 1409
1350 1472
1350 1473
1351 1410
1351 1472
1351 1473
1352 1412
1353 1354
1353 1414
1353 1474
1353 1475
1354 1415
1354 1474
1354 1475
1355 1417
1356 1357
1356 1419
1356 1476
1356 1477
1357 1420
1357 1476
1357 1477
1358 1422
1359 1360
1359 1424
1359 1478
1359 1479
1360 1425
1360 1478
1360 1479
1361 1427
1362 1363
1362 1429
1362 1480
1362 1481
1363 1430
1363 1480
1363 1481
1364 1432
1365 1366
1365 1434
1365 1482
1365 1483
1366 1435
1366 1482
1366 1483
1367 1437
1368 1369
1368 1439
1368 1484
1368 1485
1369 1440
1369 1484
1369 1485
1370 1442
1371 1372
1371 1444
1371 1486
1371 1487
1372 1445
1372 1486
1372 1487
1373 1447
1374 1375
1374 1449
1374 1488
1374 1489
1375 1450
1375 1488
1375 1489
1376 1452
1377 1378
1377 1454
1377 1490
1377 1491
1378 1455
1378 1490
1378 1491
1379 1457
1380 1381
1380 1459
1380 1492
1380 1493
1381 1460
1381 1492
1381 1493
1382 1383
1382 1494
1383 1494
1384 1462
1384 1495
1385 1463
1385 1496
1386 1497
1387 1388
1387 1498
1388 1498
1389 1464
1389 1499
1390 1465
1390 1500
1391 1501
1392 1393
1392 1502
1393 1502
1394 1466
1394 1503
1395 1467
1395 1504
1396 1505
1397 1398
1397 1506
1398 1506
1399 1468
1399 1507
1400 1469
1400 1508
1401 1509
1402 1403
1402 1510
1403 1510
1404 1470
1404 1511
1405 1471
1405 1512
1406 1513
1407 1408
1407 1514
1408 1514
1409 1472
1409 1515
1410 1473
1410 1516
1411 1517
1412 1413
1412 1518
1413 1518
1414 1474
1414 1519
1415 1475
1415 1520
1416 1521
1417 1418
1417 1522
1418 1522
1419 1476
1419 1523
1420 1477
1420 1524
1421 1525
1422 1423
1422 1526
1423 1526
1424 1478
1424 1527
1425 1479
1425 1528
1426 1529
1427 1428
1427 1530
1428 1530
1429 1480
1429 1531
1430 1481
1430 1532
1431 1533
1432 1433
1432 1534
1433 1534
1434 1482
1434 1535
1435 1483
1435 1536
1436 1537
1437 1438
1437 1538
1438 1538
1439 1484
1439 1539
1440 1485
1440 1540
1441 1541
1442 1443
1442 1542
1443 1542
1444 1486
1444 1543
1445 1487
1445 1544
1446 1545
1447 1448
1447 1546
1448 1546
1449 1488
1449 1547
1450 1489
1450 1548
1451 1549
1452 1453
1452 1550
1453 1550
1454 1490
1454 1551
1455 1491
1455 1552
1456 1553
1457 1458
1457 1554
1458 1554
1459 1492
1459 1555
1460 1493
1460 1556
1461 1557
1462 1463
1462 1495
1463 1496
1464 1465
1464 1499
1465 1500
1466 1467
1466 1503
1467 1504
1468 1469
1468 1507
1469 1508
1470 1471
1470 1511
1471 1512
1472 1473
1472 1515
1473 1516
1474 1475
1474 1519
1475 1520
1476 1477
1476 1523
1477 1524
1478 1479
1478 1527
1479 1528
1480 1481
1480 1531
1481 1532
1482 1483
1482 1535
1483 1536
1484 1485
1484 1539
1485 1540
1486 1487
1486 1543
1487 1544
1488 1489
1488 1547
1489 1548
1490 1491
1490 1551
1491 1552
1492 1493
1492 1555
1493 1556
1494 1558
1494 1559
1495 1559
1496 1560
1496 1561
1497 1562
1497 1563
1498 1564
1498 1565
1499 1565
1500 1566
1500 1567
1501 1568
1501 1569
1502 1570
1502 1571
1503 1571
1504 1572
1504 1573
1505 1574
1505 1575
1506 1576
1506 1577
1507 1577
1508 1578
1508 1579
1509 1580
1509 1581
1510 1582
1510 1583
1511 1583
1512 1584
1512 1585
1513 1586
1513 1587
1514 1588
1514 1589
1515 1589
1516 1590
1516 1591
1517 1592
1517 1593
1518 1594
1518 1595
1519 1595
1520 1596
1520 1597
1521 1598
1521 1599
1522 1600
1522 1601
1523 1601
1524 1602
1524 1603
1525 1604
1525 1605
1526 1606
1526 1607
1527 1607
1528 1608
1528 1609
1529 1610
1529 1611
1530 1612
1530 1613
1531 1613
1532 1614
1532 1615
1533 1616
1533 1617
1534 1618
1534 1619
1535 1619
1536 1620
1536 1621
1537 1622
1537 1623
1538 1624
1538 1625
1539 1625
1540 1626
1540 1627
1541 1628
1541 1629
1542 1630
1542 1631
1543 1631
1544 1632
1544 1633
1545 1634
1545 1635
1546 1636
1546 1637
1547 1637
1548 1638
1548 1639
1549 1640
1549 1641
1550 1642
1550 1643
1551 1643
1552 1644
1552 1645
1553 1646
1553 1647
1554 1648
1554 1649
1555 1649
1556 1650
1556 1651
1557 1652
1557 1653
1558 1559
1558 1654
1558 1719
1558 1720
1559 1655
1559 1719
1559 1720
1560 1561
1560 1656
1560 1721
1560 1722
1561 1657
1561 1721
1561 1722
1562 1563
1562 1657
1562 1723
1562 1724
1563 1658
1563 1723
1563 1724
1564 1565
1564 1658
1564 1725
1564 1726
1565 1659
1565 1725
1565 1726
1566 1567
1566 1660
1566 1727
1566 1728
1567 1661
1567 1727
1567 1728
1568 1569
1568 1661
1568 1729
1568 1730
1569 1662
1569 1729
1569 1730
1570 1571
1570 1662
1570 1731
1570 1732
1571 1663
1571 1731
1571 1732
1572 1573
1572 1664
1572 1733
1572 1734
1573 1665
1573 1733
1573 1734
1574 1575
1574 1665
1574 1735
1574 1736
1575 1666
1575 1735
1575 1736
1576 1577
1576 1666
1576 1737
1576 1738
1577 1667
1577 1737
1577 1738
1578 1579
1578 1668
1578 1739
1578 1740
1579 1669
1579 1739
1579 1740
1580 1581
1580 1669
1580 1741
1580 1742
1581 1670
1581 1741
1581 1742
1582 1583
1582 1670
1582 1743
1582 1744
1583 1671
1583 1743
1583 1744
1584 1585
1584 1672
1584 1745
1584 1746
1585 1673
1585 1745
1585 1746
1586 1587
1586 1673
1586 1747
1586 1748
1587 1674
1587 1747
1587 1748
1588 1589
1588 1674
1588 1749
1588 1750
1589 1675
1589 1749
1589 1750
1590 1591
1590 1676
1590 1751
1590 1752
1591 1677
1591 1751
1591 1752
1592 1593
1592 1677
1592 1753
1592 1754
1593 1678
1593 1753
1593 1754
1594 1595
1594 1678
1594 1755
1594 1756
1595 1679
1595 1755
1595 1756
1596 1597
1596 1680
1596 1757
1596 1758
1597 1681
1597 1757
1597 1758
1598 1599
1598 1681
1598 1759
1598 1760
1599 1682
1599 1759
1599 1760
1600 1601
1600 1682
1600 1761
1600 1762
1601 1683
1601 1761
1601 1762
1602 1603
1602 1684
1602 1763
1602 1764
1603 1685
1603 1763
1603 1764
1604 1605
1604 1685
1604 1765
1604 1766
1605 1686
1605 1765
1605 1766
1606 1607
1606 1686
1606 1767
1606 1768
1607 1687
1607 1767
1607 1768
1608 1609
1608 1688
1608 1769
1608 1770
1609 1689
1609 1769
1609 1770
1610 1611
1610 1689
1610 1771
1610 1772
1611 1690
1611 1771
1611 1772
1612 1613
1612 1690
1612 1773
1612 1774
1613 1691
1613 1773
1613 1774
1614 1615
1614 1692
1614 1775
1614 1776
1615 1693
1615 1775
1615 1776
1616 1617
1616 1693
1616 1777
1616 1778
1617 1694
1617 1777
1617 1778
1618 1619
1618 1694
1618 1779
1618 1780
1619 1695
1619 1779
1619 1780
1620 1621
1620 1696
1620 1781
1620 1782
1621 1697
1621 1781
1621 1782
1622 1623
1622 1697
1622 1783
1622 1784
1623 1698
1623 1783
1623 1784
1624 1625
1624 1698
1624 1785
1624 1786
1625 1699
1625 1785
1625 1786
1626 1627
1626 1700
1626 1787
1626 1788
1627 1701
1627 1787
1627 1788
1628 1629
1628 1701
1628 1789
1628 1790
1629 1702
1629 1789
1629 1790
1630 1631
1630 1702
1630 1791
1630 1792
1631 1703
1631 1791
1631 1792
1632 1633
1632 1704
1632 1793
1632 1794
1633 1705
1633 1793
1633 1794
1634 1635
1634 1705
1634 1795
1634 1796
1635 1706
1635 1795
1635 1796
1636 1637
1636 1706
1636 1797
1636 1798
1637 1707
1637 1797
1637 1798
1638 1639
1638 1708
1638 1799
1638 1800
1639 1709
1639 1799
1639 1800
1640 1641
1640 1709
1640 1801
1640 1802
1641 1710
1641 1801
1641 1802
1642 1643
1642 1710
1642 1803
1642 1804
1643 1711
1643 1803
1643 1804
1644 1645
1644 1712
1644 1805
1644 1806
1645 1713
1645 1805
1645 1806
1646 1647
1646 1713
1646 1807
1646 1808
1647 1714
1647 1807
1647 1808
1648 1649
1648 1714
1648 1809
1648 1810
1649 1715
1649 1809
1649 1810
1650 1651
1650 1716
1650 1811
1650 1812
1651 1717
1651 1811
1651 1812
1652 1653
1652 1717
1652 1813
1652 1814
1653 1718
1653 1813
1653 1814
1654 1719
1655 1656
1655 1720
1656 1721
1657 1722
1657 1723
1658 1724
1658 1725
1659 1660
1659 1726
1660 1727
1661 1728
1661 1729
1662 1730
1662 1731
1663 1664
1663 1732
1664 1733
1665 1734
1665 1735
1666 1736
1666 1737
1667 1668
1667 1738
1668 1739
1669 1740
1669 1741
1670 1742
1670 1743
1671 1672
1671 1744
1672 1745
1673 1746
1673 1747
1674 1748
1674 1749
1675 1676
1675 1750
1676 1751
1677 1752
1677 1753
1678 1754
1678 1755
1679 1680
1679 1756
1680 1757
1681 1758
1681 1759
1682 1760
1682 1761
1683 1684
1683 1762
1684 1763
1685 1764
1685 1765
1686 1766
1686 1767
1687 1688
1687 1768
1688 1769
1689 1770
1689 1771
1690 1772
1690 1773
1691 1692
1691 1774
1692 1775
1693 1776
1693 1777
1694 1778
1694 1779
1695 1696
1695 1780
1696 1781
1697 1782
1697 1783
1698 1784
1698 1785
1699 1700
1699 1786
1700 1787
1701 1788
1701 1789
1702 1790
1702 1791
1703 1704
1703 1792
1704 1793
1705 1794
1705 1795
1706 1796
1706 1797
1707 1708
1707 1798
1708 1799
1709 1800
1709 1801
1710 1802
1710 1803
1711 1712
1711 1804
1712 1805
1713 1806
1713 1807
1714 1808
1714 1809
1715 1716
1715 1810
1716 1811
1717 1812
1717 1813
1718 1814
1719 1720
1719 1815
1720 1815
1721 1722
1721 1816
1722 1816
1723 1724
1723 1817
1724 1817
1725 1726
1725 1818
1726 1818
1727 1728
1727 1819
1728 1819
1729 1730
1729 1820
1730 1820
1731 1732
1731 1821
1732 1821
1733 1734
1733 1822
1734 1822
1735 1736
1735 1823
1736 1823
1737 1738
1737 1824
1738 1824
1739 1740
1739 1825
1740 1825
1741 1742
1741 1826
1742 1826
1743 1744
1743 1827
1744 1827
1745 1746
1745 1828
1746 1828
1747 1748
1747 1829
1748 1829
1749 1750
1749 1830
1750 1830
1751 1752
1751 1831
1752 1831
1753 1754
1753 1832
1754 1832
1755 1756
1755 1833
1756 1833
1757 1758
1757 1834
1758 1834
1759 1760
1759 1835
1760 1835
1761 1762
1761 1836
1762 1836
1763 1764
1763 1837
1764 1837
1765 1766
1765 1838
1766 1838
1767 1768
1767 1839
1768 1839
1769 1770
1769 1840
1770 1840
1771 1772
1771 1841
1772 1841
1773 1774
1773 1842
1774 1842
1775 1776
1775 1843
1776 1843
1777 1778
1777 1844
1778 1844
1779 1780
1779 1845
1780 1845
1781 1782
1781 1846
1782 1846
1783 1784
1783 1847
1784 1847
1785 1786
1785 1848
1786 1848
1787 1788
1787 1849
1788 1849
1789 1790
1789 1850
1790 1850
1791 1792
1791 1851
1792 1851
1793 1794
1793 1852
1794 1852
1795 1796
1795 1853
1796 1853
1797 1798
1797 1854
1798 1854
1799 1800
1799 1855
1800 1855
1801 1802
1801 1856
1802 1856
1803 1804
1803 1857
1804 1857
1805 1806
1805 1858
1806 1858
1807 1808
1807 1859
1808 1859
1809 1810
1809 1860
1810 1860
1811 1812
1811 1861
1812 1861
1813 1814
1815 1862
1815 1863
1816 1927
1816 1928
1817 1929
1818 1866
1818 1867
1819 1930
1819 1931
1820 1932
1821 1870
1821 1871
1822 1933
1822 1934
1823 1935
1824 1874
1824 1875
1825 1936
1825 1937
1826 1938
1827 1878
1827 1879
1828 1939
1828 1940
1829 1941
1830 1882
1830 1883
1831 1942
1831 1943
1832 1944
1833 1886
1833 1887
1834 1945
1834 1946
1835 1947
1836 1890
1836 1891
1837 1948
1837 1949
1838 1950
1839 1894
1839 1895
1840 1951
1840 1952
1841 1953
1842 1898
1842 1899
1843 1954
1843 1955
1844 1956
1845 1902
1845 1903
1846 1957
1846 1958
1847 1959
1848 1906
1848 1907
1849 1960
1849 1961
1850 1962
1851 1910
1851 1911
1852 1963
1852 1964
1853 1965
1854 1914
1854 1915
1855 1966
1855 1967
1856 1968
1857 1918
1857 1919
1858 1969
1858 1970
1859 1971
1860 1922
1860 1923
1861 1972
1861 1973
1862 1863
1862 1926
1862 1974
1862 1975
1863 1864
1863 1974
1863 1975
1864 1927
1864 1975
1864 1976
1865 1928
1865 1977
1865 1978
1866 1867
1866 1929
1866 1979
1866 1980
1867 1868
1867 1979
1867 1980
1868 1930
1868 1980
1868 1981
1869 1931
1869 1982
1869 1983
1870 1871
1870 1932
1870 1984
1870 1985
1871 1872
1871 1984
1871 1985
1872 1933
1872 1985
1872 1986
1873 1934
1873 1987
1873 1988
1874 1875
1874 1935
1874 1989
1874 1990
1875 1876
1875 1989
1875 1990
1876 1936
1876 1990
1876 1991
1877 1937
1877 1992
1877 1993
1878 1879
1878 1938
1878 1994
1878 1995
1879 1880
1879 1994
1879 1995
1880 1939
1880 1995
1880 1996
1881 1940
1881 1997
1881 1998
1882 1883
1882 1941
1882 1999
1882 2000
1883 1884
1883 1999
1883 2000
1884 1942
1884 2000
1884 2001
1885 1943
1885 2002
1885 2003
1886 1887
1886 1944
1886 2004
1886 2005
1887 1888
1887 2004
1887 2005
1888 1945
1888 2005
1888 2006
1889 1946
1889 2007
1889 2008
1890 1891
1890 1947
1890 2009
1890 2010
1891 1892
1891 2009
1891 2010
1892 1948
1892 2010
1892 2011
1893 1949
1893 2012
1893 2013
1894 1895
1894 1950
1894 2014
1894 2015
1895 1896
1895 2014
1895 2015
1896 1951
1896 2015
1896 2016
1897 1952
1897 2017
1897 2018
1898 1899
1898 1953
1898 2019
1898 2020
1899 1900
1899 2019
1899 2020
1900 1954
1900 2020
1900 2021
1901 1955
1901 2022
1901 2023
1902 1903
1902 1956
1902 2024
1902 2025
1903 1904
1903 2024
1903 2025
1904 1957
1904 2025
1904 2026
1905 1958
1905 2027
1905 2028
1906 1907
1906 1959
1906 2029
1906 2030
1907 1908
1907 2029
1907 2030
1908 1960
1908 2030
1908 2031
1909 1961
1909 2032
1909 2033
1910 1911
1910 1962
1910 2034
1910 2035
1911 1912
1911 2034
1911 2035
1912 1963
1912 2035
1912 2036
1913 1964
1913 2037
1913 2038
1914 1915
1914 1965
1914 2039
1914 2040
1915 1916
1915 2039
1915 2040
1916 1966
1916 2040
1916 2041
1917 1967
1917 2042
1917 2043
1918 1919
1918 1968
1918 2044
1918 2045
1919 1920
1919 2044
1919 2045
1920 1969
1920 2045
1920 2046
1921 1970
1921 2047
1921 2048
1922 1923
1922 1971
1922 2049
1922 2050
1923 1924
1923 2049
1923 2050
1924 1972
1924 2050
1924 2051
1925 1973
1925 2052
1925 2053
1926 1974
1927 1928
1927 1976
1927 2054
1927 2055
1928 1977
1928 2054
1928 2055
1929 1979
1930 1931
1930 1981
1930 2056
1930 2057
1931 1982
1931 2056
1931 2057
1932 1984
1933 1934
1933 1986
1933 2058
1933 2059
1934 1987
1934 2058
1934 2059
1935 1989
1936 1937
1936 1991
1936 2060
1936 2061
1937 1992
1937 2060
1937 2061
1938 1994
1939 1940
1939 1996
1939 2062
1939 2063
1940 1997
1940 2062
1940 2063
1941 1999
1942 1943
1942 2001
1942 2064
1942 2065
1943 2002
1943 2064
1943 2065
1944 2004
1945 1946
1945 2006
1945 2066
1945 2067
1946 2007
1946 2066
1946 2067
1947 2009
1948 1949
1948 2011
1948 2068
1948 2069
1949 2012
1949 2068
1949 2069
1950 2014
1951 1952
1951 2016
1951 2070
1951 2071
1952 2017
1952 2070
1952 2071
1953 2019
1954 1955
1954 2021
1954 2072
1954 2073
1955 2022
1955 2072
1955 2073
1956 2024
1957 1958
1957 2026
1957 2074
1957 2075
1958 2027
1958 2074
1958 2075
1959 2029
1960 1961
1960 2031
1960 2076
1960 2077
1961 2032
1961 2076
1961 2077
1962 2034
1963 1964
1963 2036
1963 2078
1963 2079
1964 2037
1964 2078
1964 2079
1965 2039
1966 1967
1966 2041
1966 2080
1966 2081
1967 2042
1967 2080
1967 2081
1968 2044
1969 1970
1969 2046
1969 2082
1969 2083
1970 2047
1970 2082
1970 2083
1971 2049
1972 1973
1972 2051
1972 2084
1972 2085
1973 2052
1973 2084
1973 2085
1974 1975
1974 2086
1975 2086
1976 2054
1976 2087
1977 2055
1977 2088
1978 2089
1979 1980
1979 2090
1980 2090
1981 2056
1981 2091
1982 2057
1982 2092
1983 2093
1984 1985
1984 2094
1985 2094
1986 2058
1986 2095
1987 2059
1987 2096
1988 2097
1989 1990
1989 2098
1990 2098
1991 2060
1991 2099
1992 2061
1992 2100
1993 2101
1994 1995
1994 2102
1995 2102
1996 2062
1996 2103
1997 2063
1997 2104
1998 2105
1999 2000
1999 2106
2000 2106
2001 2064
2001 2107
2002 2065
2002 2108
2003 2109
2004 2005
2004 2110
2005 2110
2006 2066
2006 2111
2007 2067
2007 2112
2008 2113
2009 2010
2009 2114
2010 2114
2011 2068
2011 2115
2012 2069
2012 2116
2013 2117
2014 2015
2014 2118
2015 2118
2016 2070
2016 2119
2017 2071
2017 2120
2018 2121
2019 2020
2019 2122
2020 2122
2021 2072
2021 2123
2022 2073
2022 2124
2023 2125
2024 2025
2024 2126
2025 2126
2026 2074
2026 2127
2027 2075
2027 2128
2028 2129
2029 2030
2029 2130
2030 2130
2031 2076
2031 2131
2032 2077
2032 2132
2033 2133
2034 2035
2034 2134
2035 2134
2036 2078
2036 2135
2037 2079
2037 2136
2038 2137
2039 2040
2039 2138
2040 2138
2041 2080
2041 2139
2042 2081
2042 2140
2043 2141
2044 2045
2044 2142
2045 2142
2046 2082
2046 2143
2047 2083
2047 2144
2048 2145
2049 2050
2049 2146
2050 2146
2051 2084
2051 2147
2052 2085
2052 2148
2053 2149
2054 2055
2054 2087
2055 2088
2056 2057
2056 2091
2057 2092
2058 2059
2058 2095
2059 2096
2060 2061
2060 2099
2061 2100
2062 2063
2062 2103
2063 2104
2064 2065
2064 2107
2065 2108
2066 2067
2066 2111
2067 2112
2068 2069
2068 2115
2069 2116
2070 2071
2070 2119
2071 2120
2072 2073
2072 2123
2073 2124
2074 2075
2074 2127
2075 2128
2076 2077
2076 2131
2077 2132
2078 2079
2078 2135
2079 2136
2080 2081
2080 2139
2081 2140
2082 2083
2082 2143
2083 2144
2084 2085
2084 2147
2085 2148
2086 2150
2086 2151
2087 2151
2088 2152
2088 2153
2089 2154
2089 2155
2090 2156
2090 2157
2091 2157
2092 2158
2092 2159
2093 2160
2093 2161
2094 2162
2094 2163
2095 2163
2096 2164
2096 2165
2097 2166
2097 2167
2098 2168
2098 2169
2099 2169
2100 2170
2100 2171
2101 2172
2101 2173
2102 2174
2102 2175
2103 2175
2104 2176
2104 2177
2105 2178
2105 2179
2106 2180
2106 2181
2107 2181
2108 2182
2108 2183
2109 2184
2109 2185
2110 2186
2110 2187
2111 2187
2112 2188
2112 2189
2113 2190
2113 2191
2114 2192
2114 2193
2115 2193
2116 2194
2116 2195
2117 2196
2117 2197
2118 2198
2118 2199
2119 2199
2120 2200
2120 2201
2121 2202
2121 2203
2122 2204
2122 2205
2123 2205
2124 2206
2124 2207
2125 2208
2125 2209
2126 2210
2126 2211
2127 2211
2128 2212
2128 2213
2129 2214
2129 2215
2130 2216
2130 2217
2131 2217
2132 2218
2132 2219
2133 2220
2133 2221
2134 2222
2134 2223
2135 2223
2136 2224
2136 2225
2137 2226
2137 2227
2138 2228
2138 2229
2139 2229
2140 2230
2140 2231
2141 2232
2141 2233
2142 2234
2142 2235
2143 2235
2144 2236
2144 2237
2145 2238
2145 2239
2146 2240
2146 2241
2147 2241
2148 2242
2148 2243
2149 2244
2149 2245
2150 2151
2150 2246
2150 2311
2150 2312
2151 2247
2151 2311
2151 2312
2152 2153
2152 2248
2152 2313
2152 2314
2153 2249
2153 2313
2153 2314
2154 2155
2154 2249
2154 2315
2154 2316
2155 2250
2155 2315
2155 2316
2156 2157
2156 2250
2156 2317
2156 2318
2157 2251
2157 2317
2157 2318
2158 2159
2158 2252
2158 2319
2158 2320
2159 2253
2159 2319
2159 2320
2160 2161
2160 2253
2160 2321
2160 2322
2161 2254
2161 2321
2161 2322
2162 2163
2162 2254
2162 2323
2162 2324
2163 2255
2163 2323
2163 2324
2164 2165
2164 2256
2164 2325
2164 2326
2165 2257
2165 2325
2165 2326
2166 2167
2166 2257
2166 2327
2166 2328
2167 2258
2167 2327
2167 2328
2168 2169
2168 2258
2168 2329
2168 2330
2169 2259
2169 2329
2169 2330
2170 2171
2170 2260
2170 2331
2170 2332
2171 2261
2171 2331
2171 2332
2172 2173
2172 2261
2172 2333
2172 2334
2173 2262
2173 2333
2173 2334
2174 2175
2174 2262
2174 2335
2174 2336
2175 2263
2175 2335
2175 2336
2176 2177
2176 2264
2176 2337
2176 2338
2177 2265
2177 2337
2177 2338
2178 2179
2178 2265
2178 2339
2178 2340
2179 2266
2179 2339
2179 2340
2180 2181
2180 2266
2180 2341
2180 2342
2181 2267
2181 2341
2181 2342
2182 2183
2182 2268
2182 2343
2182 2344
2183 2269
2183 2343
2183 2344
2184 2185
2184 2269
2184 2345
2184 2346
2185 2270
2185 2345
2185 2346
2186 2187
2186 2270
2186 2347
2186 2348
2187 2271
2187 2347
2187 2348
2188 2189
2188 2272
2188 2349
2188 2350
2189 2273
2189 2349
2189 2350
2190 2191
2190 2273
2190 2351
2190 2352
2191 2274
2191 2351
2191 2352
2192 2193
2192 2274
2192 2353
2192 2354
2193 2275
2193 2353
2193 2354
2194 2195
2194 2276
2194 2355
2194 2356
2195 2277
2195 2355
2195 2356
2196 2197
2196 2277
2196 2357
2196 2358
2197 2278
2197 2357
2197 2358
2198 2199
2198 2278
2198 2359
2198 2360
2199 2279
2199 2359
2199 2360
2200 2201
2200 2280
2200 2361
2200 2362
2201 2281
2201 2361
2201 2362
2202 2203
2202 2281
2202 2363
2202 2364
2203 2282
2203 2363
2203 2364
2204 2205
2204 2282
2204 2365
2204 2366
2205 2283
2205 2365
2205 2366
2206 2207
2206 2284
2206 2367
2206 2368
2207 2285
2207 2367
2207 2368
2208 2209
2208 2285
2208 2369
2208 2370
2209 2286
2209 2369
2209 2370
2210 2211
2210 2286
2210 2371
2210 2372
2211 2287
2211 2371
2211 2372
2212 2213
2212 2288
2212 2373
2212 2374
2213 2289
2213 2373
2213 2374
2214 2215
2214 2289
2214 2375
2214 2376
2215 2290
2215 2375
2215 2376
2216 2217
2216 2290
2216 2377
2216 2378
2217 2291
2217 2377
2217 2378
2218 2219
2218 2292
2218 2379
2218 2380
2219 2293
2219 2379
2219 2380
2220 2221
2220 2293
2220 2381
2220 2382
2221 2294
2221 2381
2221 2382
2222 2223
2222 2294
2222 2383
2222 2384
2223 2295
2223 2383
2223 2384
2224 2225
2224 2296
2224 2385
2224 2386
2225 2297
2225 2385
2225 2386
2226 2227
2226 2297
2226 2387
2226 2388
2227 2298
2227 2387
2227 2388
2228 2229
2228 2298
2228 2389
2228 2390
2229 2299
2229 2389
2229 2390
2230 2231
2230 2300
2230 2391
2230 2392
2231 2301
2231 2391
2231 2392
2232 2233
2232 2301
2232 2393
2232 2394
2233 2302
2233 2393
2233 2394
2234 2235
2234 2302
2234 2395
2234 2396
2235 2303
2235 2395
2235 2396
2236 2237
2236 2304
2236 2397
2236 2398
2237 2305
2237 2397
2237 2398
2238 2239
2238 2305
2238 2399
2238 2400
2239 2306
2239 2399
2239 2400
2240 2241
2240 2306
2240 2401
2240 2402
2241 2307
2241 2401
2241 2402
2242 2243
2242 2308
2242 2403
2242 2404
2243 2309
2243 2403
2243 2404
2244 2245
2244 2309
2244 2405
2244 2406
2245 2310
2245 2405
2245 2406
2246 2311
2247 2248
2247 2312
2248 2313
2249 2314
2249 2315
2250 2316
2250 2317
2251 2252
2251 2318
2252 2319
2253 2320
2253 2321
2254 2322
2254 2323
2255 2256
2255 2324
2256 2325
2257 2326
2257 2327
2258 2328
2258 2329
2259 2260
2259 2330
2260 2331
2261 2332
2261 2333
2262 2334
2262 2335
2263 2264
2263 2336
2264 2337
2265 2338
2265 2339
2266 2340
2266 2341
2267 2268
2267 2342
2268 2343
2269 2344
2269 2345
2270 2346
2270 2347
2271 2272
2271 2348
2272 2349
2273 2350
2273 2351
2274 2352
2274 2353
2275 2276
2275 2354
2276 2355
2277 2356
2277 2357
2278 2358
2278 2359
2279 2280
2279 2360
2280 2361
2281 2362
2281 2363
2282 2364
2282 2365
2283 2284
2283 2366
2284 2367
2285 2368
2285 2369
2286 2370
2286 2371
2287 2288
2287 2372
2288 2373
2289 2374
2289 2375
2290 2376
2290 2377
2291 2292
2291 2378
2292 2379
2293 2380
2293 2381
2294 2382
2294 2383
2295 2296
2295 2384
2296 2385
2297 2386
2297 2387
2298 2388
2298 2389
2299 2300
2299 2390
2300 2391
2301 2392
2301 2393
2302 2394
2302 2395
2303 2304
2303 2396
2304 2397
2305 2398
2305 2399
2306 2400
2306 2401
2307 2308
2307 2402
2308 2403
2309 2404
2309 2405
2310 2406
2311 2312
2311 2407
2312 2407
2313 2314
2313 2408
2314 2408
2315 2316
2315 2409
2316 2409
2317 2318
2317 2410
2318 2410
2319 2320
2319 2411
2320 2411
2321 2322
2321 2412
2322 2412
2323 2324
2323 2413
2324 2413
2325 2326
2325 2414
2326 2414
2327 2328
2327 2415
2328 2415
2329 2330
2329 2416
2330 2416
2331 2332
2331 2417
2332 2417
2333 2334
2333 2418
2334 2418
2335 2336
2335 2419
2336 2419
2337 2338
2337 2420
2338 2420
2339 2340
2339 2421
2340 2421
2341 2342
2341 2422
2342 2422
2343 2344
2343 2423
2344 2423
2345 2346
2345 2424
2346 2424
2347 2348
2347 2425
2348 2425
2349 2350
2349 2426
2350 2426
2351 2352
2351 2427
2352 2427
2353 2354
2353 2428
2354 2428
2355 2356
2355 2429
2356 2429
2357 2358
2357 2430
2358 2430
2359 2360
2359 2431
2360 2431
2361 2362
2361 2432
2362 2432
2363 2364
2363 2433
2364 2433
2365 2366
2365 2434
2366 2434
2367 2368
2367 2435
2368 2435
2369 2370
2369 2436
2370 2436
2371 2372
2371 2437
2372 2437
2373 2374
2373 2438
2374 2438
2375 2376
2375 2439
2376 2439
2377 2378
2377 2440
2378 2440
2379 2380
2379 2441
2380 2441
2381 2382
2381 2442
2382 2442
2383 2384
2383 2443
2384 2443
2385 2386
2385 2444
2386 2444
2387 2388
2387 2445
2388 2445
2389 2390
2389 2446
2390 2446
2391 2392
2391 2447
2392 2447
2393 2394
2393 2448
2394 2448
2395 2396
2395 2449
2396 2449
2397 2398
2397 2450
2398 2450
2399 2400
2399 2451
2400 2451
2401 2402
2401 2452
2402 2452
2403 2404
2403 2453
2404 2453
2405 2406
2407 2454
2407 2455
2408 2519
2408 2520
2409 2521
2410 2458
2410 2459
2411 2522
2411 2523
2412 2524
2413 2462
2413 2463
2414 2525
2414 2526
2415 2527
2416 2466
2416 2467
2417 2528
2417 2529
2418 2530
2419 2470
2419 2471
2420 2531
2420 2532
2421 2533
2422 2474
2422 2475
2423 2534
2423 2535
2424 2536
2425 2478
2425 2479
2426 2537
2426 2538
2427 2539
2428 2482
2428 2483
2429 2540
2429 2541
2430 2542
2431 2486
2431 2487
2432 2543
2432 2544
2433 2545
2434 2490
2434 2491
2435 2546
2435 2547
2436 2548
2437 2494
2437 2495
2438 2549
2438 2550
2439 2551
2440 2498
2440 2499
2441 2552
2441 2553
2442 2554
2443 2502
2443 2503
2444 2555
2444 2556
2445 2557
2446 2506
2446 2507
2447 2558
2447 2559
2448 2560
2449 2510
2449 2511
2450 2561
2450 2562
2451 2563
2452 2514
2452 2515
2453 2564
2453 2565
2454 2455
2454 2518
2454 2566
2454 2567
2455 2456
2455 2566
2455 2567
2456 2519
2456 2567
2456 2568
2457 2520
2457 2569
2457 2570
2458 2459
2458 2521
2458 2571
2458 2572
2459 2460
2459 2571
2459 2572
2460 2522
2460 2572
2460 2573
2461 2523
2461 2574
2461 2575
2462 2463
2462 2524
2462 2576
2462 2577
2463 2464
2463 2576
2463 2577
2464 2525
2464 2577
2464 2578
2465 2526
2465 2579
2465 2580
2466 2467
2466 2527
2466 2581
2466 2582
2467 2468
2467 2581
2467 2582
2468 2528
2468 2582
2468 2583
2469 2529
2469 2584
2469 2585
2470 2471
2470 2530
2470 2586
2470 2587
2471 2472
2471 2586
2471 2587
2472 2531
2472 2587
2472 2588
2473 2532
2473 2589
2473 2590
2474 2475
2474 2533
2474 2591
2474 2592
2475 2476
2475 2591
2475 2592
2476 2534
2476 2592
2476 2593
2477 2535
2477 2594
2477 2595
2478 2479
2478 2536
2478 2596
2478 2597
2479 2480
2479 2596
2479 2597
2480 2537
2480 2597
2480 2598
2481 2538
2481 2599
2481 2600
2482 2483
2482 2539
2482 2601
2482 2602
2483 2484
2483 2601
2483 2602
2484 2540
2484 2602
2484 2603
2485 2541
2485 2604
2485 2605
2486 2487
2486 2542
2486 2606
2486 2607
2487 2488
2487 2606
2487 2607
2488 2543
2488 2607
2488 2608
2489 2544
2489 2609
2489 2610
2490 2491
2490 2545
2490 2611
2490 2612
2491 2492
2491 2611
2491 2612
2492 2546
2492 2612
2492 2613
2493 2547
2493 2614
2493 2615
2494 2495
2494 2548
2494 2616
2494 2617
2495 2496
2495 2616
2495 2617
2496 2549
2496 2617
2496 2618
2497 2550
2497 2619
2497 2620
2498 2499
2498 2551
2498 2621
2498 2622
2499 2500
2499 2621
2499 2622
2500 2552
2500 2622
2500 2623
2501 2553
2501 2624
2501 2625
2502 2503
2502 2554
2502 2626
2502 2627
2503 2504
2503 2626
2503 2627
2504 2555
2504 2627
2504 2628
2505 2556
2505 2629
2505 2630
2506 2507
2506 2557
2506 2631
2506 2632
2507 2508
2507 2631
2507 2632
2508 2558
2508 2632
2508 2633
2509 2559
2509 2634
2509 2635
2510 2511
2510 2560
2510 2636
2510 2637
2511 2512
2511 2636
2511 2637
2512 2561
2512 2637
2512 2638
2513 2562
2513 2639
2513 2640
2514 2515
2514 2563
2514 2641
2514 2642
2515 2516
2515 2641
2515 2642
2516 2564
2516 2642
2516 2643
2517 2565
2517 2644
2517 2645
2518 2566
2519 2520
2519 2568
2519 2646
2519 2647
2520 2569
2520 2646
2520 2647
2521 2571
2522 2523
2522 2573
2522 2648
2522 2649
2523 2574
2523 2648
2523 2649
2524 2576
2525 2526
2525 2578
2525 2650
2525 2651
2526 2579
2526 2650
2526 2651
2527 2581
2528 2529
2528 2583
2528 2652
2528 2653
2529 2584
2529 2652
2529 2653
2530 2586
2531 2532
2531 2588
2531 2654
2531 2655
2532 2589
2532 2654
2532 2655
2533 2591
2534 2535
2534 2593
2534 2656
2534 2657
2535 2594
2535 2656
2535 2657
2536 2596
2537 2538
2537 2598
2537 2658
2537 2659
2538 2599
2538 2658
2538 2659
2539 2601
2540 2541
2540 2603
2540 2660
2540 2661
2541 2604
2541 2660
2541 2661
2542 2606
2543 2544
2543 2608
2543 2662
2543 2663
2544 2609
2544 2662
2544 2663
2545 2611
2546 2547
2546 2613
2546 2664
2546 2665
2547 2614
2547 2664
2547 2665
2548 2616
2549 2550
2549 2618
2549 2666
2549 2667
2550 2619
2550 2666
2550 2667
2551 2621
2552 2553
2552 2623
2552 2668
2552 2669
2553 2624
2553 2668
2553 2669
2554 2626
2555 2556
2555 2628
2555 2670
2555 2671
2556 2629
2556 2670
2556 2671
2557 2631
2558 2559
2558 2633
2558 2672
2558 2673
2559 2634
2559 2672
2559 2673
2560 2636
2561 2562
2561 2638
2561 2674
2561 2675
2562 2639
2562 2674
2562 2675
2563 2641
2564 2565
2564 2643
2564 2676
2564 2677
2565 2644
2565 2676
2565 2677
2566 2567
2566 2678
2567 2678
2568 2646
2568 2679
2569 2647
2569 2680
2570 2681
2571 2572
2571 2682
2572 2682
2573 2648
2573 2683
2574 2649
2574 2684
2575 2685
2576 2577
2576 2686
2577 2686
2578 2650
2578 2687
2579 2651
2579 2688
2580 2689
2581 2582
2581 2690
2582 2690
2583 2652
2583 2691
2584 2653
2584 2692
2585 2693
2586 2587
2586 2694
2587 2694
2588 2654
2588 2695
2589 2655
2589 2696
2590 2697
2591 2592
2591 2698
2592 2698
2593 2656
2593 2699
2594 2657
2594 2700
2595 2701
2596 2597
2596 2702
2597 2702
2598 2658
2598 2703
2599 2659
2599 2704
2600 2705
2601 2602
2601 2706
2602 2706
2603 2660
2603 2707
2604 2661
2604 2708
2605 2709
2606 2607
2606 2710
2607 2710
2608 2662
2608 2711
2609 2663
2609 2712
2610 2713
2611 2612
2611 2714
2612 2714
2613 2664
2613 2715
2614 2665
2614 2716
2615 2717
2616 2617
2616 2718
2617 2718
2618 2666
2618 2719
2619 2667
2619 2720
2620 2721
2621 2622
2621 2722
2622 2722
2623 2668
2623 2723
2624 2669
2624 2724
2625 2725
2626 2627
2626 2726
2627 2726
2628 2670
2628 2727
2629 2671
2629 2728
2630 2729
2631 2632
2631 2730
2632 2730
2633 2672
2633 2731
2634 2673
2634 2732
2635 2733
2636 2637
2636 2734
2637 2734
2638 2674
2638 2735
2639 2675
2639 2736
2640 2737
2641 2642
2641 2738
2642 2738
2643 2676
2643 2739
2644 2677
2644 2740
2645 2741
2646 2647
2646 2679
2647 2680
2648 2649
2648 2683
2649 2684
2650 2651
2650 2687
2651 2688
2652 2653
2652 2691
2653 2692
2654 2655
2654 2695
2655 2696
2656 2657
2656 2699
2657 2700
2658 2659
2658 2703
2659 2704
2660 2661
2660 2707
2661 2708
2662 2663
2662 2711
2663 2712
2664 2665
2664 2715
2665 2716
2666 2667
2666 2719
2667 2720
2668 2669
2668 2723
2669 2724
2670 2671
2670 2727
2671 2728
2672 2673
2672 2731
2673 2732
2674 2675
2674 2735
2675 2736
2676 2677
2676 2739
2677 2740
2678 2742
2678 2743
2679 2743
2680 2744
2680 2745
2681 2746
2681 2747
2682 2748
2682 2749
2683 2749
2684 2750
2684 2751
2685 2752
2685 2753
2686 2754
2686 2755
2687 2755
2688 2756
2688 2757
2689 2758
2689 2759
2690 2760
2690 2761
2691 2761
2692 2762
2692 2763
2693 2764
2693 2765
2694 2766
2694 2767
2695 2767
2696 2768
2696 2769
2697 2770
2697 2771
2698 2772
2698 2773
2699 2773
2700 2774
2700 2775
2701 2776
2701 2777
2702 2778
2702 2779
2703 2779
2704 2780
2704 2781
2705 2782
2705 2783
2706 2784
2706 2785
2707 2785
2708 2786
2708 2787
2709 2788
2709 2789
2710 2790
2710 2791
2711 2791
2712 2792
2712 2793
2713 2794
2713 2795
2714 2796
2714 2797
2715 2797
2716 2798
2716 2799
2717 2800
2717 2801
2718 2802
2718 2803
2719 2803
2720 2804
2720 2805
2721 2806
2721 2807
2722 2808
2722 2809
2723 2809
2724 2810
2724 2811
2725 2812
2725 2813
2726 2814
2726 2815
2727 2815
2728 2816
2728 2817
2729 2818
2729 2819
2730 2820
2730 2821
2731 2821
2732 2822
2732 2823
2733 2824
2733 2825
2734 2826
2734 2827
2735 2827
2736 2828
2736 2829
2737 2830
2737 2831
2738 2832
2738 2833
2739 2833
2740 2834
2740 2835
2741 2836
2741 2837
2742 2743
2742 2838
2742 2903
2742 2904
2743 2839
2743 2903
2743 2904
2744 2745
2744 2840
2744 2905
2744 2906
2745 2841
2745 2905
2745 2906
2746 2747
2746 2841
2746 2907
2746 2908
2747 2842
2747 2907
2747 2908
2748 2749
2748 2842
2748 2909
2748 2910
2749 2843
2749 2909
2749 2910
2750 2751
2750 2844
2750 2911
2750 2912
2751 2845
2751 2911
2751 2912
2752 2753
2752 2845
2752 2913
2752 2914
2753 2846
2753 2913
2753 2914
2754 2755
2754 2846
2754 2915
2754 2916
2755 2847
2755 2915
2755 2916
2756 2757
2756 2848
2756 2917
2756 2918
2757 2849
2757 2917
2757 2918
2758 2759
2758 2849
2758 2919
2758 2920
2759 2850
2759 2919
2759 2920
2760 2761
2760 2850
2760 2921
2760 2922
2761 2851
2761 2921
2761 2922
2762 2763
2762 2852
2762 2923
2762 2924
2763 2853
2763 2923
2763 2924
2764 2765
2764 2853
2764 2925
2764 2926
2765 2854
2765 2925
2765 2926
2766 2767
2766 2854
2766 2927
2766 2928
2767 2855
2767 2927
2767 2928
2768 2769
2768 2856
2768 2929
2768 2930
2769 2857
2769 2929
2769 2930
2770 2771
2770 2857
2770 2931
2770 2932
2771 2858
2771 2931
2771 2932
2772 2773
2772 2858
2772 2933
2772 2934
2773 2859
2773 2933
2773 2934
2774 2775
2774 2860
2774 2935
2774 2936
2775 2861
2775 2935
2775 2936
2776 2777
2776 2861
2776 2937
2776 2938
2777 2862
2777 2937
2777 2938
2778 2779
2778 2862
2778 2939
2778 2940
2779 2863
2779 2939
2779 2940
2780 2781
2780 2864
2780 2941
2780 2942
2781 2865
2781 2941
2781 2942
2782 2783
2782 2865
2782 2943
2782 2944
2783 2866
2783 2943
2783 2944
2784 2785
2784 2866
2784 2945
2784 2946
2785 2867
2785 2945
2785 2946
2786 2787
2786 2868
2786 2947
2786 2948
2787 2869
2787 2947
2787 2948
2788 2789
2788 2869
2788 2949
2788 2950
2789 2870
2789 2949
2789 2950
2790 2791
2790 2870
2790 2951
2790 2952
2791 2871
2791 2951
2791 2952
2792 2793
2792 2872
2792 2953
2792 2954
2793 2873
2793 2953
2793 2954
2794 2795
2794 2873
2794 2955
2794 2956
2795 2874
2795 2955
2795 2956
2796 2797
2796 2874
2796 2957
2796 2958
2797 2875
2797 2957
2797 2958
2798 2799
2798 2876
2798 2959
2798 2960
2799 2877
2799 2959
2799 2960
2800 2801
2800 2877
2800 2961
2800 2962
2801 2878
2801 2961
2801 2962
2802 2803
2802 2878
2802 2963
2802 2964
2803 2879
2803 2963
2803 2964
2804 2805
2804 2880
2804 2965
2804 2966
2805 2881
2805 2965
2805 2966
2806 2807
2806 2881
2806 2967
2806 2968
2807 2882
2807 2967
2807 2968
2808 2809
2808 2882
2808 2969
2808 2970
2809 2883
2809 2969
2809 2970
2810 2811
2810 2884
2810 2971
2810 2972
2811 2885
2811 2971
2811 2972
2812 2813
2812 2885
2812 2973
2812 2974
2813 2886
2813 2973
2813 2974
2814 2815
2814 2886
2814 2975
2814 2976
2815 2887
2815 2975
2815 2976
2816 2817
2816 2888
2816 2977
2816 2978
2817 2889
2817 2977
2817 2978
2818 2819
2818 2889
2818 2979
2818 2980
2819 2890
2819 2979
2819 2980
2820 2821
2820 2890
2820 2981
2820 2982
2821 2891
2821 2981
2821 2982
2822 2823
2822 2892
2822 2983
2822 2984
2823 2893
2823 2983
2823 2984
2824 2825
2824 2893
2824 2985
2824 2986
2825 2894
2825 2985
2825 2986
2826 2827
2826 2894
2826 2987
2826 2988
2827 2895
2827 2987
2827 2988
2828 2829
2828 2896
2828 2989
2828 2990
2829 2897
2829 2989
2829 2990
2830 2831
2830 2897
2830 2991
2830 2992
2831 2898
2831 2991
2831 2992
2832 2833
2832 2898
2832 2993
2832 2994
2833 2899
2833 2993
2833 2994
2834 2835
2834 2900
2834 2995
2834 2996
2835 2901
2835 2995
2835 2996
2836 2837
2836 2901
2837 2902
2838 2903
2839 2840
2839 2904
2840 2905
2841 2906
2841 2907
2842 2908
2842 2909
2843 2844
2843 2910
2844 2911
2845 2912
2845 2913
2846 2914
2846 2915
2847 2848
2847 2916
2848 2917
2849 2918
2849 2919
2850 2920
2850 2921
2851 2852
2851 2922
2852 2923
2853 2924
2853 2925
2854 2926
2854 2927
2855 2856
2855 2928
2856 2929
2857 2930
2857 2931
2858 2932
2858 2933
2859 2860
2859 2934
2860 2935
2861 2936
2861 2937
2862 2938
2862 2939
2863 2864
2863 2940
2864 2941
2865 2942
2865 2943
2866 2944
2866 2945
2867 2868
2867 2946
2868 2947
2869 2948
2869 2949
2870 2950
2870 2951
2871 2872
2871 2952
2872 2953
2873 2954
2873 2955
2874 2956
2874 2957
2875 2876
2875 2958
2876 2959
2877 2960
2877 2961
2878 2962
2878 2963
2879 2880
2879 2964
2880 2965
2881 2966
2881 2967
2882 2968
2882 2969
2883 2884
2883 2970
2884 2971
2885 2972
2885 2973
2886 2974
2886 2975
2887 2888
2887 2976
2888 2977
2889 2978
2889 2979
2890 2980
2890 2981
2891 2892
2891 2982
2892 2983
2893 2984
2893 2985
2894 2986
2894 2987
2895 2896
2895 2988
2896 2989
2897 2990
2897 2991
2898 2992
2898 2993
2899 2900
2899 2994
2900 2995
2901 2996
2903 2904
2903 2997
2904 2997
2905 2906
2905 2998
2906 2998
2907 2908
2907 2999
2908 2999
2909 2910
2909 3000
2910 3000
2911 2912
2911 3001
2912 3001
2913 2914
2913 3002
2914 3002
2915 2916
2915 3003
2916 3003
2917 2918
2917 3004
2918 3004
2919 2920
2919 3005
2920 3005
2921 2922
2921 3006
2922 3006
2923 2924
2923 3007
2924 3007
2925 2926
2925 3008
2926 3008
2927 2928
2927 3009
2928 3009
2929 2930
2929 3010
2930 3010
2931 2932
2931 3011
2932 3011
2933 2934
2933 3012
2934 3012
2935 2936
2935 3013
2936 3013
2937 2938
2937 3014
2938 3014
2939 2940
2939 3015
2940 3015
2941 2942
2941 3016
2942 3016
2943 2944
2943 3017
2944 3017
2945 2946
2945 3018
2946 3018
2947 2948
2947 3019
2948 3019
2949 2950
2949 3020
2950 3020
2951 2952
2951 3021
2952 3021
2953 2954
2953 3022
2954 3022
2955 2956
2955 3023
2956 3023
2957 2958
2957 3024
2958 3024
2959 2960
2959 3025
2960 3025
2961 2962
2961 3026
2962 3026
2963 2964
2963 3027
2964 3027
2965 2966
2965 3028
2966 3028
2967 2968
2967 3029
2968 3029
2969 2970
2969 3030
2970 3030
2971 2972
2971 3031
2972 3031
2973 2974
2973 3032
2974 3032
2975 2976
2975 3033
2976 3033
2977 2978
2977 3034
2978 3034
2979 2980
2979 3035
2980 3035
2981 2982
2981 3036
2982 3036
2983 2984
2983 3037
2984 3037
2985 2986
2985 3038
2986 3038
2987 2988
2987 3039
2988 3039
2989 2990
2989 3040
2990 3040
2991 2992
2991 3041
2992 3041
2993 2994
2993 3042
2994 3042
2995 2996
2995 3043
2996 3043
2997 3044
2997 3045
2998 3109
2998 3110
2999 3111
3000 3048
3000 3049
3001 3112
3001 3113
3002 3114
3003 3052
3003 3053
3004 3115
3004 3116
3005 3117
3006 3056
3006 3057
3007 3118
3007 3119
3008 3120
3009 3060
3009 3061
3010 3121
3010 3122
3011 3123
3012 3064
3012 3065
3013 3124
3013 3125
3014 3126
3015 3068
3015 3069
3016 3127
3016 3128
3017 3129
3018 3072
3018 3073
3019 3130
3019 3131
3020 3132
3021 3076
3021 3077
3022 3133
3022 3134
3023 3135
3024 3080
3024 3081
3025 3136
3025 3137
3026 3138
3027 3084
3027 3085
3028 3139
3028 3140
3029 3141
3030 3088
3030 3089
3031 3142
3031 3143
3032 3144
3033 3092
3033 3093
3034 3145
3034 3146
3035 3147
3036 3096
3036 3097
3037 3148
3037 3149
3038 3150
3039 3100
3039 3101
3040 3151
3040 3152
3041 3153
3042 3104
3042 3105
3043 3154
3043 3155
3044 3045
3044 3108
3044 3156
3044 3157
3045 3046
3045 3156
3045 3157
3046 3109
3046 3157
3046 3158
3047 3110
3047 3159
3047 3160
3048 3049
3048 3111
3048 3161
3048 3162
3049 3050
3049 3161
3049 3162
3050 3112
3050 3162
3050 3163
3051 3113
3051 3164
3051 3165
3052 3053
3052 3114
3052 3166
3052 3167
3053 3054
3053 3166
3053 3167
3054 3115
3054 3167
3054 3168
3055 3116
3055 3169
3055 3170
3056 3057
3056 3117
3056 3171
3056 3172
3057 3058
3057 3171
3057 3172
3058 3118
3058 3172
3058 3173
3059 3119
3059 3174
3059 3175
3060 3061
3060 3120
3060 3176
3060 3177
3061 3062
3061 3176
3061 3177
3062 3121
3062 3177
3062 3178
3063 3122
3063 3179
3063 3180
3064 3065
3064 3123
3064 3181
3064 3182
3065 3066
3065 3181
3065 3182
3066 3124
3066 3182
3066 3183
3067 3125
3067 3184
3067 3185
3068 3069
3068 3126
3068 3186
3068 3187
3069 3070
3069 3186
3069 3187
3070 3127
3070 3187
3070 3188
3071 3128
3071 3189
3071 3190
3072 3073
3072 3129
3072 3191
3072 3192
3073 3074
3073 3191
3073 3192
3074 3130
3074 3192
3074 3193
3075 3131
3075 3194
3075 3195
3076 3077
3076 3132
3076 3196
3076 3197
3077 3078
3077 3196
3077 3197
3078 3133
3078 3197
3078 3198
3079 3134
3079 3199
3079 3200
3080 3081
3080 3135
3080 3201
3080 3202
3081 3082
3081 3201
3081 3202
3082 3136
3082 3202
3082 3203
3083 3137
3083 3204
3083 3205
3084 3085
3084 3138
3084 3206
3084 3207
3085 3086
3085 3206
3085 3207
3086 3139
3086 3207
3086 3208
3087 3140
3087 3209
3087 3210
3088 3089
3088 3141
3088 3211
3088 3212
3089 3090
3089 3211
3089 3212
3090 3142
3090 3212
3090 3213
3091 3143
3091 3214
3091 3215
3092 3093
3092 3144
3092 3216
3092 3217
3093 3094
3093 3216
3093 3217
3094 3145
3094 3217
3094 3218
3095 3146
3095 3219
3095 3220
3096 3097
3096 3147
3096 3221
3096 3222
3097 3098
3097 3221
3097 3222
3098 3148
3098 3222
3098 3223
3099 3149
3099 3224
3099 3225
3100 3101
3100 3150
3100 3226
3100 3227
3101 3102
3101 3226
3101 3227
3102 3151
3102 3227
3102 3228
3103 3152
3103 3229
3103 3230
3104 3105
3104 3153
3104 3231
3104 3232
3105 3106
3105 3231
3105 3232
3106 3154
3106 3232
3106 3233
3107 3155
3107 3234
3107 3235
3108 3156
3109 3110
3109 3158
3109 3236
3109 3237
3110 3159
3110 3236
3110 3237
3111 3161
3112 3113
3112 3163
3112 3238
3112 3239
3113 3164
3113 3238
3113 3239
3114 3166
3115 3116
3115 3168
3115 3240
3115 3241
3116 3169
3116 3240
3116 3241
3117 3171
3118 3119
3118 3173
3118 3242
3118 3243
3119 3174
3119 3242
3119 3243
3120 3176
3121 3122
3121 3178
3121 3244
3121 3245
3122 3179
3122 3244
3122 3245
3123 3181
3124 3125
3124 3183
3124 3246
3124 3247
3125 3184
3125 3246
3125 3247
3126 3186
3127 3128
3127 3188
3127 3248
3127 3249
3128 3189
3128 3248
3128 3249
3129 3191
3130 3131
3130 3193
3130 3250
3130 3251
3131 3194
3131 3250
3131 3251
3132 3196
3133 3134
3133 3198
3133 3252
3133 3253
3134 3199
3134 3252
3134 3253
3135 3201
3136 3137
3136 3203
3136 3254
3136 3255
3137 3204
3137 3254
3137 3255
3138 3206
3139 3140
3139 3208
3139 3256
3139 3257
3140 3209
3140 3256
3140 3257
3141 3211
3142 3143
3142 3213
3142 3258
3142 3259
3143 3214
3143 3258
3143 3259
3144 3216
3145 3146
3145 3218
3145 3260
3145 3261
3146 3219
3146 3260
3146 3261
3147 3221
3148 3149
3148 3223
3148 3262
3148 3263
3149 3224
3149 3262
3149 3263
3150 3226
3151 3152
3151 3228
3151 3264
3151 3265
3152 3229
3152 3264
3152 3265
3153 3231
3154 3155
3154 3233
3154 3266
3154 3267
3155 3234
3155 3266
3155 3267
3156 3157
3156 3268
3157 3268
3158 3236
3158 3269
3159 3237
3159 3270
3160 3271
3161 3162
3161 3272
3162 3272
3163 3238
3163 3273
3164 3239
3164 3274
3165 3275
3166 3167
3166 3276
3167 3276
3168 3240
3168 3277
3169 3241
3169 3278
3170 3279
3171 3172
3171 3280
3172 3280
3173 3242
3173 3281
3174 3243
3174 3282
3175 3283
3176 3177
3176 3284
3177 3284
3178 3244
3178 3285
3179 3245
3179 3286
3180 3287
3181 3182
3181 3288
3182 3288
3183 3246
3183 3289
3184 3247
3184 3290
3185 3291
3186 3187
3186 3292
3187 3292
3188 3248
3188 3293
3189 3249
3189 3294
3190 3295
3191 3192
3191 3296
3192 3296
3193 3250
3193 3297
3194 3251
3194 3298
3195 3299
3196 3197
3196 3300
3197 3300
3198 3252
3198 3301
3199 3253
3199 3302
3200 3303
3201 3202
3201 3304
3202 3304
3203 3254
3203 3305
3204 3255
3204 3306
3205 3307
3206 3207
3206 3308
3207 3308
3208 3256
3208 3309
3209 3257
3209 3310
3210 3311
3211 3212
3211 3312
3212 3312
3213 3258
3213 3313
3214 3259
3214 3314
3215 3315
3216 3217
3216 3316
3217 3316
3218 3260
3218 3317
3219 3261
3219 3318
3220 3319
3221 3222
3221 3320
3222 3320
3223 3262
3223 3321
3224 3263
3224 3322
3225 3323
3226 3227
3226 3324
3227 3324
3228 3264
3228 3325
3229 3265
3229 3326
3230 3327
3231 3232
3231 3328
3232 3328
3233 3266
3233 3329
3234 3267
3234 3330
3235 3331
3236 3237
3236 3269
3237 3270
3238 3239
3238 3273
3239 3274
3240 3241
3240 3277
3241 3278
3242 3243
3242 3281
3243 3282
3244 3245
3244 3285
3245 3286
3246 3247
3246 3289
3247 3290
3248 3249
3248 3293
3249 3294
3250 3251
3250 3297
3251 3298
3252 3253
3252 3301
3253 3302
3254 3255
3254 3305
3255 3306
3256 3257
3256 3309
3257 3310
3258 3259
3258 3313
3259 3314
3260 3261
3260 3317
3261 3318
3262 3263
3262 3321
3263 3322
3264 3265
3264 3325
3265 3326
3266 3267
3266 3329
3267 3330
3268 3332
3268 3333
3269 3333
3270 3334
3270 3335
3271 3336
3271 3337
3272 3338
3272 3339
3273 3339
3274 3340
3274 3341
3275 3342
3275 3343
3276 3344
3276 3345
3277 3345
3278 3346
3278 3347
3279 3348
3279 3349
3280 3350
3280 3351
3281 3351
3282 3352
3282 3353
3283 3354
3283 3355
3284 3356
3284 3357
3285 3357
3286 3358
3286 3359
3287 3360
3287 3361
3288 3362
3288 3363
3289 3363
3290 3364
3290 3365
3291 3366
3291 3367
3292 3368
3292 3369
3293 3369
3294 3370
3294 3371
3295 3372
3295 3373
3296 3374
3296 3375
3297 3375
3298 3376
3298 3377
3299 3378
3299 3379
3300 3380
3300 3381
3301 3381
3302 3382
3302 3383
3303 3384
3303 3385
3304 3386
3304 3387
3305 3387
3306 3388
3306 3389
3307 3390
3307 3391
3308 3392
3308 3393
3309 3393
3310 3394
3310 3395
3311 3396
3311 3397
3312 3398
3312 3399
3313 3399
3314 3400
3314 3401
3315 3402
3315 3403
3316 3404
3316 3405
3317 3405
3318 3406
3318 3407
3319 3408
3319 3409
3320 3410
3320 3411
3321 3411
3322 3412
3322 3413
3323 3414
3323 3415
3324 3416
3324 3417
3325 3417
3326 3418
3326 3419
3327 3420
3327 3421
3328 3422
3328 3423
3329 3423
3330 3424
3330 3425
3331 3426
3331 3427
3332 3333
3332 3428
3332 3493
3332 3494
3333 3429
3333 3493
3333 3494
3334 3335
3334 3430
3334 3495
3334 3496
3335 3431
3335 3495
3335 3496
3336 3337
3336 3431
3336 3497
3336 3498
3337 3432
3337 3497
3337 3498
3338 3339
3338 3432
3338 3499
3338 3500
3339 3433
3339 3499
3339 3500
3340 3341
3340 3434
3340 3501
3340 3502
3341 3435
3341 3501
3341 3502
3342 3343
3342 3435
3342 3503
3342 3504
3343 3436
3343 3503
3343 3504
3344 3345
3344 3436
3344 3505
3344 3506
3345 3437
3345 3505
3345 3506
3346 3347
3346 3438
3346 3507
3346 3508
3347 3439
3347 3507
3347 3508
3348 3349
3348 3439
3348 3509
3348 3510
3349 3440
3349 3509
3349 3510
3350 3351
3350 3440
3350 3511
3350 3512
3351 3441
3351 3511
3351 3512
3352 3353
3352 3442
3352 3513
3352 3514
3353 3443
3353 3513
3353 3514
3354 3355
3354 3443
3354 3515
3354 3516
3355 3444
3355 3515
3355 3516
3356 3357
3356 3444
3356 3517
3356 3518
3357 3445
3357 3517
3357 3518
3358 3359
3358 3446
3358 3519
3358 3520
3359 3447
3359 3519
3359 3520
3360 3361
3360 3447
3360 3521
3360 3522
3361 3448
3361 3521
3361 3522
3362 3363
3362 3448
3362 3523
3362 3524
3363 3449
3363 3523
3363 3524
3364 3365
3364 3450
3364 3525
3364 3526
3365 3451
3365 3525
3365 3526
3366 3367
3366 3451
3366 3527
3366 3528
3367 3452
3367 3527
3367 3528
3368 3369
3368 3452
3368 3529
3368 3530
3369 3453
3369 3529
3369 3530
3370 3371
3370 3454
3370 3531
3370 3532
3371 3455
3371 3531
3371 3532
3372 3373
3372 3455
3372 3533
3372 3534
3373 3456
3373 3533
3373 3534
3374 3375
3374 3456
3374 3535
3374 3536
3375 3457
3375 3535
3375 3536
3376 3377
3376 3458
3376 3537
3376 3538
3377 3459
3377 3537
3377 3538
3378 3379
3378 3459
3378 3539
3378 3540
3379 3460
3379 3539
3379 3540
3380 3381
3380 3460
3380 3541
3380 3542
3381 3461
3381 3541
3381 3542
3382 3383
3382 3462
3382 3543
3382 3544
3383 3463
3383 3543
3383 3544
3384 3385
3384 3463
3384 3545
3384 3546
3385 3464
3385 3545
3385 3546
3386 3387
3386 3464
3386 3547
3386 3548
3387 3465
3387 3547
3387 3548
3388 3389
3388 3466
3388 3549
3388 3550
3389 3467
3389 3549
3389 3550
3390 3391
3390 3467
3390 3551
3390 3552
3391 3468
3391 3551
3391 3552
3392 3393
3392 3468
3392 3553
3392 3554
3393 3469
3393 3553
3393 3554
3394 3395
3394 3470
3394 3555
3394 3556
3395 3471
3395 3555
3395 3556
3396 3397
3396 3471
3396 3557
3396 3558
3397 3472
3397 3557
3397 3558
3398 3399
3398 3472
3398 3559
3398 3560
3399 3473
3399 3559
3399 3560
3400 3401
3400 3474
3400 3561
3400 3562
3401 3475
3401 3561
3401 3562
3402 3403
3402 3475
3402 3563
3402 3564
3403 3476
3403 3563
3403 3564
3404 3405
3404 3476
3404 3565
3404 3566
3405 3477
3405 3565
3405 3566
3406 3407
3406 3478
3406 3567
3406 3568
3407 3479
3407 3567
3407 3568
3408 3409
3408 3479
3408 3569
3408 3570
3409 3480
3409 3569
3409 3570
3410 3411
3410 3480
3410 3571
3410 3572
3411 3481
3411 3571
3411 3572
3412 3413
3412 3482
3412 3573
3412 3574
3413 3483
3413 3573
3413 3574
3414 3415
3414 3483
3414 3575
3414 3576
3415 3484
3415 3575
3415 3576
3416 3417
3416 3484
3416 3577
3416 3578
3417 3485
3417 3577
3417 3578
3418 3419
3418 3486
3418 3579
3418 3580
3419 3487
3419 3579
3419 3580
3420 3421
3420 3487
3420 3581
3420 3582
3421 3488
3421 3581
3421 3582
3422 3423
3422 3488
3422 3583
3422 3584
3423 3489
3423 3583
3423 3584
3424 3425
3424 3490
3424 3585
3424 3586
3425 3491
3425 3585
3425 3586
3426 3427
3426 3491
3426 3587
3426 3588
3427 3492
3427 3587
3427 3588
3428 3493
3429 3430
3429 3494
3430 3495
3431 3496
3431 3497
3432 3498
3432 3499
3433 3434
3433 3500
3434 3501
3435 3502
3435 3503
3436 3504
3436 3505
3437 3438
3437 3506
3438 3507
3439 3508
3439 3509
3440 3510
3440 3511
3441 3442
3441 3512
3442 3513
3443 3514
3443 3515
3444 3516
3444 3517
3445 3446
3445 3518
3446 3519
3447 3520
3447 3521
3448 3522
3448 3523
3449 3450
3449 3524
3450 3525
3451 3526
3451 3527
3452 3528
3452 3529
3453 3454
3453 3530
3454 3531
3455 3532
3455 3533
3456 3534
3456 3535
3457 3458
3457 3536
3458 3537
3459 3538
3459 3539
3460 3540
3460 3541
3461 3462
3461 3542
3462 3543
3463 3544
3463 3545
3464 3546
3464 3547
3465 3466
3465 3548
3466 3549
3467 3550
3467 3551
3468 3552
3468 3553
3469 3470
3469 3554
3470 3555
3471 3556
3471 3557
3472 3558
3472 3559
3473 3474
3473 3560
3474 3561
3475 3562
3475 3563
3476 3564
3476 3565
3477 3478
3477 3566
3478 3567
3479 3568
3479 3569
3480 3570
3480 3571
3481 3482
3481 3572
3482 3573
3483 3574
3483 3575
3484 3576
3484 3577
3485 3486
3485 3578
3486 3579
3487 3580
3487 3581
3488 3582
3488 3583
3489 3490
3489 3584
3490 3585
3491 3586
3491 3587
3492 3588
3493 3494
3493 3589
3494 3589
3495 3496
3495 3590
3496 3590
3497 3498
3497 3591
3498 3591
3499 3500
3499 3592
3500 3592
3501 3502
3501 3593
3502 3593
3503 3504
3503 3594
3504 3594
3505 3506
3505 3595
3506 3595
3507 3508
3507 3596
3508 3596
3509 3510
3509 3597
3510 3597
3511 3512
3511 3598
3512 3598
3513 3514
3513 3599
3514 3599
3515 3516
3515 3600
3516 3600
3517 3518
3517 3601
3518 3601
3519 3520
3519 3602
3520 3602
3521 3522
3521 3603
3522 3603
3523 3524
3523 3604
3524 3604
3525 3526
3525 3605
3526 3605
3527 3528
3527 3606
3528 3606
3529 3530
3529 3607
3530 3607
3531 3532
3531 3608
3532 3608
3533 3534
3533 3609
3534 3609
3535 3536
3535 3610
3536 3610
3537 3538
3537 3611
3538 3611
3539 3540
3539 3612
3540 3612
3541 3542
3541 3613
3542 3613
3543 3544
3543 3614
3544 3614
3545 3546
3545 3615
3546 3615
3547 3548
3547 3616
3548 3616
3549 3550
3549 3617
3550 3617
3551 3552
3551 3618
3552 3618
3553 3554
3553 3619
3554 3619
3555 3556
3555 3620
3556 3620
3557 3558
3557 3621
3558 3621
3559 3560
3559 3622
3560 3622
3561 3562
3561 3623
3562 3623
3563 3564
3563 3624
3564 3624
3565 3566
3565 3625
3566 3625
3567 3568
3567 3626
3568 3626
3569 3570
3569 3627
3570 3627
3571 3572
3571 3628
3572 3628
3573 3574
3573 3629
3574 3629
3575 3576
3575 3630
3576 3630
3577 3578
3577 3631
3578 3631
3579 3580
3579 3632
3580 3632
3581 3582
3581 3633
3582 3633
3583 3584
3583 3634
3584 3634
3585 3586
3585 3635
3586 3635
3587 3588
3589 3636
3589 3637
3590 3701
3590 3702
3591 3703
3592 3640
3592 3641
3593 3704
3593 3705
3594 3706
3595 3644
3595 3645
3596 3707
3596 3708
3597 3709
3598 3648
3598 3649
3599 3710
3599 3711
3600 3712
3601 3652
3601 3653
3602 3713
3602 3714
3603 3715
3604 3656
3604 3657
3605 3716
3605 3717
3606 3718
3607 3660
3607 3661
3608 3719
3608 3720
3609 3721
3610 3664
3610 3665
3611 3722
3611 3723
3612 3724
3613 3668
3613 3669
3614 3725
3614 3726
3615 3727
3616 3672
3616 3673
3617 3728
3617 3729
3618 3730
3619 3676
3619 3677
3620 3731
3620 3732
3621 3733
3622 3680
3622 3681
3623 3734
3623 3735
3624 3736
3625 3684
3625 3685
3626 3737
3626 3738
3627 3739
3628 3688
3628 3689
3629 3740
3629 3741
3630 3742
3631 3692
3631 3693
3632 3743
3632 3744
3633 3745
3634 3696
3634 3697
3635 3746
3635 3747
3636 3637
3636 3700
3636 3748
3636 3749
3637 3638
3637 3748
3637 3749
3638 3701
3638 3749
3638 3750
3639 3702
3639 3751
3639 3752
3640 3641
3640 3703
3640 3753
3640 3754
3641 3642
3641 3753
3641 3754
3642 3704
3642 3754
3642 3755
3643 3705
3643 3756
3643 3757
3644 3645
3644 3706
3644 3758
3644 3759
3645 3646
3645 3758
3645 3759
3646 3707
3646 3759
3646 3760
3647 3708
3647 3761
3647 3762
3648 3649
3648 3709
3648 3763
3648 3764
3649 3650
3649 3763
3649 3764
3650 3710
3650 3764
3650 3765
3651 3711
3651 3766
3651 3767
3652 3653
3652 3712
3652 3768
3652 3769
3653 3654
3653 3768
3653 3769
3654 3713
3654 3769
3654 3770
3655 3714
3655 3771
3655 3772
3656 3657
3656 3715
3656 3773
3656 3774
3657 3658
3657 3773
3657 3774
3658 3716
3658 3774
3658 3775
3659 3717
3659 3776
3659 3777
3660 3661
3660 3718
3660 3778
3660 3779
3661 3662
3661 3778
3661 3779
3662 3719
3662 3779
3662 3780
3663 3720
3663 3781
3663 3782
3664 3665
3664 3721
3664 3783
3664 3784
3665 3666
3665 3783
3665 3784
3666 3722
3666 3784
3666 3785
3667 3723
3667 3786
3667 3787
3668 3669
3668 3724
3668 3788
3668 3789
3669 3670
3669 3788
3669 3789
3670 3725
3670 3789
3670 3790
3671 3726
3671 3791
3671 3792
3672 3673
3672 3727
3672 3793
3672 3794
3673 3674
3673 3793
3673 3794
3674 3728
3674 3794
3674 3795
3675 3729
3675 3796
3675 3797
3676 3677
3676 3730
3676 3798
3676 3799
3677 3678
3677 3798
3677 3799
3678 3731
3678 3799
3678 3800
3679 3732
3679 3801
3679 3802
3680 3681
3680 3733
3680 3803
3680 3804
3681 3682
3681 3803
3681 3804
3682 3734
3682 3804
3682 3805
3683 3735
3683 3806
3683 3807
3684 3685
3684 3736
3684 3808
3684 3809
3685 3686
3685 3808
3685 3809
3686 3737
3686 3809
3686 3810
3687 3738
3687 3811
3687 3812
3688 3689
3688 3739
3688 3813
3688 3814
3689 3690
3689 3813
3689 3814
3690 3740
3690 3814
3690 3815
3691 3741
3691 3816
3691 3817
3692 3693
3692 3742
3692 3818
3692 3819
3693 3694
3693 3818
3693 3819
3694 3743
3694 3819
3694 3820
3695 3744
3695 3821
3695 3822
3696 3697
3696 3745
3696 3823
3696 3824
3697 3698
3697 3823
3697 3824
3698 3746
3698 3824
3698 3825
3699 3747
3699 3826
3699 3827
3700 3748
3701 3702
3701 3750
3701 3828
3701 3829
3702 3751
3702 3828
3702 3829
3703 3753
3704 3705
3704 3755
3704 3830
3704 3831
3705 3756
3705 3830
3705 3831
3706 3758
3707 3708
3707 3760
3707 3832
3707 3833
3708 3761
3708 3832
3708 3833
3709 3763
3710 3711
3710 3765
3710 3834
3710 3835
3711 3766
3711 3834
3711 3835
3712 3768
3713 3714
3713 3770
3713 3836
3713 3837
3714 3771
3714 3836
3714 3837
3715 3773
3716 3717
3716 3775
3716 3838
3716 3839
3717 3776
3717 3838
3717 3839
3718 3778
3719 3720
3719 3780
3719 3840
3719 3841
3720 3781
3720 3840
3720 3841
3721 3783
3722 3723
3722 3785
3722 3842
3722 3843
3723 3786
3723 3842
3723 3843
3724 3788
3725 3726
3725 3790
3725 3844
3725 3845
3726 3791
3726 3844
3726 3845
3727 3793
3728 3729
3728 3795
3728 3846
3728 3847
3729 3796
3729 3846
3729 3847
3730 3798
3731 3732
3731 3800
3731 3848
3731 3849
3732 3801
3732 3848
3732 3849
3733 3803
3734 3735
3734 3805
3734 3850
3734 3851
3735 3806
3735 3850
3735 3851
3736 3808
3737 3738
3737 3810
3737 3852
3737 3853
3738 3811
3738 3852
3738 3853
3739 3813
3740 3741
3740 3815
3740 3854
3740 3855
3741 3816
3741 3854
3741 3855
3742 3818
3743 3744
3743 3820
3743 3856
3743 3857
3744 3821
3744 3856
3744 3857
3745 3823
3746 3747
3746 3825
3746 3858
3746 3859
3747 3826
3747 3858
3747 3859
3748 3749
3748 3860
3749 3860
3750 3828
3750 3861
3751 3829
3751 3862
3752 3863
3753 3754
3753 3864
3754 3864
3755 3830
3755 3865
3756 3831
3756 3866
3757 3867
3758 3759
3758 3868
3759 3868
3760 3832
3760 3869
3761 3833
3761 3870
3762 3871
3763 3764
3763 3872
3764 3872
3765 3834
3765 3873
3766 3835
3766 3874
3767 3875
3768 3769
3768 3876
3769 3876
3770 3836
3770 3877
3771 3837
3771 3878
3772 3879
3773 3774
3773 3880
3774 3880
3775 3838
3775 3881
3776 3839
3776 3882
3777 3883
3778 3779
3778 3884
3779 3884
3780 3840
3780 3885
3781 3841
3781 3886
3782 3887
3783 3784
3783 3888
3784 3888
3785 3842
3785 3889
3786 3843
3786 3890
3787 3891
3788 3789
3788 3892
3789 3892
3790 3844
3790 3893
3791 3845
3791 3894
3792 3895
3793 3794
3793 3896
3794 3896
3795 3846
3795 3897
3796 3847
3796 3898
3797 3899
3798 3799
3798 3900
3799 3900
3800 3848
3800 3901
3801 3849
3801 3902
3802 3903
3803 3804
3803 3904
3804 3904
3805 3850
3805 3905
3806 3851
3806 3906
3807 3907
3808 3809
3808 3908
3809 3908
3810 3852
3810 3909
3811 3853
3811 3910
3812 3911
3813 3814
3813 3912
3814 3912
3815 3854
3815 3913
3816 3855
3816 3914
3817 3915
3818 3819
3818 3916
3819 3916
3820 3856
3820 3917
3821 3857
3821 3918
3822 3919
3823 3824
3823 3920
3824 3920
3825 3858
3825 3921
3826 3859
3826 3922
3827 3923
3828 3829
3828 3861
3829 3862
3830 3831
3830 3865
3831 3866
3832 3833
3832 3869
3833 3870
3834 3835
3834 3873
3835 3874
3836 3837
3836 3877
3837 3878
3838 3839
3838 3881
3839 3882
3840 3841
3840 3885
3841 3886
3842 3843
3842 3889
3843 3890
3844 3845
3844 3893
3845 3894
3846 3847
3846 3897
3847 3898
3848 3849
3848 3901
3849 3902
3850 3851
3850 3905
3851 3906
3852 3853
3852 3909
3853 3910
3854 3855
3854 3913
3855 3914
3856 3857
3856 3917
3857 3918
3858 3859
3858 3921
3859 3922
3860 3924
3860 3925
3861 3925
3862 3926
3862 3927
3863 3928
3863 3929
3864 3930
3864 3931
3865 3931
3866 3932
3866 3933
3867 3934
3867 3935
3868 3936
3868 3937
3869 3937
3870 3938
3870 3939
3871 3940
3871 3941
3872 3942
3872 3943
3873 3943
3874 3944
3874 3945
3875 3946
3875 3947
3876 3948
3876 3949
3877 3949
3878 3950
3878 3951
3879 3952
3879 3953
3880 3954
3880 3955
3881 3955
3882 3956
3882 3957
3883 3958
3883 3959
3884 3960
3884 3961
3885 3961
3886 3962
3886 3963
3887 3964
3887 3965
3888 3966
3888 3967
3889 3967
3890 3968
3890 3969
3891 3970
3891 3971
3892 3972
3892 3973
3893 3973
3894 3974
3894 3975
3895 3976
3895 3977
3896 3978
3896 3979
3897 3979
3898 3980
3898 3981
3899 3982
3899 3983
3900 3984
3900 3985
3901 3985
3902 3986
3902 3987
3903 3988
3903 3989
3904 3990
3904 3991
3905 3991
3906 3992
3906 3993
3907 3994
3907 3995
3908 3996
3908 3997
3909 3997
3910 3998
3910 3999
3911 4000
3911 4001
3912 4002
3912 4003
3913 4003
3914 4004
3914 4005
3915 4006
3915 4007
3916 4008
3916 4009
3917 4009
3918 4010
3918 4011
3919 4012
3919 4013
3920 4014
3920 4015
3921 4015
3922 4016
3922 4017
3923 4018
3923 4019
3924 3925
3924 4020
3924 4085
3924 4086
3925 4021
3925 4085
3925 4086
3926 3927
3926 4022
3926 4087
3926 4088
3927 4023
3927 4087
3927 4088
3928 3929
3928 4023
3928 4089
3928 4090
3929 4024
3929 4089
3929 4090
3930 3931
3930 4024
3930 4091
3930 4092
3931 4025
3931 4091
3931 4092
3932 3933
3932 4026
3932 4093
3932 4094
3933 4027
3933 4093
3933 4094
3934 3935
3934 4027
3934 4095
3934 4096
3935 4028
3935 4095
3935 4096
3936 3937
3936 4028
3936 4097
3936 4098
3937 4029
3937 4097
3937 4098
3938 3939
3938 4030
3938 4099
3938 4100
3939 4031
3939 4099
3939 4100
3940 3941
3940 4031
3940 4101
3940 4102
3941 4032
3941 4101
3941 4102
3942 3943
3942 4032
3942 4103
3942 4104
3943 4033
3943 4103
3943 4104
3944 3945
3944 4034
3944 4105
3944 4106
3945 4035
3945 4105
3945 4106
3946 3947
3946 4035
3946 4107
3946 4108
3947 4036
3947 4107
3947 4108
3948 3949
3948 4036
3948 4109
3948 4110
3949 4037
3949 4109
3949 4110
3950 3951
3950 4038
3950 4111
3950 4112
3951 4039
3951 4111
3951 4112
3952 3953
3952 4039
3952 4113
3952 4114
3953 4040
3953 4113
3953 4114
3954 3955
3954 4040
3954 4115
3954 4116
3955 4041
3955 4115
3955 4116
3956 3957
3956 4042
3956 4117
3956 4118
3957 4043
3957 4117
3957 4118
3958 3959
3958 4043
3958 4119
3958 4120
3959 4044
3959 4119
3959 4120
3960 3961
3960 4044
3960 4121
3960 4122
3961 4045
3961 4121
3961 4122
3962 3963
3962 4046
3962 4123
3962 4124
3963 4047
3963 4123
3963 4124
3964 3965
3964 4047
3964 4125
3964 4126
3965 4048
3965 4125
3965 4126
3966 3967
3966 4048
3966 4127
3966 4128
3967 4049
3967 4127
3967 4128
3968 3969
3968 4050
3968 4129
3968 4130
3969 4051
3969 4129
3969 4130
3970 3971
3970 4051
3970 4131
3970 4132
3971 4052
3971 4131
3971 4132
3972 3973
3972 4052
3972 4133
3972 4134
3973 4053
3973 4133
3973 4134
3974 3975
3974 4054
3974 4135
3974 4136
3975 4055
3975 4135
3975 4136
3976 3977
3976 4055
3976 4137
3976 4138
3977 4056
3977 4137
3977 4138
3978 3979
3978 4056
3978 4139
3978 4140
3979 4057
3979 4139
3979 4140
3980 3981
3980 4058
3980 4141
3980 4142
3981 4059
3981 4141
3981 4142
3982 3983
3982 4059
3982 4143
3982 4144
3983 4060
3983 4143
3983 4144
3984 3985
3984 4060
3984 4145
3984 4146
3985 4061
3985 4145
3985 4146
3986 3987
3986 4062
3986 4147
3986 4148
3987 4063
3987 4147
3987 4148
3988 3989
3988 4063
3988 4149
3988 4150
3989 4064
3989 4149
3989 4150
3990 3991
3990 4064
3990 4151
3990 4152
3991 4065
3991 4151
3991 4152
3992 3993
3992 4066
3992 4153
3992 4154
3993 4067
3993 4153
3993 4154
3994 3995
3994 4067
3994 4155
3994 4156
3995 4068
3995 4155
3995 4156
3996 3997
3996 4068
3996 4157
3996 4158
3997 4069
3997 4157
3997 4158
3998 3999
3998 4070
3998 4159
3998 4160
3999 4071
3999 4159
3999 4160
4000 4001
4000 4071
4000 4161
4000 4162
4001 4072
4001 4161
4001 4162
4002 4003
4002 4072
4002 4163
4002 4164
4003 4073
4003 4163
4003 4164
4004 4005
4004 4074
4004 4165
4004 4166
4005 4075
4005 4165
4005 4166
4006 4007
4006 4075
4006 4167
4006 4168
4007 4076
4007 4167
4007 4168
4008 4009
4008 4076
4008 4169
4008 4170
4009 4077
4009 4169
4009 4170
4010 4011
4010 4078
4010 4171
4010 4172
4011 4079
4011 4171
4011 4172
4012 4013
4012 4079
4012 4173
4012 4174
4013 4080
4013 4173
4013 4174
4014 4015
4014 4080
4014 4175
4014 4176
4015 4081
4015 4175
4015 4176
4016 4017
4016 4082
4016 4177
4016 4178
4017 4083
4017 4177
4017 4178
4018 4019
4018 4083
4019 4084
4020 4085
4021 4022
4021 4086
4022 4087
4023 4088
4023 4089
4024 4090
4024 4091
4025 4026
4025 4092
4026 4093
4027 4094
4027 4095
4028 4096
4028 4097
4029 4030
4029 4098
4030 4099
4031 4100
4031 4101
4032 4102
4032 4103
4033 4034
4033 4104
4034 4105
4035 4106
4035 4107
4036 4108
4036 4109
4037 4038
4037 4110
4038 4111
4039 4112
4039 4113
4040 4114
4040 4115
4041 4042
4041 4116
4042 4117
4043 4118
4043 4119
4044 4120
4044 4121
4045 4046
4045 4122
4046 4123
4047 4124
4047 4125
4048 4126
4048 4127
4049 4050
4049 4128
4050 4129
4051 4130
4051 4131
4052 4132
4052 4133
4053 4054
4053 4134
4054 4135
4055 4136
4055 4137
4056 4138
4056 4139
4057 4058
4057 4140
4058 4141
4059 4142
4059 4143
4060 4144
4060 4145
4061 4062
4061 4146
4062 4147
4063 4148
4063 4149
4064 4150
4064 4151
4065 4066
4065 4152
4066 4153
4067 4154
4067 4155
4068 4156
4068 4157
4069 4070
4069 4158
4070 4159
4071 4160
4071 4161
4072 4162
4072 4163
4073 4074
4073 4164
4074 4165
4075 4166
4075 4167
4076 4168
4076 4169
4077 4078
4077 4170
4078 4171
4079 4172
4079 4173
4080 4174
4080 4175
4081 4082
4081 4176
4082 4177
4083 4178
4085 4086
4085 4179
4086 4179
4087 4088
4087 4180
4088 4180
4089 4090
4089 4181
4090 4181
4091 4092
4091 4182
4092 4182
4093 4094
4093 4183
4094 4183
4095 4096
4095 4184
4096 4184
4097 4098
4097 4185
4098 4185
4099 4100
4099 4186
4100 4186
4101 4102
4101 4187
4102 4187
4103 4104
4103 4188
4104 4188
4105 4106
4105 4189
4106 4189
4107 4108
4107 4190
4108 4190
4109 4110
4109 4191
4110 4191
4111 4112
4111 4192
4112 4192
4113 4114
4113 4193
4114 4193
4115 4116
4115 4194
4116 4194
4117 4118
4117 4195
4118 4195
4119 4120
4119 4196
4120 4196
4121 4122
4121 4197
4122 4197
4123 4124
4123 4198
4124 4198
4125 4126
4125 4199
4126 4199
4127 4128
4127 4200
4128 4200
4129 4130
4129 4201
4130 4201
4131 4132
4131 4202
4132 4202
4133 4134
4133 4203
4134 4203
4135 4136
4135 4204
4136 4204
4137 4138
4137 4205
4138 4205
4139 4140
4139 4206
4140 4206
4141 4142
4141 4207
4142 4207
4143 4144
4143 4208
4144 4208
4145 4146
4145 4209
4146 4209
4147 4148
4147 4210
4148 4210
4149 4150
4149 4211
4150 4211
4151 4152
4151 4212
4152 4212
4153 4154
4153 4213
4154 4213
4155 4156
4155 4214
4156 4214
4157 4158
4157 4215
4158 4215
4159 4160
4159 4216
4160 4216
4161 4162
4161 4217
4162 4217
4163 4164
4163 4218
4164 4218
4165 4166
4165 4219
4166 4219
4167 4168
4167 4220
4168 4220
4169 4170
4169 4221
4170 4221
4171 4172
4171 4222
4172 4222
4173 4174
4173 4223
4174 4223
4175 4176
4175 4224
4176 4224
4177 4178
4177 4225
4178 4225
4179 4226
4179 4227
4180 4291
4180 4292
4181 4293
4182 4230
4182 4231
4183 4294
4183 4295
4184 4296
4185 4234
4185 4235
4186 4297
4186 4298
4187 4299
4188 4238
4188 4239
4189 4300
4189 4301
4190 4302
4191 4242
4191 4243
4192 4303
4192 4304
4193 4305
4194 4246
4194 4247
4195 4306
4195 4307
4196 4308
4197 4250
4197 4251
4198 4309
4198 4310
4199 4311
4200 4254
4200 4255
4201 4312
4201 4313
4202 4314
4203 4258
4203 4259
4204 4315
4204 4316
4205 4317
4206 4262
4206 4263
4207 4318
4207 4319
4208 4320
4209 4266
4209 4267
4210 4321
4210 4322
4211 4323
4212 4270
4212 4271
4213 4324
4213 4325
4214 4326
4215 4274
4215 4275
4216 4327
4216 4328
4217 4329
4218 4278
4218 4279
4219 4330
4219 4331
4220 4332
4221 4282
4221 4283
4222 4333
4222 4334
4223 4335
4224 4286
4224 4287
4225 4336
4225 4337
4226 4227
4226 4290
4226 4338
4226 4339
4227 4228
4227 4338
4227 4339
4228 4291
4228 4339
4228 4340
4229 4292
4229 4341
4229 4342
4230 4231
4230 4293
4230 4343
4230 4344
4231 4232
4231 4343
4231 4344
4232 4294
4232 4344
4232 4345
4233 4295
4233 4346
4233 4347
4234 4235
4234 4296
4234 4348
4234 4349
4235 4236
4235 4348
4235 4349
4236 4297
4236 4349
4236 4350
4237 4298
4237 4351
4237 4352
4238 4239
4238 4299
4238 4353
4238 4354
4239 4240
4239 4353
4239 4354
4240 4300
4240 4354
4240 4355
4241 4301
4241 4356
4241 4357
4242 4243
4242 4302
4242 4358
4242 4359
4243 4244
4243 4358
4243 4359
4244 4303
4244 4359
4244 4360
4245 4304
4245 4361
4245 4362
4246 4247
4246 4305
4246 4363
4246 4364
4247 4248
4247 4363
4247 4364
4248 4306
4248 4364
4248 4365
4249 4307
4249 4366
4249 4367
4250 4251
4250 4308
4250 4368
4250 4369
4251 4252
4251 4368
4251 4369
4252 4309
4252 4369
4252 4370
4253 4310
4253 4371
4253 4372
4254 4255
4254 4311
4254 4373
4254 4374
4255 4256
4255 4373
4255 4374
4256 4312
4256 4374
4256 4375
4257 4313
4257 4376
4257 4377
4258 4259
4258 4314
4258 4378
4258 4379
4259 4260
4259 4378
4259 4379
4260 4315
4260 4379
4260 4380
4261 4316
4261 4381
4261 4382
4262 4263
4262 4317
4262 4383
4262 4384
4263 4264
4263 4383
4263 4384
4264 4318
4264 4384
4264 4385
4265 4319
4265 4386
4265 4387
4266 4267
4266 4320
4266 4388
4266 4389
4267 4268
4267 4388
4267 4389
4268 4321
4268 4389
4268 4390
4269 4322
4269 4391
4269 4392
4270 4271
4270 4323
4270 4393
4270 4394
4271 4272
4271 4393
4271 4394
4272 4324
4272 4394
4272 4395
4273 4325
4273 4396
4273 4397
4274 4275
4274 4326
4274 4398
4274 4399
4275 4276
4275 4398
4275 4399
4276 4327
4276 4399
4276 4400
4277 4328
4277 4401
4277 4402
4278 4279
4278 4329
4278 4403
4278 4404
4279 4280
4279 4403
4279 4404
4280 4330
4280 4404
4280 4405
4281 4331
4281 4406
4281 4407
4282 4283
4282 4332
4282 4408
4282 4409
4283 4284
4283 4408
4283 4409
4284 4333
4284 4409
4284 4410
4285 4334
4285 4411
4285 4412
4286 4287
4286 4335
4286 4413
4286 4414
4287 4288
4287 4413
4287 4414
4288 4336
4288 4414
4288 4415
4289 4337
4289 4416
4289 4417
4290 4338
4291 4292
4291 4340
4291 4418
4291 4419
4292 4341
4292 4418
4292 4419
4293 4343
4294 4295
4294 4345
4294 4420
4294 4421
4295 4346
4295 4420
4295 4421
4296 4348
4297 4298
4297 4350
4297 4422
4297 4423
4298 4351
4298 4422
4298 4423
4299 4353
4300 4301
4300 4355
4300 4424
4300 4425
4301 4356
4301 4424
4301 4425
4302 4358
4303 4304
4303 4360
4303 4426
4303 4427
4304 4361
4304 4426
4304 4427
4305 4363
4306 4307
4306 4365
4306 4428
4306 4429
4307 4366
4307 4428
4307 4429
4308 4368
4309 4310
4309 4370
4309 4430
4309 4431
4310 4371
4310 4430
4310 4431
4311 4373
4312 4313
4312 4375
4312 4432
4312 4433
4313 4376
4313 4432
4313 4433
4314 4378
4315 4316
4315 4380
4315 4434
4315 4435
4316 4381
4316 4434
4316 4435
4317 4383
4318 4319
4318 4385
4318 4436
4318 4437
4319 4386
4319 4436
4319 4437
4320 4388
4321 4322
4321 4390
4321 4438
4321 4439
4322 4391
4322 4438
4322 4439
4323 4393
4324 4325
4324 4395
4324 4440
4324 4441
4325 4396
4325 4440
4325 4441
4326 4398
4327 4328
4327 4400
4327 4442
4327 4443
4328 4401
4328 4442
4328 4443
4329 4403
4330 4331
4330 4405
4330 4444
4330 4445
4331 4406
4331 4444
4331 4445
4332 4408
4333 4334
4333 4410
4333 4446
4333 4447
4334 4411
4334 4446
4334 4447
4335 4413
4336 4337
4336 4415
4336 4448
4336 4449
4337 4416
4337 4448
4337 4449
4338 4339
4338 4450
4339 4450
4340 4418
4340 4451
4341 4419
4341 4452
4342 4453
4343 4344
4343 4454
4344 4454
4345 4420
4345 4455
4346 4421
4346 4456
4347 4457
4348 4349
4348 4458
4349 4458
4350 4422
4350 4459
4351 4423
4351 4460
4352 4461
4353 4354
4353 4462
4354 4462
4355 4424
4355 4463
4356 4425
4356 4464
4357 4465
4358 4359
4358 4466
4359 4466
4360 4426
4360 4467
4361 4427
4361 4468
4362 4469
4363 4364
4363 4470
4364 4470
4365 4428
4365 4471
4366 4429
4366 4472
4367 4473
4368 4369
4368 4474
4369 4474
4370 4430
4370 4475
4371 4431
4371 4476
4372 4477
4373 4374
4373 4478
4374 4478
4375 4432
4375 4479
4376 4433
4376 4480
4377 4481
4378 4379
4378 4482
4379 4482
4380 4434
4380 4483
4381 4435
4381 4484
4382 4485
4383 4384
4383 4486
4384 4486
4385 4436
4385 4487
4386 4437
4386 4488
4387 4489
4388 4389
4388 4490
4389 4490
4390 4438
4390 4491
4391 4439
4391 4492
4392 4493
4393 4394
4393 4494
4394 4494
4395 4440
4395 4495
4396 4441
4396 4496
4397 4497
4398 4399
4398 4498
4399 4498
4400 4442
4400 4499
4401 4443
4401 4500
4402 4501
4403 4404
4403 4502
4404 4502
4405 4444
4405 4503
4406 4445
4406 4504
4407 4505
4408 4409
4408 4506
4409 4506
4410 4446
4410 4507
4411 4447
4411 4508
4412 4509
4413 4414
4413 4510
4414 4510
4415 4448
4415 4511
4416 4449
4416 4512
4417 4513
4418 4419
4418 4451
4419 4452
4420 4421
4420 4455
4421 4456
4422 4423
4422 4459
4423 4460
4424 4425
4424 4463
4425 4464
4426 4427
4426 4467
4427 4468
4428 4429
4428 4471
4429 4472
4430 4431
4430 4475
4431 4476
4432 4433
4432 4479
4433 4480
4434 4435
4434 4483
4435 4484
4436 4437
4436 4487
4437 4488
4438 4439
4438 4491
4439 4492
4440 4441
4440 4495
4441 4496
4442 4443
4442 4499
4443 4500
4444 4445
4444 4503
4445 4504
4446 4447
4446 4507
4447 4508
4448 4449
4448 4511
4449 4512
4450 4514
4450 4515
4451 4515
4452 4516
4452 4517
4453 4518
4453 4519
4454 4520
4454 4521
4455 4521
4456 4522
4456 4523
4457 4524
4457 4525
4458 4526
4458 4527
4459 4527
4460 4528
4460 4529
4461 4530
4461 4531
4462 4532
4462 4533
4463 4533
4464 4534
4464 4535
4465 4536
4465 4537
4466 4538
4466 4539
4467 4539
4468 4540
4468 4541
4469 4542
4469 4543
4470 4544
4470 4545
4471 4545
4472 4546
4472 4547
4473 4548
4473 4549
4474 4550
4474 4551
4475 4551
4476 4552
4476 4553
4477 4554
4477 4555
4478 4556
4478 4557
4479 4557
4480 4558
4480 4559
4481 4560
4481 4561
4482 4562
4482 4563
4483 4563
4484 4564
4484 4565
4485 4566
4485 4567
4486 4568
4486 4569
4487 4569
4488 4570
4488 4571
4489 4572
4489 4573
4490 4574
4490 4575
4491 4575
4492 4576
4492 4577
4493 4578
4493 4579
4494 4580
4494 4581
4495 4581
4496 4582
4496 4583
4497 4584
4497 4585
4498 4586
4498 4587
4499 4587
4500 4588
4500 4589
4501 4590
4501 4591
4502 4592
4502 4593
4503 4593
4504 4594
4504 4595
4505 4596
4505 4597
4506 4598
4506 4599
4507 4599
4508 4600
4508 4601
4509 4602
4509 4603
4510 4604
4510 4605
4511 4605
4512 4606
4512 4607
4513 4608
4513 4609
4514 4515
4514 4610
4514 4675
4514 4676
4515 4611
4515 4675
4515 4676
4516 4517
4516 4612
4516 4677
4516 4678
4517 4613
4517 4677
4517 4678
4518 4519
4518 4613
4518 4679
4518 4680
4519 4614
4519 4679
4519 4680
4520 4521
4520 4614
4520 4681
4520 4682
4521 4615
4521 4681
4521 4682
4522 4523
4522 4616
4522 4683
4522 4684
4523 4617
4523 4683
4523 4684
4524 4525
4524 4617
4524 4685
4524 4686
4525 4618
4525 4685
4525 4686
4526 4527
4526 4618
4526 4687
4526 4688
4527 4619
4527 4687
4527 4688
4528 4529
4528 4620
4528 4689
4528 4690
4529 4621
4529 4689
4529 4690
4530 4531
4530 4621
4530 4691
4530 4692
4531 4622
4531 4691
4531 4692
4532 4533
4532 4622
4532 4693
4532 4694
4533 4623
4533 4693
4533 4694
4534 4535
4534 4624
4534 4695
4534 4696
4535 4625
4535 4695
4535 4696
4536 4537
4536 4625
4536 4697
4536 4698
4537 4626
4537 4697
4537 4698
4538 4539
4538 4626
4538 4699
4538 4700
4539 4627
4539 4699
4539 4700
4540 4541
4540 4628
4540 4701
4540 4702
4541 4629
4541 4701
4541 4702
4542 4543
4542 4629
4542 4703
4542 4704
4543 4630
4543 4703
4543 4704
4544 4545
4544 4630
4544 4705
4544 4706
4545 4631
4545 4705
4545 4706
4546 4547
4546 4632
4546 4707
4546 4708
4547 4633
4547 4707
4547 4708
4548 4549
4548 4633
4548 4709
4548 4710
4549 4634
4549 4709
4549 4710
4550 4551
4550 4634
4550 4711
4550 4712
4551 4635
4551 4711
4551 4712
4552 4553
4552 4636
4552 4713
4552 4714
4553 4637
4553 4713
4553 4714
4554 4555
4554 4637
4554 4715
4554 4716
4555 4638
4555 4715
4555 4716
4556 4557
4556 4638
4556 4717
4556 4718
4557 4639
4557 4717
4557 4718
4558 4559
4558 4640
4558 4719
4558 4720
4559 4641
4559 4719
4559 4720
4560 4561
4560 4641
4560 4721
4560 4722
4561 4642
4561 4721
4561 4722
4562 4563
4562 4642
4562 4723
4562 4724
4563 4643
4563 4723
4563 4724
4564 4565
4564 4644
4564 4725
4564 4726
4565 4645
4565 4725
4565 4726
4566 4567
4566 4645
4566 4727
4566 4728
4567 4646
4567 4727
4567 4728
4568 4569
4568 4646
4568 4729
4568 4730
4569 4647
4569 4729
4569 4730
4570 4571
4570 4648
4570 4731
4570 4732
4571 4649
4571 4731
4571 4732
4572 4573
4572 4649
4572 4733
4572 4734
4573 4650
4573 4733
4573 4734
4574 4575
4574 4650
4574 4735
4574 4736
4575 4651
4575 4735
4575 4736
4576 4577
4576 4652
4576 4737
4576 4738
4577 4653
4577 4737
4577 4738
4578 4579
4578 4653
4578 4739
4578 4740
4579 4654
4579 4739
4579 4740
4580 4581
4580 4654
4580 4741
4580 4742
4581 4655
4581 4741
4581 4742
4582 4583
4582 4656
4582 4743
4582 4744
4583 4657
4583 4743
4583 4744
4584 4585
4584 4657
4584 4745
4584 4746
4585 4658
4585 4745
4585 4746
4586 4587
4586 4658
4586 4747
4586 4748
4587 4659
4587 4747
4587 4748
4588 4589
4588 4660
4588 4749
4588 4750
4589 4661
4589 4749
4589 4750
4590 4591
4590 4661
4590 4751
4590 4752
4591 4662
4591 4751
4591 4752
4592 4593
4592 4662
4592 4753
4592 4754
4593 4663
4593 4753
4593 4754
4594 4595
4594 4664
4594 4755
4594 4756
4595 4665
4595 4755
4595 4756
4596 4597
4596 4665
4596 4757
4596 4758
4597 4666
4597 4757
4597 4758
4598 4599
4598 4666
4598 4759
4598 4760
4599 4667
4599 4759
4599 4760
4600 4601
4600 4668
4600 4761
4600 4762
4601 4669
4601 4761
4601 4762
4602 4603
4602 4669
4602 4763
4602 4764
4603 4670
4603 4763
4603 4764
4604 4605
4604 4670
4604 4765
4604 4766
4605 4671
4605 4765
4605 4766
4606 4607
4606 4672
4606 4767
4606 4768
4607 4673
4607 4767
4607 4768
4608 4609
4608 4673
4608 4769
4608 4770
4609 4674
4609 4769
4609 4770
4610 4675
4611 4612
4611 4676
4612 4677
4613 4678
4613 4679
4614 4680
4614 4681
4615 4616
4615 4682
4616 4683
4617 4684
4617 4685
4618 4686
4618 4687
4619 4620
4619 4688
4620 4689
4621 4690
4621 4691
4622 4692
4622 4693
4623 4624
4623 4694
4624 4695
4625 4696
4625 4697
4626 4698
4626 4699
4627 4628
4627 4700
4628 4701
4629 4702
4629 4703
4630 4704
4630 4705
4631 4632
4631 4706
4632 4707
4633 4708
4633 4709
4634 4710
4634 4711
4635 4636
4635 4712
4636 4713
4637 4714
4637 4715
4638 4716
4638 4717
4639 4640
4639 4718
4640 4719
4641 4720
4641 4721
4642 4722
4642 4723
4643 4644
4643 4724
4644 4725
4645 4726
4645 4727
4646 4728
4646 4729
4647 4648
4647 4730
4648 4731
4649 4732
4649 4733
4650 4734
4650 4735
4651 4652
4651 4736
4652 4737
4653 4738
4653 4739
4654 4740
4654 4741
4655 4656
4655 4742
4656 4743
4657 4744
4657 4745
4658 4746
4658 4747
4659 4660
4659 4748
4660 4749
4661 4750
4661 4751
4662 4752
4662 4753
4663 4664
4663 4754
4664 4755
4665 4756
4665 4757
4666 4758
4666 4759
4667 4668
4667 4760
4668 4761
4669 4762
4669 4763
4670 4764
4670 4765
4671 4672
4671 4766
4672 4767
4673 4768
4673 4769
4674 4770
4675 4676
4675 4771
4676 4771
4677 4678
4677 4772
4678 4772
4679 4680
4679 4773
4680 4773
4681 4682
4681 4774
4682 4774
4683 4684
4683 4775
4684 4775
4685 4686
4685 4776
4686 4776
4687 4688
4687 4777
4688 4777
4689 4690
4689 4778
4690 4778
4691 4692
4691 4779
4692 4779
4693 4694
4693 4780
4694 4780
4695 4696
4695 4781
4696 4781
4697 4698
4697 4782
4698 4782
4699 4700
4699 4783
4700 4783
4701 4702
4701 4784
4702 4784
4703 4704
4703 4785
4704 4785
4705 4706
4705 4786
4706 4786
4707 4708
4707 4787
4708 4787
4709 4710
4709 4788
4710 4788
4711 4712
4711 4789
4712 4789
4713 4714
4713 4790
4714 4790
4715 4716
4715 4791
4716 4791
4717 4718
4717 4792
4718 4792
4719 4720
4719 4793
4720 4793
4721 4722
4721 4794
4722 4794
4723 4724
4723 4795
4724 4795
4725 4726
4725 4796
4726 4796
4727 4728
4727 4797
4728 4797
4729 4730
4729 4798
4730 4798
4731 4732
4731 4799
4732 4799
4733 4734
4733 4800
4734 4800
4735 4736
4735 4801
4736 4801
4737 4738
4737 4802
4738 4802
4739 4740
4739 4803
4740 4803
4741 4742
4741 4804
4742 4804
4743 4744
4743 4805
4744 4805
4745 4746
4745 4806
4746 4806
4747 4748
4747 4807
4748 4807
4749 4750
4749 4808
4750 4808
4751 4752
4751 4809
4752 4809
4753 4754
4753 4810
4754 4810
4755 4756
4755 4811
4756 4811
4757 4758
4757 4812
4758 4812
4759 4760
4759 4813
4760 4813
4761 4762
4761 4814
4762 4814
4763 4764
4763 4815
4764 4815
4765 4766
4765 4816
4766 4816
4767 4768
4767 4817
4768 4817
4769 4770
4771 4818
4771 4819
4772 4883
4772 4884
4773 4885
4774 4822
4774 4823
4775 4886
4775 4887
4776 4888
4777 4826
4777 4827
4778 4889
4778 4890
4779 4891
4780 4830
4780 4831
4781 4892
4781 4893
4782 4894
4783 4834
4783 4835
4784 4895
4784 4896
4785 4897
4786 4838
4786 4839
4787 4898
4787 4899
4788 4900
4789 4842
4789 4843
4790 4901
4790 4902
4791 4903
4792 4846
4792 4847
4793 4904
4793 4905
4794 4906
4795 4850
4795 4851
4796 4907
4796 4908
4797 4909
4798 4854
4798 4855
4799 4910
4799 4911
4800 4912
4801 4858
4801 4859
4802 4913
4802 4914
4803 4915
4804 4862
4804 4863
4805 4916
4805 4917
4806 4918
4807 4866
4807 4867
4808 4919
4808 4920
4809 4921
4810 4870
4810 4871
4811 4922
4811 4923
4812 4924
4813 4874
4813 4875
4814 4925
4814 4926
4815 4927
4816 4878
4816 4879
4817 4928
4817 4929
4818 4819
4818 4882
4818 4930
4818 4931
4819 4820
4819 4930
4819 4931
4820 4883
4820 4931
4820 4932
4821 4884
4821 4933
4821 4934
4822 4823
4822 4885
4822 4935
4822 4936
4823 4824
4823 4935
4823 4936
4824 4886
4824 4936
4824 4937
4825 4887
4825 4938
4825 4939
4826 4827
4826 4888
4826 4940
4826 4941
4827 4828
4827 4940
4827 4941
4828 4889
4828 4941
4828 4942
4829 4890
4829 4943
4829 4944
4830 4831
4830 4891
4830 4945
4830 4946
4831 4832
4831 4945
4831 4946
4832 4892
4832 4946
4832 4947
4833 4893
4833 4948
4833 4949
4834 4835
4834 4894
4834 4950
4834 4951
4835 4836
4835 4950
4835 4951
4836 4895
4836 4951
4836 4952
4837 4896
4837 4953
4837 4954
4838 4839
4838 4897
4838 4955
4838 4956
4839 4840
4839 4955
4839 4956
4840 4898
4840 4956
4840 4957
4841 4899
4841 4958
4841 4959
4842 4843
4842 4900
4842 4960
4842 4961
4843 4844
4843 4960
4843 4961
4844 4901
4844 4961
4844 4962
4845 4902
4845 4963
4845 4964
4846 4847
4846 4903
4846 4965
4846 4966
4847 4848
4847 4965
4847 4966
4848 4904
4848 4966
4848 4967
4849 4905
4849 4968
4849 4969
4850 4851
4850 4906
4850 4970
4850 4971
4851 4852
4851 4970
4851 4971
4852 4907
4852 4971
4852 4972
4853 4908
4853 4973
4853 4974
4854 4855
4854 4909
4854 4975
4854 4976
4855 4856
4855 4975
4855 4976
4856 4910
4856 4976
4856 4977
4857 4911
4857 4978
4857 4979
4858 4859
4858 4912
4858 4980
4858 4981
4859 4860
4859 4980
4859 4981
4860 4913
4860 4981
4860 4982
4861 4914
4861 4983
4861 4984
4862 4863
4862 4915
4862 4985
4862 4986
4863 4864
4863 4985
4863 4986
4864 4916
4864 4986
4864 4987
4865 4917
4865 4988
4865 4989
4866 4867
4866 4918
4866 4990
4866 4991
4867 4868
4867 4990
4867 4991
4868 4919
4868 4991
4868 4992
4869 4920
4869 4993
4869 4994
4870 4871
4870 4921
4870 4995
4870 4996
4871 4872
4871 4995
4871 4996
4872 4922
4872 4996
4872 4997
4873 4923
4873 4998
4873 4999
4874 4875
4874 4924
4874 5000
4874 5001
4875 4876
4875 5000
4875 5001
4876 4925
4876 5001
4876 5002
4877 4926
4877 5003
4877 5004
4878 4879
4878 4927
4878 5005
4878 5006
4879 4880
4879 5005
4879 5006
4880 4928
4880 5006
4880 5007
4881 4929
4881 5008
4881 5009
4882 4930
4883 4884
4883 4932
4883 5010
4883 5011
4884 4933
4884 5010
4884 5011
4885 4935
4886 4887
4886 4937
4886 5012
4886 5013
4887 4938
4887 5012
4887 5013
4888 4940
4889 4890
4889 4942
4889 5014
4889 5015
4890 4943
4890 5014
4890 5015
4891 4945
4892 4893
4892 4947
4892 5016
4892 5017
4893 4948
4893 5016
4893 5017
4894 4950
4895 4896
4895 4952
4895 5018
4895 5019
4896 4953
4896 5018
4896 5019
4897 4955
4898 4899
4898 4957
4898 5020
4898 5021
4899 4958
4899 5020
4899 5021
4900 4960
4901 4902
4901 4962
4901 5022
4901 5023
4902 4963
4902 5022
4902 5023
4903 4965
4904 4905
4904 4967
4904 5024
4904 5025
4905 4968
4905 5024
4905 5025
4906 4970
4907 4908
4907 4972
4907 5026
4907 5027
4908 4973
4908 5026
4908 5027
4909 4975
4910 4911
4910 4977
4910 5028
4910 5029
4911 4978
4911 5028
4911 5029
4912 4980
4913 4914
4913 4982
4913 5030
4913 5031
4914 4983
4914 5030
4914 5031
4915 4985
4916 4917
4916 4987
4916 5032
4916 5033
4917 4988
4917 5032
4917 5033
4918 4990
4919 4920
4919 4992
4919 5034
4919 5035
4920 4993
4920 5034
4920 5035
4921 4995
4922 4923
4922 4997
4922 5036
4922 5037
4923 4998
4923 5036
4923 5037
4924 5000
4925 4926
4925 5002
4925 5038
4925 5039
4926 5003
4926 5038
4926 5039
4927 5005
4928 4929
4928 5007
4928 5040
4928 5041
4929 5008
4929 5040
4929 5041
4930 4931
4930 5042
4931 5042
4932 5010
4932 5043
4933 5011
4933 5044
4934 5045
4935 4936
4935 5046
4936 5046
4937 5012
4937 5047
4938 5013
4938 5048
4939 5049
4940 4941
4940 5050
4941 5050
4942 5014
4942 5051
4943 5015
4943 5052
4944 5053
4945 4946
4945 5054
4946 5054
4947 5016
4947 5055
4948 5017
4948 5056
4949 5057
4950 4951
4950 5058
4951 5058
4952 5018
4952 5059
4953 5019
4953 5060
4954 5061
4955 4956
4955 5062
4956 5062
4957 5020
4957 5063
4958 5021
4958 5064
4959 5065
4960 4961
4960 5066
4961 5066
4962 5022
4962 5067
4963 5023
4963 5068
4964 5069
4965 4966
4965 5070
4966 5070
4967 5024
4967 5071
4968 5025
4968 5072
4969 5073
4970 4971
4970 5074
4971 5074
4972 5026
4972 5075
4973 5027
4973 5076
4974 5077
4975 4976
4975 5078
4976 5078
4977 5028
4977 5079
4978 5029
4978 5080
4979 5081
4980 4981
4980 5082
4981 5082
4982 5030
4982 5083
4983 5031
4983 5084
4984 5085
4985 4986
4985 5086
4986 5086
4987 5032
4987 5087
4988 5033
4988 5088
4989 5089
4990 4991
4990 5090
4991 5090
4992 5034
4992 5091
4993 5035
4993 5092
4994 5093
4995 4996
4995 5094
4996 5094
4997 5036
4997 5095
4998 5037
4998 5096
4999 5097
5000 5001
5000 5098
5001 5098
5002 5038
5002 5099
5003 5039
5003 5100
5004 5101
5005 5006
5005 5102
5006 5102
5007 5040
5007 5103
5008 5041
5008 5104
5009 5105
5010 5011
5010 5043
5011 5044
5012 5013
5012 5047
5013 5048
5014 5015
5014 5051
5015 5052
5016 5017
5016 5055
5017 5056
5018 5019
5018 5059
5019 5060
5020 5021
5020 5063
5021 5064
5022 5023
5022 5067
5023 5068
5024 5025
5024 5071
5025 5072
5026 5027
5026 5075
5027 5076
5028 5029
5028 5079
5029 5080
5030 5031
5030 5083
5031 5084
5032 5033
5032 5087
5033 5088
5034 5035
5034 5091
5035 5092
5036 5037
5036 5095
5037 5096
5038 5039
5038 5099
5039 5100
5040 5041
5040 5103
5041 5104
5042 5106
5042 5107
5043 5107
5044 5108
5044 5109
5045 5110
5045 5111
5046 5112
5046 5113
5047 5113
5048 5114
5048 5115
5049 5116
5049 5117
5050 5118
5050 5119
5051 5119
5052 5120
5052 5121
5053 5122
5053 5123
5054 5124
5054 5125
5055 5125
5056 5126
5056 5127
5057 5128
5057 5129
5058 5130
5058 5131
5059 5131
5060 5132
5060 5133
5061 5134
5061 5135
5062 5136
5062 5137
5063 5137
5064 5138
5064 5139
5065 5140
5065 5141
5066 5142
5066 5143
5067 5143
5068 5144
5068 5145
5069 5146
5069 5147
5070 5148
5070 5149
5071 5149
5072 5150
5072 5151
5073 5152
5073 5153
5074 5154
5074 5155
5075 5155
5076 5156
5076 5157
5077 5158
5077 5159
5078 5160
5078 5161
5079 5161
5080 5162
5080 5163
5081 5164
5081 5165
5082 5166
5082 5167
5083 5167
5084 5168
5084 5169
5085 5170
5085 5171
5086 5172
5086 5173
5087 5173
5088 5174
5088 5175
5089 5176
5089 5177
5090 5178
5090 5179
5091 5179
5092 5180
5092 5181
5093 5182
5093 5183
5094 5184
5094 5185
5095 5185
5096 5186
5096 5187
5097 5188
5097 5189
5098 5190
5098 5191
5099 5191
5100 5192
5100 5193
5101 5194
5101 5195
5102 5196
5102 5197
5103 5197
5104 5198
5104 5199
5105 5200
5105 5201
5106 5107
5106 5202
5106 5267
5106 5268
5107 5203
5107 5267
5107 5268
5108 5109
5108 5204
5108 5269
5108 5270
5109 5205
5109 5269
5109 5270
5110 5111
5110 5205
5110 5271
5110 5272
5111 5206
5111 5271
5111 5272
5112 5113
5112 5206
5112 5273
5112 5274
5113 5207
5113 5273
5113 5274
5114 5115
5114 5208
5114 5275
5114 5276
5115 5209
5115 5275
5115 5276
5116 5117
5116 5209
5116 5277
5116 5278
5117 5210
5117 5277
5117 5278
5118 5119
5118 5210
5118 5279
5118 5280
5119 5211
5119 5279
5119 5280
5120 5121
5120 5212
5120 5281
5120 5282
5121 5213
5121 5281
5121 5282
5122 5123
5122 5213
5122 5283
5122 5284
5123 5214
5123 5283
5123 5284
5124 5125
5124 5214
5124 5285
5124 5286
5125 5215
5125 5285
5125 5286
5126 5127
5126 5216
5126 5287
5126 5288
5127 5217
5127 5287
5127 5288
5128 5129
5128 5217
5128 5289
5128 5290
5129 5218
5129 5289
5129 5290
5130 5131
5130 5218
5130 5291
5130 5292
5131 5219
5131 5291
5131 5292
5132 5133
5132 5220
5132 5293
5132 5294
5133 5221
5133 5293
5133 5294
5134 5135
5134 5221
5134 5295
5134 5296
5135 5222
5135 5295
5135 5296
5136 5137
5136 5222
5136 5297
5136 5298
5137 5223
5137 5297
5137 5298
5138 5139
5138 5224
5138 5299
5138 5300
5139 5225
5139 5299
5139 5300
5140 5141
5140 5225
5140 5301
5140 5302
5141 5226
5141 5301
5141 5302
5142 5143
5142 5226
5142 5303
5142 5304
5143 5227
5143 5303
5143 5304
5144 5145
5144 5228
5144 5305
5144 5306
5145 5229
5145 5305
5145 5306
5146 5147
5146 5229
5146 5307
5146 5308
5147 5230
5147 5307
5147 5308
5148 5149
5148 5230
5148 5309
5148 5310
5149 5231
5149 5309
5149 5310
5150 5151
5150 5232
5150 5311
5150 5312
5151 5233
5151 5311
5151 5312
5152 5153
5152 5233
5152 5313
5152 5314
5153 5234
5153 5313
5153 5314
5154 5155
5154 5234
5154 5315
5154 5316
5155 5235
5155 5315
5155 5316
5156 5157
5156 5236
5156 5317
5156 5318
5157 5237
5157 5317
5157 5318
5158 5159
5158 5237
5158 5319
5158 5320
5159 5238
5159 5319
5159 5320
5160 5161
5160 5238
5160 5321
5160 5322
5161 5239
5161 5321
5161 5322
5162 5163
5162 5240
5162 5323
5162 5324
5163 5241
5163 5323
5163 5324
5164 5165
5164 5241
5164 5325
5164 5326
5165 5242
5165 5325
5165 5326
5166 5167
5166 5242
5166 5327
5166 5328
5167 5243
5167 5327
5167 5328
5168 5169
5168 5244
5168 5329
5168 5330
5169 5245
5169 5329
5169 5330
5170 5171
5170 5245
5170 5331
5170 5332
5171 5246
5171 5331
5171 5332
5172 5173
5172 5246
5172 5333
5172 5334
5173 5247
5173 5333
5173 5334
5174 5175
5174 5248
5174 5335
5174 5336
5175 5249
5175 5335
5175 5336
5176 5177
5176 5249
5176 5337
5176 5338
5177 5250
5177 5337
5177 5338
5178 5179
5178 5250
5178 5339
5178 5340
5179 5251
5179 5339
5179 5340
5180 5181
5180 5252
5180 5341
5180 5342
5181 5253
5181 5341
5181 5342
5182 5183
5182 5253
5182 5343
5182 5344
5183 5254
5183 5343
5183 5344
5184 5185
5184 5254
5184 5345
5184 5346
5185 5255
5185 5345
5185 5346
5186 5187
5186 5256
5186 5347
5186 5348
5187 5257
5187 5347
5187 5348
5188 5189
5188 5257
5188 5349
5188 5350
5189 5258
5189 5349
5189 5350
5190 5191
5190 5258
5190 5351
5190 5352
5191 5259
5191 5351
5191 5352
5192 5193
5192 5260
5192 5353
5192 5354
5193 5261
5193 5353
5193 5354
5194 5195
5194 5261
5194 5355
5194 5356
5195 5262
5195 5355
5195 5356
5196 5197
5196 5262
5196 5357
5196 5358
5197 5263
5197 5357
5197 5358
5198 5199
5198 5264
5198 5359
5198 5360
5199 5265
5199 5359
5199 5360
5200 5201
5200 5265
5201 5266
5202 5267
5203 5204
5203 5268
5204 5269
5205 5270
5205 5271
5206 5272
5206 5273
5207 5208
5207 5274
5208 5275
5209 5276
5209 5277
5210 5278
5210 5279
5211 5212
5211 5280
5212 5281
5213 5282
5213 5283
5214 5284
5214 5285
5215 5216
5215 5286
5216 5287
5217 5288
5217 5289
5218 5290
5218 5291
5219 5220
5219 5292
5220 5293
5221 5294
5221 5295
5222 5296
5222 5297
5223 5224
5223 5298
5224 5299
5225 5300
5225 5301
5226 5302
5226 5303
5227 5228
5227 5304
5228 5305
5229 5306
5229 5307
5230 5308
5230 5309
5231 5232
5231 5310
5232 5311
5233 5312
5233 5313
5234 5314
5234 5315
5235 5236
5235 5316
5236 5317
5237 5318
5237 5319
5238 5320
5238 5321
5239 5240
5239 5322
5240 5323
5241 5324
5241 5325
5242 5326
5242 5327
5243 5244
5243 5328
5244 5329
5245 5330
5245 5331
5246 5332
5246 5333
5247 5248
5247 5334
5248 5335
5249 5336
5249 5337
5250 5338
5250 5339
5251 5252
5251 5340
5252 5341
5253 5342
5253 5343
5254 5344
5254 5345
5255 5256
5255 5346
5256 5347
5257 5348
5257 5349
5258 5350
5258 5351
5259 5260
5259 5352
5260 5353
5261 5354
5261 5355
5262 5356
5262 5357
5263 5264
5263 5358
5264 5359
5265 5360
5267 5268
5267 5361
5268 5361
5269 5270
5269 5362
5270 5362
5271 5272
5271 5363
5272 5363
5273 5274
5273 5364
5274 5364
5275 5276
5275 5365
5276 5365
5277 5278
5277 5366
5278 5366
5279 5280
5279 5367
5280 5367
5281 5282
5281 5368
5282 5368
5283 5284
5283 5369
5284 5369
5285 5286
5285 5370
5286 5370
5287 5288
5287 5371
5288 5371
5289 5290
5289 5372
5290 5372
5291 5292
5291 5373
5292 5373
5293 5294
5293 5374
5294 5374
5295 5296
5295 5375
5296 5375
5297 5298
5297 5376
5298 5376
5299 5300
5299 5377
5300 5377
5301 5302
5301 5378
5302 5378
5303 5304
5303 5379
5304 5379
5305 5306
5305 5380
5306 5380
5307 5308
5307 5381
5308 5381
5309 5310
5309 5382
5310 5382
5311 5312
5311 5383
5312 5383
5313 5314
5313 5384
5314 5384
5315 5316
5315 5385
5316 5385
5317 5318
5317 5386
5318 5386
5319 5320
5319 5387
5320 5387
5321 5322
5321 5388
5322 5388
5323 5324
5323 5389
5324 5389
5325 5326
5325 5390
5326 5390
5327 5328
5327 5391
5328 5391
5329 5330
5329 5392
5330 5392
5331 5332
5331 5393
5332 5393
5333 5334
5333 5394
5334 5394
5335 5336
5335 5395
5336 5395
5337 5338
5337 5396
5338 5396
5339 5340
5339 5397
5340 5397
5341 5342
5341 5398
5342 5398
5343 5344
5343 5399
5344 5399
5345 5346
5345 5400
5346 5400
5347 5348
5347 5401
5348 5401
5349 5350
5349 5402
5350 5402
5351 5352
5351 5403
5352 5403
5353 5354
5353 5404
5354 5404
5355 5356
5355 5405
5356 5405
5357 5358
5357 5406
5358 5406
5359 5360
5359 5407
5360 5407
5361 5408
5361 5409
5362 5473
5362 5474
5363 5475
5364 5412
5364 5413
5365 5476
5365 5477
5366 5478
5367 5416
5367 5417
5368 5479
5368 5480
5369 5481
5370 5420
5370 5421
5371 5482
5371 5483
5372 5484
5373 5424
5373 5425
5374 5485
5374 5486
5375 5487
5376 5428
5376 5429
5377 5488
5377 5489
5378 5490
5379 5432
5379 5433
5380 5491
5380 5492
5381 5493
5382 5436
5382 5437
5383 5494
5383 5495
5384 5496
5385 5440
5385 5441
5386 5497
5386 5498
5387 5499
5388 5444
5388 5445
5389 5500
5389 5501
5390 5502
5391 5448
5391 5449
5392 5503
5392 5504
5393 5505
5394 5452
5394 5453
5395 5506
5395 5507
5396 5508
5397 5456
5397 5457
5398 5509
5398 5510
5399 5511
5400 5460
5400 5461
5401 5512
5401 5513
5402 5514
5403 5464
5403 5465
5404 5515
5404 5516
5405 5517
5406 5468
5406 5469
5407 5518
5407 5519
5408 5409
5408 5472
5408 5520
5408 5521
5409 5410
5409 5520
5409 5521
5410 5473
5410 5521
5410 5522
5411 5474
5411 5523
5411 5524
5412 5413
5412 5475
5412 5525
5412 5526
5413 5414
5413 5525
5413 5526
5414 5476
5414 5526
5414 5527
5415 5477
5415 5528
5415 5529
5416 5417
5416 5478
5416 5530
5416 5531
5417 5418
5417 5530
5417 5531
5418 5479
5418 5531
5418 5532
5419 5480
5419 5533
5419 5534
5420 5421
5420 5481
5420 5535
5420 5536
5421 5422
5421 5535
5421 5536
5422 5482
5422 5536
5422 5537
5423 5483
5423 5538
5423 5539
5424 5425
5424 5484
5424 5540
5424 5541
5425 5426
5425 5540
5425 5541
5426 5485
5426 5541
5426 5542
5427 5486
5427 5543
5427 5544
5428 5429
5428 5487
5428 5545
5428 5546
5429 5430
5429 5545
5429 5546
5430 5488
5430 5546
5430 5547
5431 5489
5431 5548
5431 5549
5432 5433
5432 5490
5432 5550
5432 5551
5433 5434
5433 5550
5433 5551
5434 5491
5434 5551
5434 5552
5435 5492
5435 5553
5435 5554
5436 5437
5436 5493
5436 5555
5436 5556
5437 5438
5437 5555
5437 5556
5438 5494
5438 5556
5438 5557
5439 5495
5439 5558
5439 5559
5440 5441
5440 5496
5440 5560
5440 5561
5441 5442
5441 5560
5441 5561
5442 5497
5442 5561
5442 5562
5443 5498
5443 5563
5443 5564
5444 5445
5444 5499
5444 5565
5444 5566
5445 5446
5445 5565
5445 5566
5446 5500
5446 5566
5446 5567
5447 5501
5447 5568
5447 5569
5448 5449
5448 5502
5448 5570
5448 5571
5449 5450
5449 5570
5449 5571
5450 5503
5450 5571
5450 5572
5451 5504
5451 5573
5451 5574
5452 5453
5452 5505
5452 5575
5452 5576
5453 5454
5453 5575
5453 5576
5454 5506
5454 5576
5454 5577
5455 5507
5455 5578
5455 5579
5456 5457
5456 5508
5456 5580
5456 5581
5457 5458
5457 5580
5457 5581
5458 5509
5458 5581
5458 5582
5459 5510
5459 5583
5459 5584
5460 5461
5460 5511
5460 5585
5460 5586
5461 5462
5461 5585
5461 5586
5462 5512
5462 5586
5462 5587
5463 5513
5463 5588
5463 5589
5464 5465
5464 5514
5464 5590
5464 5591
5465 5466
5465 5590
5465 5591
5466 5515
5466 5591
5466 5592
5467 5516
5467 5593
5467 5594
5468 5469
5468 5517
5468 5595
5468 5596
5469 5470
5469 5595
5469 5596
5470 5518
5470 5596
5470 5597
5471 5519
5471 5598
5471 5599
5472 5520
5473 5474
5473 5522
5473 5600
5473 5601
5474 5523
5474 5600
5474 5601
5475 5525
5476 5477
5476 5527
5476 5602
5476 5603
5477 5528
5477 5602
5477 5603
5478 5530
5479 5480
5479 5532
5479 5604
5479 5605
5480 5533
5480 5604
5480 5605
5481 5535
5482 5483
5482 5537
5482 5606
5482 5607
5483 5538
5483 5606
5483 5607
5484 5540
5485 5486
5485 5542
5485 5608
5485 5609
5486 5543
5486 5608
5486 5609
5487 5545
5488 5489
5488 5547
5488 5610
5488 5611
5489 5548
5489 5610
5489 5611
5490 5550
5491 5492
5491 5552
5491 5612
5491 5613
5492 5553
5492 5612
5492 5613
5493 5555
5494 5495
5494 5557
5494 5614
5494 5615
5495 5558
5495 5614
5495 5615
5496 5560
5497 5498
5497 5562
5497 5616
5497 5617
5498 5563
5498 5616
5498 5617
5499 5565
5500 5501
5500 5567
5500 5618
5500 5619
5501 5568
5501 5618
5501 5619
5502 5570
5503 5504
5503 5572
5503 5620
5503 5621
5504 5573
5504 5620
5504 5621
5505 5575
5506 5507
5506 5577
5506 5622
5506 5623
5507 5578
5507 5622
5507 5623
5508 5580
5509 5510
5509 5582
5509 5624
5509 5625
5510 5583
5510 5624
5510 5625
5511 5585
5512 5513
5512 5587
5512 5626
5512 5627
5513 5588
5513 5626
5513 5627
5514 5590
5515 5516
5515 5592
5515 5628
5515 5629
5516 5593
5516 5628
5516 5629
5517 5595
5518 5519
5518 5597
5518 5630
5518 5631
5519 5598
5519 5630
5519 5631
5520 5521
5520 5632
5521 5632
5522 5600
5522 5633
5523 5601
5523 5634
5524 5635
5525 5526
5525 5636
5526 5636
5527 5602
5527 5637
5528 5603
5528 5638
5529 5639
5530 5531
5530 5640
5531 5640
5532 5604
5532 5641
5533 5605
5533 5642
5534 5643
5535 5536
5535 5644
5536 5644
5537 5606
5537 5645
5538 5607
5538 5646
5539 5647
5540 5541
5540 5648
5541 5648
5542 5608
5542 5649
5543 5609
5543 5650
5544 5651
5545 5546
5545 5652
5546 5652
5547 5610
5547 5653
5548 5611
5548 5654
5549 5655
5550 5551
5550 5656
5551 5656
5552 5612
5552 5657
5553 5613
5553 5658
5554 5659
5555 5556
5555 5660
5556 5660
5557 5614
5557 5661
5558 5615
5558 5662
5559 5663
5560 5561
5560 5664
5561 5664
5562 5616
5562 5665
5563 5617
5563 5666
5564 5667
5565 5566
5565 5668
5566 5668
5567 5618
5567 5669
5568 5619
5568 5670
5569 5671
5570 5571
5570 5672
5571 5672
5572 5620
5572 5673
5573 5621
5573 5674
5574 5675
5575 5576
5575 5676
5576 5676
5577 5622
5577 5677
5578 5623
5578 5678
5579 5679
5580 5581
5580 5680
5581 5680
5582 5624
5582 5681
5583 5625
5583 5682
5584 5683
5585 5586
5585 5684
5586 5684
5587 5626
5587 5685
5588 5627
5588 5686
5589 5687
5590 5591
5590 5688
5591 5688
5592 5628
5592 5689
5593 5629
5593 5690
5594 5691
5595 5596
5595 5692
5596 5692
5597 5630
5597 5693
5598 5631
5598 5694
5599 5695
5600 5601
5600 5633
5601 5634
5602 5603
5602 5637
5603 5638
5604 5605
5604 5641
5605 5642
5606 5607
5606 5645
5607 5646
5608 5609
5608 5649
5609 5650
5610 5611
5610 5653
5611 5654
5612 5613
5612 5657
5613 5658
5614 5615
5614 5661
5615 5662
5616 5617
5616 5665
5617 5666
5618 5619
5618 5669
5619 5670
5620 5621
5620 5673
5621 5674
5622 5623
5622 5677
5623 5678
5624 5625
5624 5681
5625 5682
5626 5627
5626 5685
5627 5686
5628 5629
5628 5689
5629 5690
5630 5631
5630 5693
5631 5694
5632 5696
5632 5697
5633 5697
5634 5698
5634 5699
5635 5700
5635 5701
5636 5702
5636 5703
5637 5703
5638 5704
5638 5705
5639 5706
5639 5707
5640 5708
5640 5709
5641 5709
5642 5710
5642 5711
5643 5712
5643 5713
5644 5714
5644 5715
5645 5715
5646 5716
5646 5717
5647 5718
5647 5719
5648 5720
5648 5721
5649 5721
5650 5722
5650 5723
5651 5724
5651 5725
5652 5726
5652 5727
5653 5727
5654 5728
5654 5729
5655 5730
5655 5731
5656 5732
5656 5733
5657 5733
5658 5734
5658 5735
5659 5736
5659 5737
5660 5738
5660 5739
5661 5739
5662 5740
5662 5741
5663 5742
5663 5743
5664 5744
5664 5745
5665 5745
5666 5746
5666 5747
5667 5748
5667 5749
5668 5750
5668 5751
5669 5751
5670 5752
5670 5753
5671 5754
5671 5755
5672 5756
5672 5757
5673 5757
5674 5758
5674 5759
5675 5760
5675 5761
5676 5762
5676 5763
5677 5763
5678 5764
5678 5765
5679 5766
5679 5767
5680 5768
5680 5769
5681 5769
5682 5770
5682 5771
5683 5772
5683 5773
5684 5774
5684 5775
5685 5775
5686 5776
5686 5777
5687 5778
5687 5779
5688 5780
5688 5781
5689 5781
5690 5782
5690 5783
5691 5784
5691 5785
5692 5786
5692 5787
5693 5787
5694 5788
5694 5789
5695 5790
5695 5791
5696 5697
5696 5792
5696 5857
5696 5858
5697 5793
5697 5857
5697 5858
5698 5699
5698 5794
5698 5859
5698 5860
5699 5795
5699 5859
5699 5860
5700 5701
5700 5795
5700 5861
5700 5862
5701 5796
5701 5861
5701 5862
5702 5703
5702 5796
5702 5863
5702 5864
5703 5797
5703 5863
5703 5864
5704 5705
5704 5798
5704 5865
5704 5866
5705 5799
5705 5865
5705 5866
5706 5707
5706 5799
5706 5867
5706 5868
5707 5800
5707 5867
5707 5868
5708 5709
5708 5800
5708 5869
5708 5870
5709 5801
5709 5869
5709 5870
5710 5711
5710 5802
5710 5871
5710 5872
5711 5803
5711 5871
5711 5872
5712 5713
5712 5803
5712 5873
5712 5874
5713 5804
5713 5873
5713 5874
5714 5715
5714 5804
5714 5875
5714 5876
5715 5805
5715 5875
5715 5876
5716 5717
5716 5806
5716 5877
5716 5878
5717 5807
5717 5877
5717 5878
5718 5719
5718 5807
5718 5879
5718 5880
5719 5808
5719 5879
5719 5880
5720 5721
5720 5808
5720 5881
5720 5882
5721 5809
5721 5881
5721 5882
5722 5723
5722 5810
5722 5883
5722 5884
5723 5811
5723 5883
5723 5884
5724 5725
5724 5811
5724 5885
5724 5886
5725 5812
5725 5885
5725 5886
5726 5727
5726 5812
5726 5887
5726 5888
5727 5813
5727 5887
5727 5888
5728 5729
5728 5814
5728 5889
5728 5890
5729 5815
5729 5889
5729 5890
5730 5731
5730 5815
5730 5891
5730 5892
5731 5816
5731 5891
5731 5892
5732 5733
5732 5816
5732 5893
5732 5894
5733 5817
5733 5893
5733 5894
5734 5735
5734 5818
5734 5895
5734 5896
5735 5819
5735 5895
5735 5896
5736 5737
5736 5819
5736 5897
5736 5898
5737 5820
5737 5897
5737 5898
5738 5739
5738 5820
5738 5899
5738 5900
5739 5821
5739 5899
5739 5900
5740 5741
5740 5822
5740 5901
5740 5902
5741 5823
5741 5901
5741 5902
5742 5743
5742 5823
5742 5903
5742 5904
5743 5824
5743 5903
5743 5904
5744 5745
5744 5824
5744 5905
5744 5906
5745 5825
5745 5905
5745 5906
5746 5747
5746 5826
5746 5907
5746 5908
5747 5827
5747 5907
5747 5908
5748 5749
5748 5827
5748 5909
5748 5910
5749 5828
5749 5909
5749 5910
5750 5751
5750 5828
5750 5911
5750 5912
5751 5829
5751 5911
5751 5912
5752 5753
5752 5830
5752 5913
5752 5914
5753 5831
5753 5913
5753 5914
5754 5755
5754 5831
5754 5915
5754 5916
5755 5832
5755 5915
5755 5916
5756 5757
5756 5832
5756 5917
5756 5918
5757 5833
5757 5917
5757 5918
5758 5759
5758 5834
5758 5919
5758 5920
5759 5835
5759 5919
5759 5920
5760 5761
5760 5835
5760 5921
5760 5922
5761 5836
5761 5921
5761 5922
5762 5763
5762 5836
5762 5923
5762 5924
5763 5837
5763 5923
5763 5924
5764 5765
5764 5838
5764 5925
5764 5926
5765 5839
5765 5925
5765 5926
5766 5767
5766 5839
5766 5927
5766 5928
5767 5840
5767 5927
5767 5928
5768 5769
5768 5840
5768 5929
5768 5930
5769 5841
5769 5929
5769 5930
5770 5771
5770 5842
5770 5931
5770 5932
5771 5843
5771 5931
5771 5932
5772 5773
5772 5843
5772 5933
5772 5934
5773 5844
5773 5933
5773 5934
5774 5775
5774 5844
5774 5935
5774 5936
5775 5845
5775 5935
5775 5936
5776 5777
5776 5846
5776 5937
5776 5938
5777 5847
5777 5937
5777 5938
5778 5779
5778 5847
5778 5939
5778 5940
5779 5848
5779 5939
5779 5940
5780 5781
5780 5848
5780 5941
5780 5942
5781 5849
5781 5941
5781 5942
5782 5783
5782 5850
5782 5943
5782 5944
5783 5851
5783 5943
5783 5944
5784 5785
5784 5851
5784 5945
5784 5946
5785 5852
5785 5945
5785 5946
5786 5787
5786 5852
5786 5947
5786 5948
5787 5853
5787 5947
5787 5948
5788 5789
5788 5854
5788 5949
5788 5950
5789 5855
5789 5949
5789 5950
5790 5791
5790 5855
5791 5856
5792 5857
5793 5794
5793 5858
5794 5859
5795 5860
5795 5861
5796 5862
5796 5863
5797 5798
5797 5864
5798 5865
5799 5866
5799 5867
5800 5868
5800 5869
5801 5802
5801 5870
5802 5871
5803 5872
5803 5873
5804 5874
5804 5875
5805 5806
5805 5876
5806 5877
5807 5878
5807 5879
5808 5880
5808 5881
5809 5810
5809 5882
5810 5883
5811 5884
5811 5885
5812 5886
5812 5887
5813 5814
5813 5888
5814 5889
5815 5890
5815 5891
5816 5892
5816 5893
5817 5818
5817 5894
5818 5895
5819 5896
5819 5897
5820 5898
5820 5899
5821 5822
5821 5900
5822 5901
5823 5902
5823 5903
5824 5904
5824 5905
5825 5826
5825 5906
5826 5907
5827 5908
5827 5909
5828 5910
5828 5911
5829 5830
5829 5912
5830 5913
5831 5914
5831 5915
5832 5916
5832 5917
5833 5834
5833 5918
5834 5919
5835 5920
5835 5921
5836 5922
5836 5923
5837 5838
5837 5924
5838 5925
5839 5926
5839 5927
5840 5928
5840 5929
5841 5842
5841 5930
5842 5931
5843 5932
5843 5933
5844 5934
5844 5935
5845 5846
5845 5936
5846 5937
5847 5938
5847 5939
5848 5940
5848 5941
5849 5850
5849 5942
5850 5943
5851 5944
5851 5945
5852 5946
5852 5947
5853 5854
5853 5948
5854 5949
5855 5950
5857 5858
5857 5951
5858 5951
5859 5860
5859 5952
5860 5952
5861 5862
5861 5953
5862 5953
5863 5864
5863 5954
5864 5954
5865 5866
5865 5955
5866 5955
5867 5868
5867 5956
5868 5956
5869 5870
5869 5957
5870 5957
5871 5872
5871 5958
5872 5958
5873 5874
5873 5959
5874 5959
5875 5876
5875 5960
5876 5960
5877 5878
5877 5961
5878 5961
5879 5880
5879 5962
5880 5962
5881 5882
5881 5963
5882 5963
5883 5884
5883 5964
5884 5964
5885 5886
5885 5965
5886 5965
5887 5888
5887 5966
5888 5966
5889 5890
5889 5967
5890 5967
5891 5892
5891 5968
5892 5968
5893 5894
5893 5969
5894 5969
5895 5896
5895 5970
5896 5970
5897 5898
5897 5971
5898 5971
5899 5900
5899 5972
5900 5972
5901 5902
5901 5973
5902 5973
5903 5904
5903 5974
5904 5974
5905 5906
5905 5975
5906 5975
5907 5908
5907 5976
5908 5976
5909 5910
5909 5977
5910 5977
5911 5912
5911 5978
5912 5978
5913 5914
5913 5979
5914 5979
5915 5916
5915 5980
5916 5980
5917 5918
5917 5981
5918 5981
5919 5920
5919 5982
5920 5982
5921 5922
5921 5983
5922 5983
5923 5924
5923 5984
5924 5984
5925 5926
5925 5985
5926 5985
5927 5928
5927 5986
5928 5986
5929 5930
5929 5987
5930 5987
5931 5932
5931 5988
5932 5988
5933 5934
5933 5989
5934 5989
5935 5936
5935 5990
5936 5990
5937 5938
5937 5991
5938 5991
5939 5940
5939 5992
5940 5992
5941 5942
5941 5993
5942 5993
5943 5944
5943 5994
5944 5994
5945 5946
5945 5995
5946 5995
5947 5948
5947 5996
5948 5996
5949 5950
5949 5997
5950 5997
5951 5998
5951 5999
5952 6063
5952 6064
5953 6065
5954 6002
5954 6003
5955 6066
5955 6067
5956 6068
5957 6006
5957 6007
5958 6069
5958 6070
5959 6071
5960 6010
5960 6011
5961 6072
5961 6073
5962 6074
5963 6014
5963 6015
5964 6075
5964 6076
5965 6077
5966 6018
5966 6019
5967 6078
5967 6079
5968 6080
5969 6022
5969 6023
5970 6081
5970 6082
5971 6083
5972 6026
5972 6027
5973 6084
5973 6085
5974 6086
5975 6030
5975 6031
5976 6087
5976 6088
5977 6089
5978 6034
5978 6035
5979 6090
5979 6091
5980 6092
5981 6038
5981 6039
5982 6093
5982 6094
5983 6095
5984 6042
5984 6043
5985 6096
5985 6097
5986 6098
5987 6046
5987 6047
5988 6099
5988 6100
5989 6101
5990 6050
5990 6051
5991 6102
5991 6103
5992 6104
5993 6054
5993 6055
5994 6105
5994 6106
5995 6107
5996 6058
5996 6059
5997 6108
5997 6109
5998 5999
5998 6062
5998 6110
5998 6111
5999 6000
5999 6110
5999 6111
6000 6063
6000 6111
6000 6112
6001 6064
6001 6113
6001 6114
6002 6003
6002 6065
6002 6115
6002 6116
6003 6004
6003 6115
6003 6116
6004 6066
6004 6116
6004 6117
6005 6067
6005 6118
6005 6119
6006 6007
6006 6068
6006 6120
6006 6121
6007 6008
6007 6120
6007 6121
6008 6069
6008 6121
6008 6122
6009 6070
6009 6123
6009 6124
6010 6011
6010 6071
6010 6125
6010 6126
6011 6012
6011 6125
6011 6126
6012 6072
6012 6126
6012 6127
6013 6073
6013 6128
6013 6129
6014 6015
6014 6074
6014 6130
6014 6131
6015 6016
6015 6130
6015 6131
6016 6075
6016 6131
6016 6132
6017 6076
6017 6133
6017 6134
6018 6019
6018 6077
6018 6135
6018 6136
6019 6020
6019 6135
6019 6136
6020 6078
6020 6136
6020 6137
6021 6079
6021 6138
6021 6139
6022 6023
6022 6080
6022 6140
6022 6141
6023 6024
6023 6140
6023 6141
6024 6081
6024 6141
6024 6142
6025 6082
6025 6143
6025 6144
6026 6027
6026 6083
6026 6145
6026 6146
6027 6028
6027 6145
6027 6146
6028 6084
6028 6146
6028 6147
6029 6085
6029 6148
6029 6149
6030 6031
6030 6086
6030 6150
6030 6151
6031 6032
6031 6150
6031 6151
6032 6087
6032 6151
6032 6152
6033 6088
6033 6153
6033 6154
6034 6035
6034 6089
6034 6155
6034 6156
6035 6036
6035 6155
6035 6156
6036 6090
6036 6156
6036 6157
6037 6091
6037 6158
6037 6159
6038 6039
6038 6092
6038 6160
6038 6161
6039 6040
6039 6160
6039 6161
6040 6093
6040 6161
6040 6162
6041 6094
6041 6163
6041 6164
6042 6043
6042 6095
6042 6165
6042 6166
6043 6044
6043 6165
6043 6166
6044 6096
6044 6166
6044 6167
6045 6097
6045 6168
6045 6169
6046 6047
6046 6098
6046 6170
6046 6171
6047 6048
6047 6170
6047 6171
6048 6099
6048 6171
6048 6172
6049 6100
6049 6173
6049 6174
6050 6051
6050 6101
6050 6175
6050 6176
6051 6052
6051 6175
6051 6176
6052 6102
6052 6176
6052 6177
6053 6103
6053 6178
6053 6179
6054 6055
6054 6104
6054 6180
6054 6181
6055 6056
6055 6180
6055 6181
6056 6105
6056 6181
6056 6182
6057 6106
6057 6183
6057 6184
6058 6059
6058 6107
6058 6185
6058 6186
6059 6060
6059 6185
6059 6186
6060 6108
6060 6186
6060 6187
6061 6109
6061 6188
6061 6189
6062 6110
6063 6064
6063 6112
6063 6190
6063 6191
6064 6113
6064 6190
6064 6191
6065 6115
6066 6067
6066 6117
6066 6192
6066 6193
6067 6118
6067 6192
6067 6193
6068 6120
6069 6070
6069 6122
6069 6194
6069 6195
6070 6123
6070 6194
6070 6195
6071 6125
6072 6073
6072 6127
6072 6196
6072 6197
6073 6128
6073 6196
6073 6197
6074 6130
6075 6076
6075 6132
6075 6198
6075 6199
6076 6133
6076 6198
6076 6199
6077 6135
6078 6079
6078 6137
6078 6200
6078 6201
6079 6138
6079 6200
6079 6201
6080 6140
6081 6082
6081 6142
6081 6202
6081 6203
6082 6143
6082 6202
6082 6203
6083 6145
6084 6085
6084 6147
6084 6204
6084 6205
6085 6148
6085 6204
6085 6205
6086 6150
6087 6088
6087 6152
6087 6206
6087 6207
6088 6153
6088 6206
6088 6207
6089 6155
6090 6091
6090 6157
6090 6208
6090 6209
6091 6158
6091 6208
6091 6209
6092 6160
6093 6094
6093 6162
6093 6210
6093 6211
6094 6163
6094 6210
6094 6211
6095 6165
6096 6097
6096 6167
6096 6212
6096 6213
6097 6168
6097 6212
6097 6213
6098 6170
6099 6100
6099 6172
6099 6214
6099 6215
6100 6173
6100 6214
6100 6215
6101 6175
6102 6103
6102 6177
6102 6216
6102 6217
6103 6178
6103 6216
6103 6217
6104 6180
6105 6106
6105 6182
6105 6218
6105 6219
6106 6183
6106 6218
6106 6219
6107 6185
6108 6109
6108 6187
6108 6220
6108 6221
6109 6188
6109 6220
6109 6221
6110 6111
6110 6222
6111 6222
6112 6190
6112 6223
6113 6191
6113 6224
6114 6225
6115 6116
6115 6226
6116 6226
6117 6192
6117 6227
6118 6193
6118 6228
6119 6229
6120 6121
6120 6230
6121 6230
6122 6194
6122 6231
6123 6195
6123 6232
6124 6233
6125 6126
6125 6234
6126 6234
6127 6196
6127 6235
6128 6197
6128 6236
6129 6237
6130 6131
6130 6238
6131 6238
6132 6198
6132 6239
6133 6199
6133 6240
6134 6241
6135 6136
6135 6242
6136 6242
6137 6200
6137 6243
6138 6201
6138 6244
6139 6245
6140 6141
6140 6246
6141 6246
6142 6202
6142 6247
6143 6203
6143 6248
6144 6249
6145 6146
6145 6250
6146 6250
6147 6204
6147 6251
6148 6205
6148 6252
6149 6253
6150 6151
6150 6254
6151 6254
6152 6206
6152 6255
6153 6207
6153 6256
6154 6257
6155 6156
6155 6258
6156 6258
6157 6208
6157 6259
6158 6209
6158 6260
6159 6261
6160 6161
6160 6262
6161 6262
6162 6210
6162 6263
6163 6211
6163 6264
6164 6265
6165 6166
6165 6266
6166 6266
6167 6212
6167 6267
6168 6213
6168 6268
6169 6269
6170 6171
6170 6270
6171 6270
6172 6214
6172 6271
6173 6215
6173 6272
6174 6273
6175 6176
6175 6274
6176 6274
6177 6216
6177 6275
6178 6217
6178 6276
6179 6277
6180 6181
6180 6278
6181 6278
6182 6218
6182 6279
6183 6219
6183 6280
6184 6281
6185 6186
6185 6282
6186 6282
6187 6220
6187 6283
6188 6221
6188 6284
6189 6285
6190 6191
6190 6223
6191 6224
6192 6193
6192 6227
6193 6228
6194 6195
6194 6231
6195 6232
6196 6197
6196 6235
6197 6236
6198 6199
6198 6239
6199 6240
6200 6201
6200 6243
6201 6244
6202 6203
6202 6247
6203 6248
6204 6205
6204 6251
6205 6252
6206 6207
6206 6255
6207 6256
6208 6209
6208 6259
6209 6260
6210 6211
6210 6263
6211 6264
6212 6213
6212 6267
6213 6268
6214 6215
6214 6271
6215 6272
6216 6217
6216 6275
6217 6276
6218 6219
6218 6279
6219 6280
6220 6221
6220 6283
6221 6284
6222 6286
6222 6287
6223 6287
6224 6288
6224 6289
6225 6290
6225 6291
6226 6292
6226 6293
6227 6293
6228 6294
6228 6295
6229 6296
6229 6297
6230 6298
6230 6299
6231 6299
6232 6300
6232 6301
6233 6302
6233 6303
6234 6304
6234 6305
6235 6305
6236 6306
6236 6307
6237 6308
6237 6309
6238 6310
6238 6311
6239 6311
6240 6312
6240 6313
6241 6314
6241 6315
6242 6316
6242 6317
6243 6317
6244 6318
6244 6319
6245 6320
6245 6321
6246 6322
6246 6323
6247 6323
6248 6324
6248 6325
6249 6326
6249 6327
6250 6328
6250 6329
6251 6329
6252 6330
6252 6331
6253 6332
6253 6333
6254 6334
6254 6335
6255 6335
6256 6336
6256 6337
6257 6338
6257 6339
6258 6340
6258 6341
6259 6341
6260 6342
6260 6343
6261 6344
6261 6345
6262 6346
6262 6347
6263 6347
6264 6348
6264 6349
6265 6350
6265 6351
6266 6352
6266 6353
6267 6353
6268 6354
6268 6355
6269 6356
6269 6357
6270 6358
6270 6359
6271 6359
6272 6360
6272 6361
6273 6362
6273 6363
6274 6364
6274 6365
6275 6365
6276 6366
6276 6367
6277 6368
6277 6369
6278 6370
6278 6371
6279 6371
6280 6372
6280 6373
6281 6374
6281 6375
6282 6376
6282 6377
6283 6377
6284 6378
6284 6379
6285 6380
6285 6381
6286 6287
6286 6382
6286 6447
6286 6448
6287 6383
6287 6447
6287 6448
6288 6289
6288 6384
6288 6449
6288 6450
6289 6385
6289 6449
6289 6450
6290 6291
6290 6385
6290 6451
6290 6452
6291 6386
6291 6451
6291 6452
6292 6293
6292 6386
6292 6453
6292 6454
6293 6387
6293 6453
6293 6454
6294 6295
6294 6388
6294 6455
6294 6456
6295 6389
6295 6455
6295 6456
6296 6297
6296 6389
6296 6457
6296 6458
6297 6390
6297 6457
6297 6458
6298 6299
6298 6390
6298 6459
6298 6460
6299 6391
6299 6459
6299 6460
6300 6301
6300 6392
6300 6461
6300 6462
6301 6393
6301 6461
6301 6462
6302 6303
6302 6393
6302 6463
6302 6464
6303 6394
6303 6463
6303 6464
6304 6305
6304 6394
6304 6465
6304 6466
6305 6395
6305 6465
6305 6466
6306 6307
6306 6396
6306 6467
6306 6468
6307 6397
6307 6467
6307 6468
6308 6309
6308 6397
6308 6469
6308 6470
6309 6398
6309 6469
6309 6470
6310 6311
6310 6398
6310 6471
6310 6472
6311 6399
6311 6471
6311 6472
6312 6313
6312 6400
6312 6473
6312 6474
6313 6401
6313 6473
6313 6474
6314 6315
6314 6401
6314 6475
6314 6476
6315 6402
6315 6475
6315 6476
6316 6317
6316 6402
6316 6477
6316 6478
6317 6403
6317 6477
6317 6478
6318 6319
6318 6404
6318 6479
6318 6480
6319 6405
6319 6479
6319 6480
6320 6321
6320 6405
6320 6481
6320 6482
6321 6406
6321 6481
6321 6482
6322 6323
6322 6406
6322 6483
6322 6484
6323 6407
6323 6483
6323 6484
6324 6325
6324 6408
6324 6485
6324 6486
6325 6409
6325 6485
6325 6486
6326 6327
6326 6409
6326 6487
6326 6488
6327 6410
6327 6487
6327 6488
6328 6329
6328 6410
6328 6489
6328 6490
6329 6411
6329 6489
6329 6490
6330 6331
6330 6412
6330 6491
6330 6492
6331 6413
6331 6491
6331 6492
6332 6333
6332 6413
6332 6493
6332 6494
6333 6414
6333 6493
6333 6494
6334 6335
6334 6414
6334 6495
6334 6496
6335 6415
6335 6495
6335 6496
6336 6337
6336 6416
6336 6497
6336 6498
6337 6417
6337 6497
6337 6498
6338 6339
6338 6417
6338 6499
6338 6500
6339 6418
6339 6499
6339 6500
6340 6341
6340 6418
6340 6501
6340 6502
6341 6419
6341 6501
6341 6502
6342 6343
6342 6420
6342 6503
6342 6504
6343 6421
6343 6503
6343 6504
6344 6345
6344 6421
6344 6505
6344 6506
6345 6422
6345 6505
6345 6506
6346 6347
6346 6422
6346 6507
6346 6508
6347 6423
6347 6507
6347 6508
6348 6349
6348 6424
6348 6509
6348 6510
6349 6425
6349 6509
6349 6510
6350 6351
6350 6425
6350 6511
6350 6512
6351 6426
6351 6511
6351 6512
6352 6353
6352 6426
6352 6513
6352 6514
6353 6427
6353 6513
6353 6514
6354 6355
6354 6428
6354 6515
6354 6516
6355 6429
6355 6515
6355 6516
6356 6357
6356 6429
6356 6517
6356 6518
6357 6430
6357 6517
6357 6518
6358 6359
6358 6430
6358 6519
6358 6520
6359 6431
6359 6519
6359 6520
6360 6361
6360 6432
6360 6521
6360 6522
6361 6433
6361 6521
6361 6522
6362 6363
6362 6433
6362 6523
6362 6524
6363 6434
6363 6523
6363 6524
6364 6365
6364 6434
6364 6525
6364 6526
6365 6435
6365 6525
6365 6526
6366 6367
6366 6436
6366 6527
6366 6528
6367 6437
6367 6527
6367 6528
6368 6369
6368 6437
6368 6529
6368 6530
6369 6438
6369 6529
6369 6530
6370 6371
6370 6438
6370 6531
6370 6532
6371 6439
6371 6531
6371 6532
6372 6373
6372 6440
6372 6533
6372 6534
6373 6441
6373 6533
6373 6534
6374 6375
6374 6441
6374 6535
6374 6536
6375 6442
6375 6535
6375 6536
6376 6377
6376 6442
6376 6537
6376 6538
6377 6443
6377 6537
6377 6538
6378 6379
6378 6444
6378 6539
6378 6540
6379 6445
6379 6539
6379 6540
6380 6381
6380 6445
6380 6541
6380 6542
6381 6446
6381 6541
6381 6542
6382 6447
6383 6384
6383 6448
6384 6449
6385 6450
6385 6451
6386 6452
6386 6453
6387 6388
6387 6454
6388 6455
6389 6456
6389 6457
6390 6458
6390 6459
6391 6392
6391 6460
6392 6461
6393 6462
6393 6463
6394 6464
6394 6465
6395 6396
6395 6466
6396 6467
6397 6468
6397 6469
6398 6470
6398 6471
6399 6400
6399 6472
6400 6473
6401 6474
6401 6475
6402 6476
6402 6477
6403 6404
6403 6478
6404 6479
6405 6480
6405 6481
6406 6482
6406 6483
6407 6408
6407 6484
6408 6485
6409 6486
6409 6487
6410 6488
6410 6489
6411 6412
6411 6490
6412 6491
6413 6492
6413 6493
6414 6494
6414 6495
6415 6416
6415 6496
6416 6497
6417 6498
6417 6499
6418 6500
6418 6501
6419 6420
6419 6502
6420 6503
6421 6504
6421 6505
6422 6506
6422 6507
6423 6424
6423 6508
6424 6509
6425 6510
6425 6511
6426 6512
6426 6513
6427 6428
6427 6514
6428 6515
6429 6516
6429 6517
6430 6518
6430 6519
6431 6432
6431 6520
6432 6521
6433 6522
6433 6523
6434 6524
6434 6525
6435 6436
6435 6526
6436 6527
6437 6528
6437 6529
6438 6530
6438 6531
6439 6440
6439 6532
6440 6533
6441 6534
6441 6535
6442 6536
6442 6537
6443 6444
6443 6538
6444 6539
6445 6540
6445 6541
6446 6542
6447 6448
6447 6543
6448 6543
6449 6450
6449 6544
6450 6544
6451 6452
6451 6545
6452 6545
6453 6454
6453 6546
6454 6546
6455 6456
6455 6547
6456 6547
6457 6458
6457 6548
6458 6548
6459 6460
6459 6549
6460 6549
6461 6462
6461 6550
6462 6550
6463 6464
6463 6551
6464 6551
6465 6466
6465 6552
6466 6552
6467 6468
6467 6553
6468 6553
6469 6470
6469 6554
6470 6554
6471 6472
6471 6555
6472 6555
6473 6474
6473 6556
6474 6556
6475 6476
6475 6557
6476 6557
6477 6478
6477 6558
6478 6558
6479 6480
6479 6559
6480 6559
6481 6482
6481 6560
6482 6560
6483 6484
6483 6561
6484 6561
6485 6486
6485 6562
6486 6562
6487 6488
6487 6563
6488 6563
6489 6490
6489 6564
6490 6564
6491 6492
6491 6565
6492 6565
6493 6494
6493 6566
6494 6566
6495 6496
6495 6567
6496 6567
6497 6498
6497 6568
6498 6568
6499 6500
6499 6569
6500 6569
6501 6502
6501 6570
6502 6570
6503 6504
6503 6571
6504 6571
6505 6506
6505 6572
6506 6572
6507 6508
6507 6573
6508 6573
6509 6510
6509 6574
6510 6574
6511 6512
6511 6575
6512 6575
6513 6514
6513 6576
6514 6576
6515 6516
6515 6577
6516 6577
6517 6518
6517 6578
6518 6578
6519 6520
6519 6579
6520 6579
6521 6522
6521 6580
6522 6580
6523 6524
6523 6581
6524 6581
6525 6526
6525 6582
6526 6582
6527 6528
6527 6583
6528 6583
6529 6530
6529 6584
6530 6584
6531 6532
6531 6585
6532 6585
6533 6534
6533 6586
6534 6586
6535 6536
6535 6587
6536 6587
6537 6538
6537 6588
6538 6588
6539 6540
6539 6589
6540 6589
6541 6542
6543 6590
6543 6591
6544 6655
6544 6656
6545 6657
6546 6594
6546 6595
6547 6658
6547 6659
6548 6660
6549 6598
6549 6599
6550 6661
6550 6662
6551 6663
6552 6602
6552 6603
6553 6664
6553 6665
6554 6666
6555 6606
6555 6607
6556 6667
6556 6668
6557 6669
6558 6610
6558 6611
6559 6670
6559 6671
6560 6672
6561 6614
6561 6615
6562 6673
6562 6674
6563 6675
6564 6618
6564 6619
6565 6676
6565 6677
6566 6678
6567 6622
6567 6623
6568 6679
6568 6680
6569 6681
6570 6626
6570 6627
6571 6682
6571 6683
6572 6684
6573 6630
6573 6631
6574 6685
6574 6686
6575 6687
6576 6634
6576 6635
6577 6688
6577 6689
6578 6690
6579 6638
6579 6639
6580 6691
6580 6692
6581 6693
6582 6642
6582 6643
6583 6694
6583 6695
6584 6696
6585 6646
6585 6647
6586 6697
6586 6698
6587 6699
6588 6650
6588 6651
6589 6700
6589 6701
6590 6591
6590 6654
6590 6702
6590 6703
6591 6592
6591 6702
6591 6703
6592 6655
6592 6703
6592 6704
6593 6656
6593 6705
6593 6706
6594 6595
6594 6657
6594 6707
6594 6708
6595 6596
6595 6707
6595 6708
6596 6658
6596 6708
6596 6709
6597 6659
6597 6710
6597 6711
6598 6599
6598 6660
6598 6712
6598 6713
6599 6600
6599 6712
6599 6713
6600 6661
6600 6713
6600 6714
6601 6662
6601 6715
6601 6716
6602 6603
6602 6663
6602 6717
6602 6718
6603 6604
6603 6717
6603 6718
6604 6664
6604 6718
6604 6719
6605 6665
6605 6720
6605 6721
6606 6607
6606 6666
6606 6722
6606 6723
6607 6608
6607 6722
6607 6723
6608 6667
6608 6723
6608 6724
6609 6668
6609 6725
6609 6726
6610 6611
6610 6669
6610 6727
6610 6728
6611 6612
6611 6727
6611 6728
6612 6670
6612 6728
6612 6729
6613 6671
6613 6730
6613 6731
6614 6615
6614 6672
6614 6732
6614 6733
6615 6616
6615 6732
6615 6733
6616 6673
6616 6733
6616 6734
6617 6674
6617 6735
6617 6736
6618 6619
6618 6675
6618 6737
6618 6738
6619 6620
6619 6737
6619 6738
6620 6676
6620 6738
6620 6739
6621 6677
6621 6740
6621 6741
6622 6623
6622 6678
6622 6742
6622 6743
6623 6624
6623 6742
6623 6743
6624 6679
6624 6743
6624 6744
6625 6680
6625 6745
6625 6746
6626 6627
6626 6681
6626 6747
6626 6748
6627 6628
6627 6747
6627 6748
6628 6682
6628 6748
6628 6749
6629 6683
6629 6750
6629 6751
6630 6631
6630 6684
6630 6752
6630 6753
6631 6632
6631 6752
6631 6753
6632 6685
6632 6753
6632 6754
6633 6686
6633 6755
6633 6756
6634 6635
6634 6687
6634 6757
6634 6758
6635 6636
6635 6757
6635 6758
6636 6688
6636 6758
6636 6759
6637 6689
6637 6760
6637 6761
6638 6639
6638 6690
6638 6762
6638 6763
6639 6640
6639 6762
6639 6763
6640 6691
6640 6763
6640 6764
6641 6692
6641 6765
6641 6766
6642 6643
6642 6693
6642 6767
6642 6768
6643 6644
6643 6767
6643 6768
6644 6694
6644 6768
6644 6769
6645 6695
6645 6770
6645 6771
6646 6647
6646 6696
6646 6772
6646 6773
6647 6648
6647 6772
6647 6773
6648 6697
6648 6773
6648 6774
6649 6698
6649 6775
6649 6776
6650 6651
6650 6699
6650 6777
6650 6778
6651 6652
6651 6777
6651 6778
6652 6700
6652 6778
6652 6779
6653 6701
6653 6780
6653 6781
6654 6702
6655 6656
6655 6704
6655 6782
6655 6783
6656 6705
6656 6782
6656 6783
6657 6707
6658 6659
6658 6709
6658 6784
6658 6785
6659 6710
6659 6784
6659 6785
6660 6712
6661 6662
6661 6714
6661 6786
6661 6787
6662 6715
6662 6786
6662 6787
6663 6717
6664 6665
6664 6719
6664 6788
6664 6789
6665 6720
6665 6788
6665 6789
6666 6722
6667 6668
6667 6724
6667 6790
6667 6791
6668 6725
6668 6790
6668 6791
6669 6727
6670 6671
6670 6729
6670 6792
6670 6793
6671 6730
6671 6792
6671 6793
6672 6732
6673 6674
6673 6734
6673 6794
6673 6795
6674 6735
6674 6794
6674 6795
6675 6737
6676 6677
6676 6739
6676 6796
6676 6797
6677 6740
6677 6796
6677 6797
6678 6742
6679 6680
6679 6744
6679 6798
6679 6799
6680 6745
6680 6798
6680 6799
6681 6747
6682 6683
6682 6749
6682 6800
6682 6801
6683 6750
6683 6800
6683 6801
6684 6752
6685 6686
6685 6754
6685 6802
6685 6803
6686 6755
6686 6802
6686 6803
6687 6757
6688 6689
6688 6759
6688 6804
6688 6805
6689 6760
6689 6804
6689 6805
6690 6762
6691 6692
6691 6764
6691 6806
6691 6807
6692 6765
6692 6806
6692 6807
6693 6767
6694 6695
6694 6769
6694 6808
6694 6809
6695 6770
6695 6808
6695 6809
6696 6772
6697 6698
6697 6774
6697 6810
6697 6811
6698 6775
6698 6810
6698 6811
6699 6777
6700 6701
6700 6779
6700 6812
6700 6813
6701 6780
6701 6812
6701 6813
6702 6703
6702 6814
6703 6814
6704 6782
6704 6815
6705 6783
6705 6816
6706 6817
6707 6708
6707 6818
6708 6818
6709 6784
6709 6819
6710 6785
6710 6820
6711 6821
6712 6713
6712 6822
6713 6822
6714 6786
6714 6823
6715 6787
6715 6824
6716 6825
6717 6718
6717 6826
6718 6826
6719 6788
6719 6827
6720 6789
6720 6828
6721 6829
6722 6723
6722 6830
6723 6830
6724 6790
6724 6831
6725 6791
6725 6832
6726 6833
6727 6728
6727 6834
6728 6834
6729 6792
6729 6835
6730 6793
6730 6836
6731 6837
6732 6733
6732 6838
6733 6838
6734 6794
6734 6839
6735 6795
6735 6840
6736 6841
6737 6738
6737 6842
6738 6842
6739 6796
6739 6843
6740 6797
6740 6844
6741 6845
6742 6743
6742 6846
6743 6846
6744 6798
6744 6847
6745 6799
6745 6848
6746 6849
6747 6748
6747 6850
6748 6850
6749 6800
6749 6851
6750 6801
6750 6852
6751 6853
6752 6753
6752 6854
6753 6854
6754 6802
6754 6855
6755 6803
6755 6856
6756 6857
6757 6758
6757 6858
6758 6858
6759 6804
6759 6859
6760 6805
6760 6860
6761 6861
6762 6763
6762 6862
6763 6862
6764 6806
6764 6863
6765 6807
6765 6864
6766 6865
6767 6768
6767 6866
6768 6866
6769 6808
6769 6867
6770 6809
6770 6868
6771 6869
6772 6773
6772 6870
6773 6870
6774 6810
6774 6871
6775 6811
6775 6872
6776 6873
6777 6778
6777 6874
6778 6874
6779 6812
6779 6875
6780 6813
6780 6876
6781 6877
6782 6783
6782 6815
6783 6816
6784 6785
6784 6819
6785 6820
6786 6787
6786 6823
6787 6824
6788 6789
6788 6827
6789 6828
6790 6791
6790 6831
6791 6832
6792 6793
6792 6835
6793 6836
6794 6795
6794 6839
6795 6840
6796 6797
6796 6843
6797 6844
6798 6799
6798 6847
6799 6848
6800 6801
6800 6851
6801 6852
6802 6803
6802 6855
6803 6856
6804 6805
6804 6859
6805 6860
6806 6807
6806 6863
6807 6864
6808 6809
6808 6867
6809 6868
6810 6811
6810 6871
6811 6872
6812 6813
6812 6875
6813 6876
6814 6878
6814 6879
6815 6879
6816 6880
6816 6881
6817 6882
6817 6883
6818 6884
6818 6885
6819 6885
6820 6886
6820 6887
6821 6888
6821 6889
6822 6890
6822 6891
6823 6891
6824 6892
6824 6893
6825 6894
6825 6895
6826 6896
6826 6897
6827 6897
6828 6898
6828 6899
6829 6900
6829 6901
6830 6902
6830 6903
6831 6903
6832 6904
6832 6905
6833 6906
6833 6907
6834 6908
6834 6909
6835 6909
6836 6910
6836 6911
6837 6912
6837 6913
6838 6914
6838 6915
6839 6915
6840 6916
6840 6917
6841 6918
6841 6919
6842 6920
6842 6921
6843 6921
6844 6922
6844 6923
6845 6924
6845 6925
6846 6926
6846 6927
6847 6927
6848 6928
6848 6929
6849 6930
6849 6931
6850 6932
6850 6933
6851 6933
6852 6934
6852 6935
6853 6936
6853 6937
6854 6938
6854 6939
6855 6939
6856 6940
6856 6941
6857 6942
6857 6943
6858 6944
6858 6945
6859 6945
6860 6946
6860 6947
6861 6948
6861 6949
6862 6950
6862 6951
6863 6951
6864 6952
6864 6953
6865 6954
6865 6955
6866 6956
6866 6957
6867 6957
6868 6958
6868 6959
6869 6960
6869 6961
6870 6962
6870 6963
6871 6963
6872 6964
6872 6965
6873 6966
6873 6967
6874 6968
6874 6969
6875 6969
6876 6970
6876 6971
6877 6972
6877 6973
6878 6879
6878 6974
6878 7039
6878 7040
6879 6975
6879 7039
6879 7040
6880 6881
6880 6976
6880 7041
6880 7042
6881 6977
6881 7041
6881 7042
6882 6883
6882 6977
6882 7043
6882 7044
6883 6978
6883 7043
6883 7044
6884 6885
6884 6978
6884 7045
6884 7046
6885 6979
6885 7045
6885 7046
6886 6887
6886 6980
6886 7047
6886 7048
6887 6981
6887 7047
6887 7048
6888 6889
6888 6981
6888 7049
6888 7050
6889 6982
6889 7049
6889 7050
6890 6891
6890 6982
6890 7051
6890 7052
6891 6983
6891 7051
6891 7052
6892 6893
6892 6984
6892 7053
6892 7054
6893 6985
6893 7053
6893 7054
6894 6895
6894 6985
6894 7055
6894 7056
6895 6986
6895 7055
6895 7056
6896 6897
6896 6986
6896 7057
6896 7058
6897 6987
6897 7057
6897 7058
6898 6899
6898 6988
6898 7059
6898 7060
6899 6989
6899 7059
6899 7060
6900 6901
6900 6989
6900 7061
6900 7062
6901 6990
6901 7061
6901 7062
6902 6903
6902 6990
6902 7063
6902 7064
6903 6991
6903 7063
6903 7064
6904 6905
6904 6992
6904 7065
6904 7066
6905 6993
6905 7065
6905 7066
6906 6907
6906 6993
6906 7067
6906 7068
6907 6994
6907 7067
6907 7068
6908 6909
6908 6994
6908 7069
6908 7070
6909 6995
6909 7069
6909 7070
6910 6911
6910 6996
6910 7071
6910 7072
6911 6997
6911 7071
6911 7072
6912 6913
6912 6997
6912 7073
6912 7074
6913 6998
6913 7073
6913 7074
6914 6915
6914 6998
6914 7075
6914 7076
6915 6999
6915 7075
6915 7076
6916 6917
6916 7000
6916 7077
6916 7078
6917 7001
6917 7077
6917 7078
6918 6919
6918 7001
6918 7079
6918 7080
6919 7002
6919 7079
6919 7080
6920 6921
6920 7002
6920 7081
6920 7082
6921 7003
6921 7081
6921 7082
6922 6923
6922 7004
6922 7083
6922 7084
6923 7005
6923 7083
6923 7084
6924 6925
6924 7005
6924 7085
6924 7086
6925 7006
6925 7085
6925 7086
6926 6927
6926 7006
6926 7087
6926 7088
6927 7007
6927 7087
6927 7088
6928 6929
6928 7008
6928 7089
6928 7090
6929 7009
6929 7089
6929 7090
6930 6931
6930 7009
6930 7091
6930 7092
6931 7010
6931 7091
6931 7092
6932 6933
6932 7010
6932 7093
6932 7094
6933 7011
6933 7093
6933 7094
6934 6935
6934 7012
6934 7095
6934 7096
6935 7013
6935 7095
6935 7096
6936 6937
6936 7013
6936 7097
6936 7098
6937 7014
6937 7097
6937 7098
6938 6939
6938 7014
6938 7099
6938 7100
6939 7015
6939 7099
6939 7100
6940 6941
6940 7016
6940 7101
6940 7102
6941 7017
6941 7101
6941 7102
6942 6943
6942 7017
6942 7103
6942 7104
6943 7018
6943 7103
6943 7104
6944 6945
6944 7018
6944 7105
6944 7106
6945 7019
6945 7105
6945 7106
6946 6947
6946 7020
6946 7107
6946 7108
6947 7021
6947 7107
6947 7108
6948 6949
6948 7021
6948 7109
6948 7110
6949 7022
6949 7109
6949 7110
6950 6951
6950 7022
6950 7111
6950 7112
6951 7023
6951 7111
6951 7112
6952 6953
6952 7024
6952 7113
6952 7114
6953 7025
6953 7113
6953 7114
6954 6955
6954 7025
6954 7115
6954 7116
6955 7026
6955 7115
6955 7116
6956 6957
6956 7026
6956 7117
6956 7118
6957 7027
6957 7117
6957 7118
6958 6959
6958 7028
6958 7119
6958 7120
6959 7029
6959 7119
6959 7120
6960 6961
6960 7029
6960 7121
6960 7122
6961 7030
6961 7121
6961 7122
6962 6963
6962 7030
6962 7123
6962 7124
6963 7031
6963 7123
6963 7124
6964 6965
6964 7032
6964 7125
6964 7126
6965 7033
6965 7125
6965 7126
6966 6967
6966 7033
6966 7127
6966 7128
6967 7034
6967 7127
6967 7128
6968 6969
6968 7034
6968 7129
6968 7130
6969 7035
6969 7129
6969 7130
6970 6971
6970 7036
6970 7131
6970 7132
6971 7037
6971 7131
6971 7132
6972 6973
6972 7037
6972 7133
6972 7134
6973 7038
6973 7133
6973 7134
6974 7039
6975 6976
6975 7040
6976 7041
6977 7042
6977 7043
6978 7044
6978 7045
6979 6980
6979 7046
6980 7047
6981 7048
6981 7049
6982 7050
6982 7051
6983 6984
6983 7052
6984 7053
6985 7054
6985 7055
6986 7056
6986 7057
6987 6988
6987 7058
6988 7059
6989 7060
6989 7061
6990 7062
6990 7063
6991 6992
6991 7064
6992 7065
6993 7066
6993 7067
6994 7068
6994 7069
6995 6996
6995 7070
6996 7071
6997 7072
6997 7073
6998 7074
6998 7075
6999 7000
6999 7076
7000 7077
7001 7078
7001 7079
7002 7080
7002 7081
7003 7004
7003 7082
7004 7083
7005 7084
7005 7085
7006 7086
7006 7087
7007 7008
7007 7088
7008 7089
7009 7090
7009 7091
7010 7092
7010 7093
7011 7012
7011 7094
7012 7095
7013 7096
7013 7097
7014 7098
7014 7099
7015 7016
7015 7100
7016 7101
7017 7102
7017 7103
7018 7104
7018 7105
7019 7020
7019 7106
7020 7107
7021 7108
7021 7109
7022 7110
7022 7111
7023 7024
7023 7112
7024 7113
7025 7114
7025 7115
7026 7116
7026 7117
7027 7028
7027 7118
7028 7119
7029 7120
7029 7121
7030 7122
7030 7123
7031 7032
7031 7124
7032 7125
7033 7126
7033 7127
7034 7128
7034 7129
7035 7036
7035 7130
7036 7131
7037 7132
7037 7133
7038 7134
7039 7040
7039 7135
7040 7135
7041 7042
7041 7136
7042 7136
7043 7044
7043 7137
7044 7137
7045 7046
7045 7138
7046 7138
7047 7048
7047 7139
7048 7139
7049 7050
7049 7140
7050 7140
7051 7052
7051 7141
7052 7141
7053 7054
7053 7142
7054 7142
7055 7056
7055 7143
7056 7143
7057 7058
7057 7144
7058 7144
7059 7060
7059 7145
7060 7145
7061 7062
7061 7146
7062 7146
7063 7064
7063 7147
7064 7147
7065 7066
7065 7148
7066 7148
7067 7068
7067 7149
7068 7149
7069 7070
7069 7150
7070 7150
7071 7072
7071 7151
7072 7151
7073 7074
7073 7152
7074 7152
7075 7076
7075 7153
7076 7153
7077 7078
7077 7154
7078 7154
7079 7080
7079 7155
7080 7155
7081 7082
7081 7156
7082 7156
7083 7084
7083 7157
7084 7157
7085 7086
7085 7158
7086 7158
7087 7088
7087 7159
7088 7159
7089 7090
7089 7160
7090 7160
7091 7092
7091 7161
7092 7161
7093 7094
7093 7162
7094 7162
7095 7096
7095 7163
7096 7163
7097 7098
7097 7164
7098 7164
7099 7100
7099 7165
7100 7165
7101 7102
7101 7166
7102 7166
7103 7104
7103 7167
7104 7167
7105 7106
7105 7168
7106 7168
7107 7108
7107 7169
7108 7169
7109 7110
7109 7170
7110 7170
7111 7112
7111 7171
7112 7171
7113 7114
7113 7172
7114 7172
7115 7116
7115 7173
7116 7173
7117 7118
7117 7174
7118 7174
7119 7120
7119 7175
7120 7175
7121 7122
7121 7176
7122 7176
7123 7124
7123 7177
7124 7177
7125 7126
7125 7178
7126 7178
7127 7128
7127 7179
7128 7179
7129 7130
7129 7180
7130 7180
7131 7132
7131 7181
7132 7181
7133 7134
7135 7182
7135 7183
7136 7247
7136 7248
7137 7249
7138 7186
7138 7187
7139 7250
7139 7251
7140 7252
7141 7190
7141 7191
7142 7253
7142 7254
7143 7255
7144 7194
7144 7195
7145 7256
7145 7257
7146 7258
7147 7198
7147 7199
7148 7259
7148 7260
7149 7261
7150 7202
7150 7203
7151 7262
7151 7263
7152 7264
7153 7206
7153 7207
7154 7265
7154 7266
7155 7267
7156 7210
7156 7211
7157 7268
7157 7269
7158 7270
7159 7214
7159 7215
7160 7271
7160 7272
7161 7273
7162 7218
7162 7219
7163 7274
7163 7275
7164 7276
7165 7222
7165 7223
7166 7277
7166 7278
7167 7279
7168 7226
7168 7227
7169 7280
7169 7281
7170 7282
7171 7230
7171 7231
7172 7283
7172 7284
7173 7285
7174 7234
7174 7235
7175 7286
7175 7287
7176 7288
7177 7238
7177 7239
7178 7289
7178 7290
7179 7291
7180 7242
7180 7243
7181 7292
7181 7293
7182 7183
7182 7246
7182 7294
7182 7295
7183 7184
7183 7294
7183 7295
7184 7247
7184 7295
7184 7296
7185 7248
7185 7297
7185 7298
7186 7187
7186 7249
7186 7299
7186 7300
7187 7188
7187 7299
7187 7300
7188 7250
7188 7300
7188 7301
7189 7251
7189 7302
7189 7303
7190 7191
7190 7252
7190 7304
7190 7305
7191 7192
7191 7304
7191 7305
7192 7253
7192 7305
7192 7306
7193 7254
7193 7307
7193 7308
7194 7195
7194 7255
7194 7309
7194 7310
7195 7196
7195 7309
7195 7310
7196 7256
7196 7310
7196 7311
7197 7257
7197 7312
7197 7313
7198 7199
7198 7258
7198 7314
7198 7315
7199 7200
7199 7314
7199 7315
7200 7259
7200 7315
7200 7316
7201 7260
7201 7317
7201 7318
7202 7203
7202 7261
7202 7319
7202 7320
7203 7204
7203 7319
7203 7320
7204 7262
7204 7320
7204 7321
7205 7263
7205 7322
7205 7323
7206 7207
7206 7264
7206 7324
7206 7325
7207 7208
7207 7324
7207 7325
7208 7265
7208 7325
7208 7326
7209 7266
7209 7327
7209 7328
7210 7211
7210 7267
7210 7329
7210 7330
7211 7212
7211 7329
7211 7330
7212 7268
7212 7330
7212 7331
7213 7269
7213 7332
7213 7333
7214 7215
7214 7270
7214 7334
7214 7335
7215 7216
7215 7334
7215 7335
7216 7271
7216 7335
7216 7336
7217 7272
7217 7337
7217 7338
7218 7219
7218 7273
7218 7339
7218 7340
7219 7220
7219 7339
7219 7340
7220 7274
7220 7340
7220 7341
7221 7275
7221 7342
7221 7343
7222 7223
7222 7276
7222 7344
7222 7345
7223 7224
7223 7344
7223 7345
7224 7277
7224 7345
7224 7346
7225 7278
7225 7347
7225 7348
7226 7227
7226 7279
7226 7349
7226 7350
7227 7228
7227 7349
7227 7350
7228 7280
7228 7350
7228 7351
7229 7281
7229 7352
7229 7353
7230 7231
7230 7282
7230 7354
7230 7355
7231 7232
7231 7354
7231 7355
7232 7283
7232 7355
7232 7356
7233 7284
7233 7357
7233 7358
7234 7235
7234 7285
7234 7359
7234 7360
7235 7236
7235 7359
7235 7360
7236 7286
7236 7360
7236 7361
7237 7287
7237 7362
7237 7363
7238 7239
7238 7288
7238 7364
7238 7365
7239 7240
7239 7364
7239 7365
7240 7289
7240 7365
7240 7366
7241 7290
7241 7367
7241 7368
7242 7243
7242 7291
7242 7369
7242 7370
7243 7244
7243 7369
7243 7370
7244 7292
7244 7370
7244 7371
7245 7293
7245 7372
7245 7373
7246 7294
7247 7248
7247 7296
7247 7374
7247 7375
7248 7297
7248 7374
7248 7375
7249 7299
7250 7251
7250 7301
7250 7376
7250 7377
7251 7302
7251 7376
7251 7377
7252 7304
7253 7254
7253 7306
7253 7378
7253 7379
7254 7307
7254 7378
7254 7379
7255 7309
7256 7257
7256 7311
7256 7380
7256 7381
7257 7312
7257 7380
7257 7381
7258 7314
7259 7260
7259 7316
7259 7382
7259 7383
7260 7317
7260 7382
7260 7383
7261 7319
7262 7263
7262 7321
7262 7384
7262 7385
7263 7322
7263 7384
7263 7385
7264 7324
7265 7266
7265 7326
7265 7386
7265 7387
7266 7327
7266 7386
7266 7387
7267 7329
7268 7269
7268 7331
7268 7388
7268 7389
7269 7332
7269 7388
7269 7389
7270 7334
7271 7272
7271 7336
7271 7390
7271 7391
7272 7337
7272 7390
7272 7391
7273 7339
7274 7275
7274 7341
7274 7392
7274 7393
7275 7342
7275 7392
7275 7393
7276 7344
7277 7278
7277 7346
7277 7394
7277 7395
7278 7347
7278 7394
7278 7395
7279 7349
7280 7281
7280 7351
7280 7396
7280 7397
7281 7352
7281 7396
7281 7397
7282 7354
7283 7284
7283 7356
7283 7398
7283 7399
7284 7357
7284 7398
7284 7399
7285 7359
7286 7287
7286 7361
7286 7400
7286 7401
7287 7362
7287 7400
7287 7401
7288 7364
7289 7290
7289 7366
7289 7402
7289 7403
7290 7367
7290 7402
7290 7403
7291 7369
7292 7293
7292 7371
7292 7404
7292 7405
7293 7372
7293 7404
7293 7405
7294 7295
7294 7406
7295 7406
7296 7374
7296 7407
7297 7375
7297 7408
7298 7409
7299 7300
7299 7410
7300 7410
7301 7376
7301 7411
7302 7377
7302 7412
7303 7413
7304 7305
7304 7414
7305 7414
7306 7378
7306 7415
7307 7379
7307 7416
7308 7417
7309 7310
7309 7418
7310 7418
7311 7380
7311 7419
7312 7381
7312 7420
7313 7421
7314 7315
7314 7422
7315 7422
7316 7382
7316 7423
7317 7383
7317 7424
7318 7425
7319 7320
7319 7426
7320 7426
7321 7384
7321 7427
7322 7385
7322 7428
7323 7429
7324 7325
7324 7430
7325 7430
7326 7386
7326 7431
7327 7387
7327 7432
7328 7433
7329 7330
7329 7434
7330 7434
7331 7388
7331 7435
7332 7389
7332 7436
7333 7437
7334 7335
7334 7438
7335 7438
7336 7390
7336 7439
7337 7391
7337 7440
7338 7441
7339 7340
7339 7442
7340 7442
7341 7392
7341 7443
7342 7393
7342 7444
7343 7445
7344 7345
7344 7446
7345 7446
7346 7394
7346 7447
7347 7395
7347 7448
7348 7449
7349 7350
7349 7450
7350 7450
7351 7396
7351 7451
7352 7397
7352 7452
7353 7453
7354 7355
7354 7454
7355 7454
7356 7398
7356 7455
7357 7399
7357 7456
7358 7457
7359 7360
7359 7458
7360 7458
7361 7400
7361 7459
7362 7401
7362 7460
7363 7461
7364 7365
7364 7462
7365 7462
7366 7402
7366 7463
7367 7403
7367 7464
7368 7465
7369 7370
7369 7466
7370 7466
7371 7404
7371 7467
7372 7405
7372 7468
7373 7469
7374 7375
7374 7407
7375 7408
7376 7377
7376 7411
7377 7412
7378 7379
7378 7415
7379 7416
7380 7381
7380 7419
7381 7420
7382 7383
7382 7423
7383 7424
7384 7385
7384 7427
7385 7428
7386 7387
7386 7431
7387 7432
7388 7389
7388 7435
7389 7436
7390 7391
7390 7439
7391 7440
7392 7393
7392 7443
7393 7444
7394 7395
7394 7447
7395 7448
7396 7397
7396 7451
7397 7452
7398 7399
7398 7455
7399 7456
7400 7401
7400 7459
7401 7460
7402 7403
7402 7463
7403 7464
7404 7405
7404 7467
7405 7468
7406 7470
7406 7471
7407 7471
7408 7472
7408 7473
7409 7474
7409 7475
7410 7476
7410 7477
7411 7477
7412 7478
7412 7479
7413 7480
7413 7481
7414 7482
7414 7483
7415 7483
7416 7484
7416 7485
7417 7486
7417 7487
7418 7488
7418 7489
7419 7489
7420 7490
7420 7491
7421 7492
7421 7493
7422 7494
7422 7495
7423 7495
7424 7496
7424 7497
7425 7498
7425 7499
7426 7500
7426 7501
7427 7501
7428 7502
7428 7503
7429 7504
7429 7505
7430 7506
7430 7507
7431 7507
7432 7508
7432 7509
7433 7510
7433 7511
7434 7512
7434 7513
7435 7513
7436 7514
7436 7515
7437 7516
7437 7517
7438 7518
7438 7519
7439 7519
7440 7520
7440 7521
7441 7522
7441 7523
7442 7524
7442 7525
7443 7525
7444 7526
7444 7527
7445 7528
7445 7529
7446 7530
7446 7531
7447 7531
7448 7532
7448 7533
7449 7534
7449 7535
7450 7536
7450 7537
7451 7537
7452 7538
7452 7539
7453 7540
7453 7541
7454 7542
7454 7543
7455 7543
7456 7544
7456 7545
7457 7546
7457 7547
7458 7548
7458 7549
7459 7549
7460 7550
7460 7551
7461 7552
7461 7553
7462 7554
7462 7555
7463 7555
7464 7556
7464 7557
7465 7558
7465 7559
7466 7560
7466 7561
7467 7561
7468 7562
7468 7563
7469 7564
7469 7565
7470 7471
7470 7566
7470 7631
7470 7632
7471 7567
7471 7631
7471 7632
7472 7473
7472 7568
7472 7633
7472 7634
7473 7569
7473 7633
7473 7634
7474 7475
7474 7569
7474 7635
7474 7636
7475 7570
7475 7635
7475 7636
7476 7477
7476 7570
7476 7637
7476 7638
7477 7571
7477 7637
7477 7638
7478 7479
7478 7572
7478 7639
7478 7640
7479 7573
7479 7639
7479 7640
7480 7481
7480 7573
7480 7641
7480 7642
7481 7574
7481 7641
7481 7642
7482 7483
7482 7574
7482 7643
7482 7644
7483 7575
7483 7643
7483 7644
7484 7485
7484 7576
7484 7645
7484 7646
7485 7577
7485 7645
7485 7646
7486 7487
7486 7577
7486 7647
7486 7648
7487 7578
7487 7647
7487 7648
7488 7489
7488 7578
7488 7649
7488 7650
7489 7579
7489 7649
7489 7650
7490 7491
7490 7580
7490 7651
7490 7652
7491 7581
7491 7651
7491 7652
7492 7493
7492 7581
7492 7653
7492 7654
7493 7582
7493 7653
7493 7654
7494 7495
7494 7582
7494 7655
7494 7656
7495 7583
7495 7655
7495 7656
7496 7497
7496 7584
7496 7657
7496 7658
7497 7585
7497 7657
7497 7658
7498 7499
7498 7585
7498 7659
7498 7660
7499 7586
7499 7659
7499 7660
7500 7501
7500 7586
7500 7661
7500 7662
7501 7587
7501 7661
7501 7662
7502 7503
7502 7588
7502 7663
7502 7664
7503 7589
7503 7663
7503 7664
7504 7505
7504 7589
7504 7665
7504 7666
7505 7590
7505 7665
7505 7666
7506 7507
7506 7590
7506 7667
7506 7668
7507 7591
7507 7667
7507 7668
7508 7509
7508 7592
7508 7669
7508 7670
7509 7593
7509 7669
7509 7670
7510 7511
7510 7593
7510 7671
7510 7672
7511 7594
7511 7671
7511 7672
7512 7513
7512 7594
7512 7673
7512 7674
7513 7595
7513 7673
7513 7674
7514 7515
7514 7596
7514 7675
7514 7676
7515 7597
7515 7675
7515 7676
7516 7517
7516 7597
7516 7677
7516 7678
7517 7598
7517 7677
7517 7678
7518 7519
7518 7598
7518 7679
7518 7680
7519 7599
7519 7679
7519 7680
7520 7521
7520 7600
7520 7681
7520 7682
7521 7601
7521 7681
7521 7682
7522 7523
7522 7601
7522 7683
7522 7684
7523 7602
7523 7683
7523 7684
7524 7525
7524 7602
7524 7685
7524 7686
7525 7603
7525 7685
7525 7686
7526 7527
7526 7604
7526 7687
7526 7688
7527 7605
7527 7687
7527 7688
7528 7529
7528 7605
7528 7689
7528 7690
7529 7606
7529 7689
7529 7690
7530 7531
7530 7606
7530 7691
7530 7692
7531 7607
7531 7691
7531 7692
7532 7533
7532 7608
7532 7693
7532 7694
7533 7609
7533 7693
7533 7694
7534 7535
7534 7609
7534 7695
7534 7696
7535 7610
7535 7695
7535 7696
7536 7537
7536 7610
7536 7697
7536 7698
7537 7611
7537 7697
7537 7698
7538 7539
7538 7612
7538 7699
7538 7700
7539 7613
7539 7699
7539 7700
7540 7541
7540 7613
7540 7701
7540 7702
7541 7614
7541 7701
7541 7702
7542 7543
7542 7614
7542 7703
7542 7704
7543 7615
7543 7703
7543 7704
7544 7545
7544 7616
7544 7705
7544 7706
7545 7617
7545 7705
7545 7706
7546 7547
7546 7617
7546 7707
7546 7708
7547 7618
7547 7707
7547 7708
7548 7549
7548 7618
7548 7709
7548 7710
7549 7619
7549 7709
7549 7710
7550 7551
7550 7620
7550 7711
7550 7712
7551 7621
7551 7711
7551 7712
7552 7553
7552 7621
7552 7713
7552 7714
7553 7622
7553 7713
7553 7714
7554 7555
7554 7622
7554 7715
7554 7716
7555 7623
7555 7715
7555 7716
7556 7557
7556 7624
7556 7717
7556 7718
7557 7625
7557 7717
7557 7718
7558 7559
7558 7625
7558 7719
7558 7720
7559 7626
7559 7719
7559 7720
7560 7561
7560 7626
7560 7721
7560 7722
7561 7627
7561 7721
7561 7722
7562 7563
7562 7628
7562 7723
7562 7724
7563 7629
7563 7723
7563 7724
7564 7565
7564 7629
7565 7630
7566 7631
7567 7568
7567 7632
7568 7633
7569 7634
7569 7635
7570 7636
7570 7637
7571 7572
7571 7638
7572 7639
7573 7640
7573 7641
7574 7642
7574 7643
7575 7576
7575 7644
7576 7645
7577 7646
7577 7647
7578 7648
7578 7649
7579 7580
7579 7650
7580 7651
7581 7652
7581 7653
7582 7654
7582 7655
7583 7584
7583 7656
7584 7657
7585 7658
7585 7659
7586 7660
7586 7661
7587 7588
7587 7662
7588 7663
7589 7664
7589 7665
7590 7666
7590 7667
7591 7592
7591 7668
7592 7669
7593 7670
7593 7671
7594 7672
7594 7673
7595 7596
7595 7674
7596 7675
7597 7676
7597 7677
7598 7678
7598 7679
7599 7600
7599 7680
7600 7681
7601 7682
7601 7683
7602 7684
7602 7685
7603 7604
7603 7686
7604 7687
7605 7688
7605 7689
7606 7690
7606 7691
7607 7608
7607 7692
7608 7693
7609 7694
7609 7695
7610 7696
7610 7697
7611 7612
7611 7698
7612 7699
7613 7700
7613 7701
7614 7702
7614 7703
7615 7616
7615 7704
7616 7705
7617 7706
7617 7707
7618 7708
7618 7709
7619 7620
7619 7710
7620 7711
7621 7712
7621 7713
7622 7714
7622 7715
7623 7624
7623 7716
7624 7717
7625 7718
7625 7719
7626 7720
7626 7721
7627 7628
7627 7722
7628 7723
7629 7724
7631 7632
7631 7725
7632 7725
7633 7634
7633 7726
7634 7726
7635 7636
7635 7727
7636 7727
7637 7638
7637 7728
7638 7728
7639 7640
7639 7729
7640 7729
7641 7642
7641 7730
7642 7730
7643 7644
7643 7731
7644 7731
7645 7646
7645 7732
7646 7732
7647 7648
7647 7733
7648 7733
7649 7650
7649 7734
7650 7734
7651 7652
7651 7735
7652 7735
7653 7654
7653 7736
7654 7736
7655 7656
7655 7737
7656 7737
7657 7658
7657 7738
7658 7738
7659 7660
7659 7739
7660 7739
7661 7662
7661 7740
7662 7740
7663 7664
7663 7741
7664 7741
7665 7666
7665 7742
7666 7742
7667 7668
7667 7743
7668 7743
7669 7670
7669 7744
7670 7744
7671 7672
7671 7745
7672 7745
7673 7674
7673 7746
7674 7746
7675 7676
7675 7747
7676 7747
7677 7678
7677 7748
7678 7748
7679 7680
7679 7749
7680 7749
7681 7682
7681 7750
7682 7750
7683 7684
7683 7751
7684 7751
7685 7686
7685 7752
7686 7752
7687 7688
7687 7753
7688 7753
7689 7690
7689 7754
7690 7754
7691 7692
7691 7755
7692 7755
7693 7694
7693 7756
7694 7756
7695 7696
7695 7757
7696 7757
7697 7698
7697 7758
7698 7758
7699 7700
7699 7759
7700 7759
7701 7702
7701 7760
7702 7760
7703 7704
7703 7761
7704 7761
7705 7706
7705 7762
7706 7762
7707 7708
7707 7763
7708 7763
7709 7710
7709 7764
7710 7764
7711 7712
7711 7765
7712 7765
7713 7714
7713 7766
7714 7766
7715 7716
7715 7767
7716 7767
7717 7718
7717 7768
7718 7768
7719 7720
7719 7769
7720 7769
7721 7722
7721 7770
7722 7770
7723 7724
7723 7771
7724 7771
7725 7772
7725 7773
7726 7837
7726 7838
7727 7839
7728 7776
7728 7777
7729 7840
7729 7841
7730 7842
7731 7780
7731 7781
7732 7843
7732 7844
7733 7845
7734 7784
7734 7785
7735 7846
7735 7847
7736 7848
7737 7788
7737 7789
7738 7849
7738 7850
7739 7851
7740 7792
7740 7793
7741 7852
7741 7853
7742 7854
7743 7796
7743 7797
7744 7855
7744 7856
7745 7857
7746 7800
7746 7801
7747 7858
7747 7859
7748 7860
7749 7804
7749 7805
7750 7861
7750 7862
7751 7863
7752 7808
7752 7809
7753 7864
7753 7865
7754 7866
7755 7812
7755 7813
7756 7867
7756 7868
7757 7869
7758 7816
7758 7817
7759 7870
7759 7871
7760 7872
7761 7820
7761 7821
7762 7873
7762 7874
7763 7875
7764 7824
7764 7825
7765 7876
7765 7877
7766 7878
7767 7828
7767 7829
7768 7879
7768 7880
7769 7881
7770 7832
7770 7833
7771 7882
7771 7883
7772 7773
7772 7836
7772 7884
7772 7885
7773 7774
7773 7884
7773 7885
7774 7837
7774 7885
7774 7886
7775 7838
7775 7887
7775 7888
7776 7777
7776 7839
7776 7889
7776 7890
7777 7778
7777 7889
7777 7890
7778 7840
7778 7890
7778 7891
7779 7841
7779 7892
7779 7893
7780 7781
7780 7842
7780 7894
7780 7895
7781 7782
7781 7894
7781 7895
7782 7843
7782 7895
7782 7896
7783 7844
7783 7897
7783 7898
7784 7785
7784 7845
7784 7899
7784 7900
7785 7786
7785 7899
7785 7900
7786 7846
7786 7900
7786 7901
7787 7847
7787 7902
7787 7903
7788 7789
7788 7848
7788 7904
7788 7905
7789 7790
7789 7904
7789 7905
7790 7849
7790 7905
7790 7906
7791 7850
7791 7907
7791 7908
7792 7793
7792 7851
7792 7909
7792 7910
7793 7794
7793 7909
7793 7910
7794 7852
7794 7910
7794 7911
7795 7853
7795 7912
7795 7913
7796 7797
7796 7854
7796 7914
7796 7915
7797 7798
7797 7914
7797 7915
7798 7855
7798 7915
7798 7916
7799 7856
7799 7917
7799 7918
7800 7801
7800 7857
7800 7919
7800 7920
7801 7802
7801 7919
7801 7920
7802 7858
7802 7920
7802 7921
7803 7859
7803 7922
7803 7923
7804 7805
7804 7860
7804 7924
7804 7925
7805 7806
7805 7924
7805 7925
7806 7861
7806 7925
7806 7926
7807 7862
7807 7927
7807 7928
7808 7809
7808 7863
7808 7929
7808 7930
7809 7810
7809 7929
7809 7930
7810 7864
7810 7930
7810 7931
7811 7865
7811 7932
7811 7933
7812 7813
7812 7866
7812 7934
7812 7935
7813 7814
7813 7934
7813 7935
7814 7867
7814 7935
7814 7936
7815 7868
7815 7937
7815 7938
7816 7817
7816 7869
7816 7939
7816 7940
7817 7818
7817 7939
7817 7940
7818 7870
7818 7940
7818 7941
7819 7871
7819 7942
7819 7943
7820 7821
7820 7872
7820 7944
7820 7945
7821 7822
7821 7944
7821 7945
7822 7873
7822 7945
7822 7946
7823 7874
7823 7947
7823 7948
7824 7825
7824 7875
7824 7949
7824 7950
7825 7826
7825 7949
7825 7950
7826 7876
7826 7950
7826 7951
7827 7877
7827 7952
7827 7953
7828 7829
7828 7878
7828 7954
7828 7955
7829 7830
7829 7954
7829 7955
7830 7879
7830 7955
7830 7956
7831 7880
7831 7957
7831 7958
7832 7833
7832 7881
7832 7959
7832 7960
7833 7834
7833 7959
7833 7960
7834 7882
7834 7960
7834 7961
7835 7883
7835 7962
7835 7963
7836 7884
7837 7838
7837 7886
7837 7964
7837 7965
7838 7887
7838 7964
7838 7965
7839 7889
7840 7841
7840 7891
7840 7966
7840 7967
7841 7892
7841 7966
7841 7967
7842 7894
7843 7844
7843 7896
7843 7968
7843 7969
7844 7897
7844 7968
7844 7969
7845 7899
7846 7847
7846 7901
7846 7970
7846 7971
7847 7902
7847 7970
7847 7971
7848 7904
7849 7850
7849 7906
7849 7972
7849 7973
7850 7907
7850 7972
7850 7973
7851 7909
7852 7853
7852 7911
7852 7974
7852 7975
7853 7912
7853 7974
7853 7975
7854 7914
7855 7856
7855 7916
7855 7976
7855 7977
7856 7917
7856 7976
7856 7977
7857 7919
7858 7859
7858 7921
7858 7978
7858 7979
7859 7922
7859 7978
7859 7979
7860 7924
7861 7862
7861 7926
7861 7980
7861 7981
7862 7927
7862 7980
7862 7981
7863 7929
7864 7865
7864 7931
7864 7982
7864 7983
7865 7932
7865 7982
7865 7983
7866 7934
7867 7868
7867 7936
7867 7984
7867 7985
7868 7937
7868 7984
7868 7985
7869 7939
7870 7871
7870 7941
7870 7986
7870 7987
7871 7942
7871 7986
7871 7987
7872 7944
7873 7874
7873 7946
7873 7988
7873 7989
7874 7947
7874 7988
7874 7989
7875 7949
7876 7877
7876 7951
7876 7990
7876 7991
7877 7952
7877 7990
7877 7991
7878 7954
7879 7880
7879 7956
7879 7992
7879 7993
7880 7957
7880 7992
7880 7993
7881 7959
7882 7883
7882 7961
7882 7994
7882 7995
7883 7962
7883 7994
7883 7995
7884 7885
7884 7996
7885 7996
7886 7964
7886 7997
7887 7965
7887 7998
7888 7999
7889 7890
7889 8000
7890 8000
7891 7966
7891 8001
7892 7967
7892 8002
7893 8003
7894 7895
7894 8004
7895 8004
7896 7968
7896 8005
7897 7969
7897 8006
7898 8007
7899 7900
7899 8008
7900 8008
7901 7970
7901 8009
7902 7971
7902 8010
7903 8011
7904 7905
7904 8012
7905 8012
7906 7972
7906 8013
7907 7973
7907 8014
7908 8015
7909 7910
7909 8016
7910 8016
7911 7974
7911 8017
7912 7975
7912 8018
7913 8019
7914 7915
7914 8020
7915 8020
7916 7976
7916 8021
7917 7977
7917 8022
7918 8023
7919 7920
7919 8024
7920 8024
7921 7978
7921 8025
7922 7979
7922 8026
7923 8027
7924 7925
7924 8028
7925 8028
7926 7980
7926 8029
7927 7981
7927 8030
7928 8031
7929 7930
7929 8032
7930 8032
7931 7982
7931 8033
7932 7983
7932 8034
7933 8035
7934 7935
7934 8036
7935 8036
7936 7984
7936 8037
7937 7985
7937 8038
7938 8039
7939 7940
7939 8040
7940 8040
7941 7986
7941 8041
7942 7987
7942 8042
7943 8043
7944 7945
7944 8044
7945 8044
7946 7988
7946 8045
7947 7989
7947 8046
7948 8047
7949 7950
7949 8048
7950 8048
7951 7990
7951 8049
7952 7991
7952 8050
7953 8051
7954 7955
7954 8052
7955 8052
7956 7992
7956 8053
7957 7993
7957 8054
7958 8055
7959 7960
7959 8056
7960 8056
7961 7994
7961 8057
7962 7995
7962 8058
7963 8059
7964 7965
7964 7997
7965 7998
7966 7967
7966 8001
7967 8002
7968 7969
7968 8005
7969 8006
7970 7971
7970 8009
7971 8010
7972 7973
7972 8013
7973 8014
7974 7975
7974 8017
7975 8018
7976 7977
7976 8021
7977 8022
7978 7979
7978 8025
7979 8026
7980 7981
7980 8029
7981 8030
7982 7983
7982 8033
7983 8034
7984 7985
7984 8037
7985 8038
7986 7987
7986 8041
7987 8042
7988 7989
7988 8045
7989 8046
7990 7991
7990 8049
7991 8050
7992 7993
7992 8053
7993 8054
7994 7995
7994 8057
7995 8058
7996 8060
7996 8061
7997 8061
7998 8062
7998 8063
7999 8064
7999 8065
8000 8066
8000 8067
8001 8067
8002 8068
8002 8069
8003 8070
8003 8071
8004 8072
8004 8073
8005 8073
8006 8074
8006 8075
8007 8076
8007 8077
8008 8078
8008 8079
8009 8079
8010 8080
8010 8081
8011 8082
8011 8083
8012 8084
8012 8085
8013 8085
8014 8086
8014 8087
8015 8088
8015 8089
8016 8090
8016 8091
8017 8091
8018 8092
8018 8093
8019 8094
8019 8095
8020 8096
8020 8097
8021 8097
8022 8098
8022 8099
8023 8100
8023 8101
8024 8102
8024 8103
8025 8103
8026 8104
8026 8105
8027 8106
8027 8107
8028 8108
8028 8109
8029 8109
8030 8110
8030 8111
8031 8112
8031 8113
8032 8114
8032 8115
8033 8115
8034 8116
8034 8117
8035 8118
8035 8119
8036 8120
8036 8121
8037 8121
8038 8122
8038 8123
8039 8124
8039 8125
8040 8126
8040 8127
8041 8127
8042 8128
8042 8129
8043 8130
8043 8131
8044 8132
8044 8133
8045 8133
8046 8134
8046 8135
8047 8136
8047 8137
8048 8138
8048 8139
8049 8139
8050 8140
8050 8141
8051 8142
8051 8143
8052 8144
8052 8145
8053 8145
8054 8146
8054 8147
8055 8148
8055 8149
8056 8150
8056 8151
8057 8151
8058 8152
8058 8153
8059 8154
8059 8155
8060 8061
8060 8156
8060 8221
8060 8222
8061 8157
8061 8221
8061 8222
8062 8063
8062 8158
8062 8223
8062 8224
8063 8159
8063 8223
8063 8224
8064 8065
8064 8159
8064 8225
8064 8226
8065 8160
8065 8225
8065 8226
8066 8067
8066 8160
8066 8227
8066 8228
8067 8161
8067 8227
8067 8228
8068 8069
8068 8162
8068 8229
8068 8230
8069 8163
8069 8229
8069 8230
8070 8071
8070 8163
8070 8231
8070 8232
8071 8164
8071 8231
8071 8232
8072 8073
8072 8164
8072 8233
8072 8234
8073 8165
8073 8233
8073 8234
8074 8075
8074 8166
8074 8235
8074 8236
8075 8167
8075 8235
8075 8236
8076 8077
8076 8167
8076 8237
8076 8238
8077 8168
8077 8237
8077 8238
8078 8079
8078 8168
8078 8239
8078 8240
8079 8169
8079 8239
8079 8240
8080 8081
8080 8170
8080 8241
8080 8242
8081 8171
8081 8241
8081 8242
8082 8083
8082 8171
8082 8243
8082 8244
8083 8172
8083 8243
8083 8244
8084 8085
8084 8172
8084 8245
8084 8246
8085 8173
8085 8245
8085 8246
8086 8087
8086 8174
8086 8247
8086 8248
8087 8175
8087 8247
8087 8248
8088 8089
8088 8175
8088 8249
8088 8250
8089 8176
8089 8249
8089 8250
8090 8091
8090 8176
8090 8251
8090 8252
8091 8177
8091 8251
8091 8252
8092 8093
8092 8178
8092 8253
8092 8254
8093 8179
8093 8253
8093 8254
8094 8095
8094 8179
8094 8255
8094 8256
8095 8180
8095 8255
8095 8256
8096 8097
8096 8180
8096 8257
8096 8258
8097 8181
8097 8257
8097 8258
8098 8099
8098 8182
8098 8259
8098 8260
8099 8183
8099 8259
8099 8260
8100 8101
8100 8183
8100 8261
8100 8262
8101 8184
8101 8261
8101 8262
8102 8103
8102 8184
8102 8263
8102 8264
8103 8185
8103 8263
8103 8264
8104 8105
8104 8186
8104 8265
8104 8266
8105 8187
8105 8265
8105 8266
8106 8107
8106 8187
8106 8267
8106 8268
8107 8188
8107 8267
8107 8268
8108 8109
8108 8188
8108 8269
8108 8270
8109 8189
8109 8269
8109 8270
8110 8111
8110 8190
8110 8271
8110 8272
8111 8191
8111 8271
8111 8272
8112 8113
8112 8191
8112 8273
8112 8274
8113 8192
8113 8273
8113 8274
8114 8115
8114 8192
8114 8275
8114 8276
8115 8193
8115 8275
8115 8276
8116 8117
8116 8194
8116 8277
8116 8278
8117 8195
8117 8277
8117 8278
8118 8119
8118 8195
8118 8279
8118 8280
8119 8196
8119 8279
8119 8280
8120 8121
8120 8196
8120 8281
8120 8282
8121 8197
8121 8281
8121 8282
8122 8123
8122 8198
8122 8283
8122 8284
8123 8199
8123 8283
8123 8284
8124 8125
8124 8199
8124 8285
8124 8286
8125 8200
8125 8285
8125 8286
8126 8127
8126 8200
8126 8287
8126 8288
8127 8201
8127 8287
8127 8288
8128 8129
8128 8202
8128 8289
8128 8290
8129 8203
8129 8289
8129 8290
8130 8131
8130 8203
8130 8291
8130 8292
8131 8204
8131 8291
8131 8292
8132 8133
8132 8204
8132 8293
8132 8294
8133 8205
8133 8293
8133 8294
8134 8135
8134 8206
8134 8295
8134 8296
8135 8207
8135 8295
8135 8296
8136 8137
8136 8207
8136 8297
8136 8298
8137 8208
8137 8297
8137 8298
8138 8139
8138 8208
8138 8299
8138 8300
8139 8209
8139 8299
8139 8300
8140 8141
8140 8210
8140 8301
8140 8302
8141 8211
8141 8301
8141 8302
8142 8143
8142 8211
8142 8303
8142 8304
8143 8212
8143 8303
8143 8304
8144 8145
8144 8212
8144 8305
8144 8306
8145 8213
8145 8305
8145 8306
8146 8147
8146 8214
8146 8307
8146 8308
8147 8215
8147 8307
8147 8308
8148 8149
8148 8215
8148 8309
8148 8310
8149 8216
8149 8309
8149 8310
8150 8151
8150 8216
8150 8311
8150 8312
8151 8217
8151 8311
8151 8312
8152 8153
8152 8218
8152 8313
8152 8314
8153 8219
8153 8313
8153 8314
8154 8155
8154 8219
8154 8315
8154 8316
8155 8220
8155 8315
8155 8316
8156 8221
8157 8158
8157 8222
8158 8223
8159 8224
8159 8225
8160 8226
8160 8227
8161 8162
8161 8228
8162 8229
8163 8230
8163 8231
8164 8232
8164 8233
8165 8166
8165 8234
8166 8235
8167 8236
8167 8237
8168 8238
8168 8239
8169 8170
8169 8240
8170 8241
8171 8242
8171 8243
8172 8244
8172 8245
8173 8174
8173 8246
8174 8247
8175 8248
8175 8249
8176 8250
8176 8251
8177 8178
8177 8252
8178 8253
8179 8254
8179 8255
8180 8256
8180 8257
8181 8182
8181 8258
8182 8259
8183 8260
8183 8261
8184 8262
8184 8263
8185 8186
8185 8264
8186 8265
8187 8266
8187 8267
8188 8268
8188 8269
8189 8190
8189 8270
8190 8271
8191 8272
8191 8273
8192 8274
8192 8275
8193 8194
8193 8276
8194 8277
8195 8278
8195 8279
8196 8280
8196 8281
8197 8198
8197 8282
8198 8283
8199 8284
8199 8285
8200 8286
8200 8287
8201 8202
8201 8288
8202 8289
8203 8290
8203 8291
8204 8292
8204 8293
8205 8206
8205 8294
8206 8295
8207 8296
8207 8297
8208 8298
8208 8299
8209 8210
8209 8300
8210 8301
8211 8302
8211 8303
8212 8304
8212 8305
8213 8214
8213 8306
8214 8307
8215 8308
8215 8309
8216 8310
8216 8311
8217 8218
8217 8312
8218 8313
8219 8314
8219 8315
8220 8316
8221 8222
8221 8317
8222 8317
8223 8224
8223 8318
8224 8318
8225 8226
8225 8319
8226 8319
8227 8228
8227 8320
8228 8320
8229 8230
8229 8321
8230 8321
8231 8232
8231 8322
8232 8322
8233 8234
8233 8323
8234 8323
8235 8236
8235 8324
8236 8324
8237 8238
8237 8325
8238 8325
8239 8240
8239 8326
8240 8326
8241 8242
8241 8327
8242 8327
8243 8244
8243 8328
8244 8328
8245 8246
8245 8329
8246 8329
8247 8248
8247 8330
8248 8330
8249 8250
8249 8331
8250 8331
8251 8252
8251 8332
8252 8332
8253 8254
8253 8333
8254 8333
8255 8256
8255 8334
8256 8334
8257 8258
8257 8335
8258 8335
8259 8260
8259 8336
8260 8336
8261 8262
8261 8337
8262 8337
8263 8264
8263 8338
8264 8338
8265 8266
8265 8339
8266 8339
8267 8268
8267 8340
8268 8340
8269 8270
8269 8341
8270 8341
8271 8272
8271 8342
8272 8342
8273 8274
8273 8343
8274 8343
8275 8276
8275 8344
8276 8344
8277 8278
8277 8345
8278 8345
8279 8280
8279 8346
8280 8346
8281 8282
8281 8347
8282 8347
8283 8284
8283 8348
8284 8348
8285 8286
8285 8349
8286 8349
8287 8288
8287 8350
8288 8350
8289 8290
8289 8351
8290 8351
8291 8292
8291 8352
8292 8352
8293 8294
8293 8353
8294 8353
8295 8296
8295 8354
8296 8354
8297 8298
8297 8355
8298 8355
8299 8300
8299 8356
8300 8356
8301 8302
8301 8357
8302 8357
8303 8304
8303 8358
8304 8358
8305 8306
8305 8359
8306 8359
8307 8308
8307 8360
8308 8360
8309 8310
8309 8361
8310 8361
8311 8312
8311 8362
8312 8362
8313 8314
8313 8363
8314 8363
8315 8316
8317 8364
8317 8365
8318 8429
8318 8430
8319 8431
8320 8368
8320 8369
8321 8432
8321 8433
8322 8434
8323 8372
8323 8373
8324 8435
8324 8436
8325 8437
8326 8376
8326 8377
8327 8438
8327 8439
8328 8440
8329 8380
8329 8381
8330 8441
8330 8442
8331 8443
8332 8384
8332 8385
8333 8444
8333 8445
8334 8446
8335 8388
8335 8389
8336 8447
8336 8448
8337 8449
8338 8392
8338 8393
8339 8450
8339 8451
8340 8452
8341 8396
8341 8397
8342 8453
8342 8454
8343 8455
8344 8400
8344 8401
8345 8456
8345 8457
8346 8458
8347 8404
8347 8405
8348 8459
8348 8460
8349 8461
8350 8408
8350 8409
8351 8462
8351 8463
8352 8464
8353 8412
8353 8413
8354 8465
8354 8466
8355 8467
8356 8416
8356 8417
8357 8468
8357 8469
8358 8470
8359 8420
8359 8421
8360 8471
8360 8472
8361 8473
8362 8424
8362 8425
8363 8474
8363 8475
8364 8365
8364 8428
8364 8476
8364 8477
8365 8366
8365 8476
8365 8477
8366 8429
8366 8477
8366 8478
8367 8430
8367 8479
8367 8480
8368 8369
8368 8431
8368 8481
8368 8482
8369 8370
8369 8481
8369 8482
8370 8432
8370 8482
8370 8483
8371 8433
8371 8484
8371 8485
8372 8373
8372 8434
8372 8486
8372 8487
8373 8374
8373 8486
8373 8487
8374 8435
8374 8487
8374 8488
8375 8436
8375 8489
8375 8490
8376 8377
8376 8437
8376 8491
8376 8492
8377 8378
8377 8491
8377 8492
8378 8438
8378 8492
8378 8493
8379 8439
8379 8494
8379 8495
8380 8381
8380 8440
8380 8496
8380 8497
8381 8382
8381 8496
8381 8497
8382 8441
8382 8497
8382 8498
8383 8442
8383 8499
8383 8500
8384 8385
8384 8443
8384 8501
8384 8502
8385 8386
8385 8501
8385 8502
8386 8444
8386 8502
8386 8503
8387 8445
8387 8504
8387 8505
8388 8389
8388 8446
8388 8506
8388 8507
8389 8390
8389 8506
8389 8507
8390 8447
8390 8507
8390 8508
8391 8448
8391 8509
8391 8510
8392 8393
8392 8449
8392 8511
8392 8512
8393 8394
8393 8511
8393 8512
8394 8450
8394 8512
8394 8513
8395 8451
8395 8514
8395 8515
8396 8397
8396 8452
8396 8516
8396 8517
8397 8398
8397 8516
8397 8517
8398 8453
8398 8517
8398 8518
8399 8454
8399 8519
8399 8520
8400 8401
8400 8455
8400 8521
8400 8522
8401 8402
8401 8521
8401 8522
8402 8456
8402 8522
8402 8523
8403 8457
8403 8524
8403 8525
8404 8405
8404 8458
8404 8526
8404 8527
8405 8406
8405 8526
8405 8527
8406 8459
8406 8527
8406 8528
8407 8460
8407 8529
8407 8530
8408 8409
8408 8461
8408 8531
8408 8532
8409 8410
8409 8531
8409 8532
8410 8462
8410 8532
8410 8533
8411 8463
8411 8534
8411 8535
8412 8413
8412 8464
8412 8536
8412 8537
8413 8414
8413 8536
8413 8537
8414 8465
8414 8537
8414 8538
8415 8466
8415 8539
8415 8540
8416 8417
8416 8467
8416 8541
8416 8542
8417 8418
8417 8541
8417 8542
8418 8468
8418 8542
8418 8543
8419 8469
8419 8544
8419 8545
8420 8421
8420 8470
8420 8546
8420 8547
8421 8422
8421 8546
8421 8547
8422 8471
8422 8547
8422 8548
8423 8472
8423 8549
8423 8550
8424 8425
8424 8473
8424 8551
8424 8552
8425 8426
8425 8551
8425 8552
8426 8474
8426 8552
8426 8553
8427 8475
8427 8554
8427 8555
8428 8476
8429 8430
8429 8478
8429 8556
8429 8557
8430 8479
8430 8556
8430 8557
8431 8481
8432 8433
8432 8483
8432 8558
8432 8559
8433 8484
8433 8558
8433 8559
8434 8486
8435 8436
8435 8488
8435 8560
8435 8561
8436 8489
8436 8560
8436 8561
8437 8491
8438 8439
8438 8493
8438 8562
8438 8563
8439 8494
8439 8562
8439 8563
8440 8496
8441 8442
8441 8498
8441 8564
8441 8565
8442 8499
8442 8564
8442 8565
8443 8501
8444 8445
8444 8503
8444 8566
8444 8567
8445 8504
8445 8566
8445 8567
8446 8506
8447 8448
8447 8508
8447 8568
8447 8569
8448 8509
8448 8568
8448 8569
8449 8511
8450 8451
8450 8513
8450 8570
8450 8571
8451 8514
8451 8570
8451 8571
8452 8516
8453 8454
8453 8518
8453 8572
8453 8573
8454 8519
8454 8572
8454 8573
8455 8521
8456 8457
8456 8523
8456 8574
8456 8575
8457 8524
8457 8574
8457 8575
8458 8526
8459 8460
8459 8528
8459 8576
8459 8577
8460 8529
8460 8576
8460 8577
8461 8531
8462 8463
8462 8533
8462 8578
8462 8579
8463 8534
8463 8578
8463 8579
8464 8536
8465 8466
8465 8538
8465 8580
8465 8581
8466 8539
8466 8580
8466 8581
8467 8541
8468 8469
8468 8543
8468 8582
8468 8583
8469 8544
8469 8582
8469 8583
8470 8546
8471 8472
8471 8548
8471 8584
8471 8585
8472 8549
8472 8584
8472 8585
8473 8551
8474 8475
8474 8553
8474 8586
8474 8587
8475 8554
8475 8586
8475 8587
8476 8477
8476 8588
8477 8588
8478 8556
8478 8589
8479 8557
8479 8590
8480 8591
8481 8482
8481 8592
8482 8592
8483 8558
8483 8593
8484 8559
8484 8594
8485 8595
8486 8487
8486 8596
8487 8596
8488 8560
8488 8597
8489 8561
8489 8598
8490 8599
8491 8492
8491 8600
8492 8600
8493 8562
8493 8601
8494 8563
8494 8602
8495 8603
8496 8497
8496 8604
8497 8604
8498 8564
8498 8605
8499 8565
8499 8606
8500 8607
8501 8502
8501 8608
8502 8608
8503 8566
8503 8609
8504 8567
8504 8610
8505 8611
8506 8507
8506 8612
8507 8612
8508 8568
8508 8613
8509 8569
8509 8614
8510 8615
8511 8512
8511 8616
8512 8616
8513 8570
8513 8617
8514 8571
8514 8618
8515 8619
8516 8517
8516 8620
8517 8620
8518 8572
8518 8621
8519 8573
8519 8622
8520 8623
8521 8522
8521 8624
8522 8624
8523 8574
8523 8625
8524 8575
8524 8626
8525 8627
8526 8527
8526 8628
8527 8628
8528 8576
8528 8629
8529 8577
8529 8630
8530 8631
8531 8532
8531 8632
8532 8632
8533 8578
8533 8633
8534 8579
8534 8634
8535 8635
8536 8537
8536 8636
8537 8636
8538 8580
8538 8637
8539 8581
8539 8638
8540 8639
8541 8542
8541 8640
8542 8640
8543 8582
8543 8641
8544 8583
8544 8642
8545 8643
8546 8547
8546 8644
8547 8644
8548 8584
8548 8645
8549 8585
8549 8646
8550 8647
8551 8552
8551 8648
8552 8648
8553 8586
8553 8649
8554 8587
8554 8650
8555 8651
8556 8557
8556 8589
8557 8590
8558 8559
8558 8593
8559 8594
8560 8561
8560 8597
8561 8598
8562 8563
8562 8601
8563 8602
8564 8565
8564 8605
8565 8606
8566 8567
8566 8609
8567 8610
8568 8569
8568 8613
8569 8614
8570 8571
8570 8617
8571 8618
8572 8573
8572 8621
8573 8622
8574 8575
8574 8625
8575 8626
8576 8577
8576 8629
8577 8630
8578 8579
8578 8633
8579 8634
8580 8581
8580 8637
8581 8638
8582 8583
8582 8641
8583 8642
8584 8585
8584 8645
8585 8646
8586 8587
8586 8649
8587 8650
8588 8652
8588 8653
8589 8653
8590 8654
8590 8655
8591 8656
8591 8657
8592 8658
8592 8659
8593 8659
8594 8660
8594 8661
8595 8662
8595 8663
8596 8664
8596 8665
8597 8665
8598 8666
8598 8667
8599 8668
8599 8669
8600 8670
8600 8671
8601 8671
8602 8672
8602 8673
8603 8674
8603 8675
8604 8676
8604 8677
8605 8677
8606 8678
8606 8679
8607 8680
8607 8681
8608 8682
8608 8683
8609 8683
8610 8684
8610 8685
8611 8686
8611 8687
8612 8688
8612 8689
8613 8689
8614 8690
8614 8691
8615 8692
8615 8693
8616 8694
8616 8695
8617 8695
8618 8696
8618 8697
8619 8698
8619 8699
8620 8700
8620 8701
8621 8701
8622 8702
8622 8703
8623 8704
8623 8705
8624 8706
8624 8707
8625 8707
8626 8708
8626 8709
8627 8710
8627 8711
8628 8712
8628 8713
8629 8713
8630 8714
8630 8715
8631 8716
8631 8717
8632 8718
8632 8719
8633 8719
8634 8720
8634 8721
8635 8722
8635 8723
8636 8724
8636 8725
8637 8725
8638 8726
8638 8727
8639 8728
8639 8729
8640 8730
8640 8731
8641 8731
8642 8732
8642 8733
8643 8734
8643 8735
8644 8736
8644 8737
8645 8737
8646 8738
8646 8739
8647 8740
8647 8741
8648 8742
8648 8743
8649 8743
8650 8744
8650 8745
8651 8746
8651 8747
8652 8653
8652 8748
8652 8813
8652 8814
8653 8749
8653 8813
8653 8814
8654 8655
8654 8750
8654 8815
8654 8816
8655 8751
8655 8815
8655 8816
8656 8657
8656 8751
8656 8817
8656 8818
8657 8752
8657 8817
8657 8818
8658 8659
8658 8752
8658 8819
8658 8820
8659 8753
8659 8819
8659 8820
8660 8661
8660 8754
8660 8821
8660 8822
8661 8755
8661 8821
8661 8822
8662 8663
8662 8755
8662 8823
8662 8824
8663 8756
8663 8823
8663 8824
8664 8665
8664 8756
8664 8825
8664 8826
8665 8757
8665 8825
8665 8826
8666 8667
8666 8758
8666 8827
8666 8828
8667 8759
8667 8827
8667 8828
8668 8669
8668 8759
8668 8829
8668 8830
8669 8760
8669 8829
8669 8830
8670 8671
8670 8760
8670 8831
8670 8832
8671 8761
8671 8831
8671 8832
8672 8673
8672 8762
8672 8833
8672 8834
8673 8763
8673 8833
8673 8834
8674 8675
8674 8763
8674 8835
8674 8836
8675 8764
8675 8835
8675 8836
8676 8677
8676 8764
8676 8837
8676 8838
8677 8765
8677 8837
8677 8838
8678 8679
8678 8766
8678 8839
8678 8840
8679 8767
8679 8839
8679 8840
8680 8681
8680 8767
8680 8841
8680 8842
8681 8768
8681 8841
8681 8842
8682 8683
8682 8768
8682 8843
8682 8844
8683 8769
8683 8843
8683 8844
8684 8685
8684 8770
8684 8845
8684 8846
8685 8771
8685 8845
8685 8846
8686 8687
8686 8771
8686 8847
8686 8848
8687 8772
8687 8847
8687 8848
8688 8689
8688 8772
8688 8849
8688 8850
8689 8773
8689 8849
8689 8850
8690 8691
8690 8774
8690 8851
8690 8852
8691 8775
8691 8851
8691 8852
8692 8693
8692 8775
8692 8853
8692 8854
8693 8776
8693 8853
8693 8854
8694 8695
8694 8776
8694 8855
8694 8856
8695 8777
8695 8855
8695 8856
8696 8697
8696 8778
8696 8857
8696 8858
8697 8779
8697 8857
8697 8858
8698 8699
8698 8779
8698 8859
8698 8860
8699 8780
8699 8859
8699 8860
8700 8701
8700 8780
8700 8861
8700 8862
8701 8781
8701 8861
8701 8862
8702 8703
8702 8782
8702 8863
8702 8864
8703 8783
8703 8863
8703 8864
8704 8705
8704 8783
8704 8865
8704 8866
8705 8784
8705 8865
8705 8866
8706 8707
8706 8784
8706 8867
8706 8868
8707 8785
8707 8867
8707 8868
8708 8709
8708 8786
8708 8869
8708 8870
8709 8787
8709 8869
8709 8870
8710 8711
8710 8787
8710 8871
8710 8872
8711 8788
8711 8871
8711 8872
8712 8713
8712 8788
8712 8873
8712 8874
8713 8789
8713 8873
8713 8874
8714 8715
8714 8790
8714 8875
8714 8876
8715 8791
8715 8875
8715 8876
8716 8717
8716 8791
8716 8877
8716 8878
8717 8792
8717 8877
8717 8878
8718 8719
8718 8792
8718 8879
8718 8880
8719 8793
8719 8879
8719 8880
8720 8721
8720 8794
8720 8881
8720 8882
8721 8795
8721 8881
8721 8882
8722 8723
8722 8795
8722 8883
8722 8884
8723 8796
8723 8883
8723 8884
8724 8725
8724 8796
8724 8885
8724 8886
8725 8797
8725 8885
8725 8886
8726 8727
8726 8798
8726 8887
8726 8888
8727 8799
8727 8887
8727 8888
8728 8729
8728 8799
8728 8889
8728 8890
8729 8800
8729 8889
8729 8890
8730 8731
8730 8800
8730 8891
8730 8892
8731 8801
8731 8891
8731 8892
8732 8733
8732 8802
8732 8893
8732 8894
8733 8803
8733 8893
8733 8894
8734 8735
8734 8803
8734 8895
8734 8896
8735 8804
8735 8895
8735 8896
8736 8737
8736 8804
8736 8897
8736 8898
8737 8805
8737 8897
8737 8898
8738 8739
8738 8806
8738 8899
8738 8900
8739 8807
8739 8899
8739 8900
8740 8741
8740 8807
8740 8901
8740 8902
8741 8808
8741 8901
8741 8902
8742 8743
8742 8808
8742 8903
8742 8904
8743 8809
8743 8903
8743 8904
8744 8745
8744 8810
8744 8905
8744 8906
8745 8811
8745 8905
8745 8906
8746 8747
8746 8811
8746 8907
8746 8908
8747 8812
8747 8907
8747 8908
8748 8813
8749 8750
8749 8814
8750 8815
8751 8816
8751 8817
8752 8818
8752 8819
8753 8754
8753 8820
8754 8821
8755 8822
8755 8823
8756 8824
8756 8825
8757 8758
8757 8826
8758 8827
8759 8828
8759 8829
8760 8830
8760 8831
8761 8762
8761 8832
8762 8833
8763 8834
8763 8835
8764 8836
8764 8837
8765 8766
8765 8838
8766 8839
8767 8840
8767 8841
8768 8842
8768 8843
8769 8770
8769 8844
8770 8845
8771 8846
8771 8847
8772 8848
8772 8849
8773 8774
8773 8850
8774 8851
8775 8852
8775 8853
8776 8854
8776 8855
8777 8778
8777 8856
8778 8857
8779 8858
8779 8859
8780 8860
8780 8861
8781 8782
8781 8862
8782 8863
8783 8864
8783 8865
8784 8866
8784 8867
8785 8786
8785 8868
8786 8869
8787 8870
8787 8871
8788 8872
8788 8873
8789 8790
8789 8874
8790 8875
8791 8876
8791 8877
8792 8878
8792 8879
8793 8794
8793 8880
8794 8881
8795 8882
8795 8883
8796 8884
8796 8885
8797 8798
8797 8886
8798 8887
8799 8888
8799 8889
8800 8890
8800 8891
8801 8802
8801 8892
8802 8893
8803 8894
8803 8895
8804 8896
8804 8897
8805 8806
8805 8898
8806 8899
8807 8900
8807 8901
8808 8902
8808 8903
8809 8810
8809 8904
8810 8905
8811 8906
8811 8907
8812 8908
8813 8814
8813 8909
8814 8909
8815 8816
8815 8910
8816 8910
8817 8818
8817 8911
8818 8911
8819 8820
8819 8912
8820 8912
8821 8822
8821 8913
8822 8913
8823 8824
8823 8914
8824 8914
8825 8826
8825 8915
8826 8915
8827 8828
8827 8916
8828 8916
8829 8830
8829 8917
8830 8917
8831 8832
8831 8918
8832 8918
8833 8834
8833 8919
8834 8919
8835 8836
8835 8920
8836 8920
8837 8838
8837 8921
8838 8921
8839 8840
8839 8922
8840 8922
8841 8842
8841 8923
8842 8923
8843 8844
8843 8924
8844 8924
8845 8846
8845 8925
8846 8925
8847 8848
8847 8926
8848 8926
8849 8850
8849 8927
8850 8927
8851 8852
8851 8928
8852 8928
8853 8854
8853 8929
8854 8929
8855 8856
8855 8930
8856 8930
8857 8858
8857 8931
8858 8931
8859 8860
8859 8932
8860 8932
8861 8862
8861 8933
8862 8933
8863 8864
8863 8934
8864 8934
8865 8866
8865 8935
8866 8935
8867 8868
8867 8936
8868 8936
8869 8870
8869 8937
8870 8937
8871 8872
8871 8938
8872 8938
8873 8874
8873 8939
8874 8939
8875 8876
8875 8940
8876 8940
8877 8878
8877 8941
8878 8941
8879 8880
8879 8942
8880 8942
8881 8882
8881 8943
8882 8943
8883 8884
8883 8944
8884 8944
8885 8886
8885 8945
8886 8945
8887 8888
8887 8946
8888 8946
8889 8890
8889 8947
8890 8947
8891 8892
8891 8948
8892 8948
8893 8894
8893 8949
8894 8949
8895 8896
8895 8950
8896 8950
8897 8898
8897 8951
8898 8951
8899 8900
8899 8952
8900 8952
8901 8902
8901 8953
8902 8953
8903 8904
8903 8954
8904 8954
8905 8906
8905 8955
8906 8955
8907 8908
8909 8956
8909 8957
8910 9021
8910 9022
8911 9023
8912 8960
8912 8961
8913 9024
8913 9025
8914 9026
8915 8964
8915 8965
8916 9027
8916 9028
8917 9029
8918 8968
8918 8969
8919 9030
8919 9031
8920 9032
8921 8972
8921 8973
8922 9033
8922 9034
8923 9035
8924 8976
8924 8977
8925 9036
8925 9037
8926 9038
8927 8980
8927 8981
8928 9039
8928 9040
8929 9041
8930 8984
8930 8985
8931 9042
8931 9043
8932 9044
8933 8988
8933 8989
8934 9045
8934 9046
8935 9047
8936 8992
8936 8993
8937 9048
8937 9049
8938 9050
8939 8996
8939 8997
8940 9051
8940 9052
8941 9053
8942 9000
8942 9001
8943 9054
8943 9055
8944 9056
8945 9004
8945 9005
8946 9057
8946 9058
8947 9059
8948 9008
8948 9009
8949 9060
8949 9061
8950 9062
8951 9012
8951 9013
8952 9063
8952 9064
8953 9065
8954 9016
8954 9017
8955 9066
8955 9067
8956 8957
8956 9020
8956 9068
8956 9069
8957 8958
8957 9068
8957 9069
8958 9021
8958 9069
8958 9070
8959 9022
8959 9071
8959 9072
8960 8961
8960 9023
8960 9073
8960 9074
8961 8962
8961 9073
8961 9074
8962 9024
8962 9074
8962 9075
8963 9025
8963 9076
8963 9077
8964 8965
8964 9026
8964 9078
8964 9079
8965 8966
8965 9078
8965 9079
8966 9027
8966 9079
8966 9080
8967 9028
8967 9081
8967 9082
8968 8969
8968 9029
8968 9083
8968 9084
8969 8970
8969 9083
8969 9084
8970 9030
8970 9084
8970 9085
8971 9031
8971 9086
8971 9087
8972 8973
8972 9032
8972 9088
8972 9089
8973 8974
8973 9088
8973 9089
8974 9033
8974 9089
8974 9090
8975 9034
8975 9091
8975 9092
8976 8977
8976 9035
8976 9093
8976 9094
8977 8978
8977 9093
8977 9094
8978 9036
8978 9094
8978 9095
8979 9037
8979 9096
8979 9097
8980 8981
8980 9038
8980 9098
8980 9099
8981 8982
8981 9098
8981 9099
8982 9039
8982 9099
8982 9100
8983 9040
8983 9101
8983 9102
8984 8985
8984 9041
8984 9103
8984 9104
8985 8986
8985 9103
8985 9104
8986 9042
8986 9104
8986 9105
8987 9043
8987 9106
8987 9107
8988 8989
8988 9044
8988 9108
8988 9109
8989 8990
8989 9108
8989 9109
8990 9045
8990 9109
8990 9110
8991 9046
8991 9111
8991 9112
8992 8993
8992 9047
8992 9113
8992 9114
8993 8994
8993 9113
8993 9114
8994 9048
8994 9114
8994 9115
8995 9049
8995 9116
8995 9117
8996 8997
8996 9050
8996 9118
8996 9119
8997 8998
8997 9118
8997 9119
8998 9051
8998 9119
8998 9120
8999 9052
8999 9121
8999 9122
9000 9001
9000 9053
9000 9123
9000 9124
9001 9002
9001 9123
9001 9124
9002 9054
9002 9124
9002 9125
9003 9055
9003 9126
9003 9127
9004 9005
9004 9056
9004 9128
9004 9129
9005 9006
9005 9128
9005 9129
9006 9057
9006 9129
9006 9130
9007 9058
9007 9131
9007 9132
9008 9009
9008 9059
9008 9133
9008 9134
9009 9010
9009 9133
9009 9134
9010 9060
9010 9134
9010 9135
9011 9061
9011 9136
9011 9137
9012 9013
9012 9062
9012 9138
9012 9139
9013 9014
9013 9138
9013 9139
9014 9063
9014 9139
9014 9140
9015 9064
9015 9141
9015 9142
9016 9017
9016 9065
9016 9143
9016 9144
9017 9018
9017 9143
9017 9144
9018 9066
9018 9144
9018 9145
9019 9067
9019 9146
9019 9147
9020 9068
9021 9022
9021 9070
9021 9148
9021 9149
9022 9071
9022 9148
9022 9149
9023 9073
9024 9025
9024 9075
9024 9150
9024 9151
9025 9076
9025 9150
9025 9151
9026 9078
9027 9028
9027 9080
9027 9152
9027 9153
9028 9081
9028 9152
9028 9153
9029 9083
9030 9031
9030 9085
9030 9154
9030 9155
9031 9086
9031 9154
9031 9155
9032 9088
9033 9034
9033 9090
9033 9156
9033 9157
9034 9091
9034 9156
9034 9157
9035 9093
9036 9037
9036 9095
9036 9158
9036 9159
9037 9096
9037 9158
9037 9159
9038 9098
9039 9040
9039 9100
9039 9160
9039 9161
9040 9101
9040 9160
9040 9161
9041 9103
9042 9043
9042 9105
9042 9162
9042 9163
9043 9106
9043 9162
9043 9163
9044 9108
9045 9046
9045 9110
9045 9164
9045 9165
9046 9111
9046 9164
9046 9165
9047 9113
9048 9049
9048 9115
9048 9166
9048 9167
9049 9116
9049 9166
9049 9167
9050 9118
9051 9052
9051 9120
9051 9168
9051 9169
9052 9121
9052 9168
9052 9169
9053 9123
9054 9055
9054 9125
9054 9170
9054 9171
9055 9126
9055 9170
9055 9171
9056 9128
9057 9058
9057 9130
9057 9172
9057 9173
9058 9131
9058 9172
9058 9173
9059 9133
9060 9061
9060 9135
9060 9174
9060 9175
9061 9136
9061 9174
9061 9175
9062 9138
9063 9064
9063 9140
9063 9176
9063 9177
9064 9141
9064 9176
9064 9177
9065 9143
9066 9067
9066 9145
9066 9178
9066 9179
9067 9146
9067 9178
9067 9179
9068 9069
9068 9180
9069 9180
9070 9148
9070 9181
9071 9149
9071 9182
9072 9183
9073 9074
9073 9184
9074 9184
9075 9150
9075 9185
9076 9151
9076 9186
9077 9187
9078 9079
9078 9188
9079 9188
9080 9152
9080 9189
9081 9153
9081 9190
9082 9191
9083 9084
9083 9192
9084 9192
9085 9154
9085 9193
9086 9155
9086 9194
9087 9195
9088 9089
9088 9196
9089 9196
9090 9156
9090 9197
9091 9157
9091 9198
9092 9199
9093 9094
9093 9200
9094 9200
9095 9158
9095 9201
9096 9159
9096 9202
9097 9203
9098 9099
9098 9204
9099 9204
9100 9160
9100 9205
9101 9161
9101 9206
9102 9207
9103 9104
9103 9208
9104 9208
9105 9162
9105 9209
9106 9163
9106 9210
9107 9211
9108 9109
9108 9212
9109 9212
9110 9164
9110 9213
9111 9165
9111 9214
9112 9215
9113 9114
9113 9216
9114 9216
9115 9166
9115 9217
9116 9167
9116 9218
9117 9219
9118 9119
9118 9220
9119 9220
9120 9168
9120 9221
9121 9169
9121 9222
9122 9223
9123 9124
9123 9224
9124 9224
9125 9170
9125 9225
9126 9171
9126 9226
9127 9227
9128 9129
9128 9228
9129 9228
9130 9172
9130 9229
9131 9173
9131 9230
9132 9231
9133 9134
9133 9232
9134 9232
9135 9174
9135 9233
9136 9175
9136 9234
9137 9235
9138 9139
9138 9236
9139 9236
9140 9176
9140 9237
9141 9177
9141 9238
9142 9239
9143 9144
9143 9240
9144 9240
9145 9178
9145 9241
9146 9179
9146 9242
9147 9243
9148 9149
9148 9181
9149 9182
9150 9151
9150 9185
9151 9186
9152 9153
9152 9189
9153 9190
9154 9155
9154 9193
9155 9194
9156 9157
9156 9197
9157 9198
9158 9159
9158 9201
9159 9202
9160 9161
9160 9205
9161 9206
9162 9163
9162 9209
9163 9210
9164 9165
9164 9213
9165 9214
9166 9167
9166 9217
9167 9218
9168 9169
9168 9221
9169 9222
9170 9171
9170 9225
9171 9226
9172 9173
9172 9229
9173 9230
9174 9175
9174 9233
9175 9234
9176 9177
9176 9237
9177 9238
9178 9179
9178 9241
9179 9242
9180 9244
9180 9245
9181 9245
9182 9246
9182 9247
9183 9248
9183 9249
9184 9250
9184 9251
9185 9251
9186 9252
9186 9253
9187 9254
9187 9255
9188 9256
9188 9257
9189 9257
9190 9258
9190 9259
9191 9260
9191 9261
9192 9262
9192 9263
9193 9263
9194 9264
9194 9265
9195 9266
9195 9267
9196 9268
9196 9269
9197 9269
9198 9270
9198 9271
9199 9272
9199 9273
9200 9274
9200 9275
9201 9275
9202 9276
9202 9277
9203 9278
9203 9279
9204 9280
9204 9281
9205 9281
9206 9282
9206 9283
9207 9284
9207 9285
9208 9286
9208 9287
9209 9287
9210 9288
9210 9289
9211 9290
9211 9291
9212 9292
9212 9293
9213 9293
9214 9294
9214 9295
9215 9296
9215 9297
9216 9298
9216 9299
9217 9299
9218 9300
9218 9301
9219 9302
9219 9303
9220 9304
9220 9305
9221 9305
9222 9306
9222 9307
9223 9308
9223 9309
9224 9310
9224 9311
9225 9311
9226 9312
9226 9313
9227 9314
9227 9315
9228 9316
9228 9317
9229 9317
9230 9318
9230 9319
9231 9320
9231 9321
9232 9322
9232 9323
9233 9323
9234 9324
9234 9325
9235 9326
9235 9327
9236 9328
9236 9329
9237 9329
9238 9330
9238 9331
9239 9332
9239 9333
9240 9334
9240 9335
9241 9335
9242 9336
9242 9337
9243 9338
9243 9339
9244 9245
9244 9340
9244 9405
9244 9406
9245 9341
9245 9405
9245 9406
9246 9247
9246 9342
9246 9407
9246 9408
9247 9343
9247 9407
9247 9408
9248 9249
9248 9343
9249 9344
9250 9251
9250 9344
9250 9409
9250 9410
9251 9345
9251 9409
9251 9410
9252 9253
9252 9346
9252 9411
9252 9412
9253 9347
9253 9411
9253 9412
9254 9255
9254 9347
9255 9348
9256 9257
9256 9348
9256 9413
9256 9414
9257 9349
9257 9413
9257 9414
9258 9259
9258 9350
9258 9415
9258 9416
9259 9351
9259 9415
9259 9416
9260 9261
9260 9351
9260 9417
9260 9418
9261 9352
9261 9417
9261 9418
9262 9263
9262 9352
9262 9419
9262 9420
9263 9353
9263 9419
9263 9420
9264 9265
9264 9354
9264 9421
9264 9422
9265 9355
9265 9421
9265 9422
9266 9267
9266 9355
9266 9423
9266 9424
9267 9356
9267 9423
9267 9424
9268 9269
9268 9356
9268 9425
9268 9426
9269 9357
9269 9425
9269 9426
9270 9271
9270 9358
9270 9427
9270 9428
9271 9359
9271 9427
9271 9428
9272 9273
9272 9359
9273 9360
9274 9275
9274 9360
9274 9429
9274 9430
9275 9361
9275 9429
9275 9430
9276 9277
9276 9362
9276 9431
9276 9432
9277 9363
9277 9431
9277 9432
9278 9279
9278 9363
9278 9433
9278 9434
9279 9364
9279 9433
9279 9434
9280 9281
9280 9364
9280 9435
9280 9436
9281 9365
9281 9435
9281 9436
9282 9283
9282 9366
9282 9437
9282 9438
9283 9367
9283 9437
9283 9438
9284 9285
9284 9367
9285 9368
9286 9287
9286 9368
9286 9439
9286 9440
9287 9369
9287 9439
9287 9440
9288 9289
9288 9370
9288 9441
9288 9442
9289 9371
9289 9441
9289 9442
9290 9291
9290 9371
9290 9443
9290 9444
9291 9372
9291 9443
9291 9444
9292 9293
9292 9372
9292 9445
9292 9446
9293 9373
9293 9445
9293 9446
9294 9295
9294 9374
9294 9447
9294 9448
9295 9375
9295 9447
9295 9448
9296 9297
9296 9375
9297 9376
9298 9299
9298 9376
9298 9449
9298 9450
9299 9377
9299 9449
9299 9450
9300 9301
9300 9378
9300 9451
9300 9452
9301 9379
9301 9451
9301 9452
9302 9303
9302 9379
9303 9380
9304 9305
9304 9380
9304 9453
9304 9454
9305 9381
9305 9453
9305 9454
9306 9307
9306 9382
9306 9455
9306 9456
9307 9383
9307 9455
9307 9456
9308 9309
9308 9383
9309 9384
9310 9311
9310 9384
9310 9457
9310 9458
9311 9385
9311 9457
9311 9458
9312 9313
9312 9386
9312 9459
9312 9460
9313 9387
9313 9459
9313 9460
9314 9315
9314 9387
9314 9461
9314 9462
9315 9388
9315 9461
9315 9462
9316 9317
9316 9388
9316 9463
9316 9464
9317 9389
9317 9463
9317 9464
9318 9319
9318 9390
9318 9465
9318 9466
9319 9391
9319 9465
9319 9466
9320 9321
9320 9391
9320 9467
9320 9468
9321 9392
9321 9467
9321 9468
9322 9323
9322 9392
9322 9469
9322 9470
9323 9393
9323 9469
9323 9470
9324 9325
9324 9394
9324 9471
9324 9472
9325 9395
9325 9471
9325 9472
9326 9327
9326 9395
9327 9396
9328 9329
9328 9396
9328 9473
9328 9474
9329 9397
9329 9473
9329 9474
9330 9331
9330 9398
9330 9475
9330 9476
9331 9399
9331 9475
9331 9476
9332 9333
9332 9399
9332 9477
9332 9478
9333 9400
9333 9477
9333 9478
9334 9335
9334 9400
9334 9479
9334 9480
9335 9401
9335 9479
9335 9480
9336 9337
9336 9402
9336 9481
9336 9482
9337 9403
9337 9481
9337 9482
9338 9339
9338 9403
9338 9483
9338 9484
9339 9404
9339 9483
9339 9484
9340 9405
9341 9342
9341 9406
9342 9407
9343 9408
9344 9409
9345 9346
9345 9410
9346 9411
9347 9412
9348 9413
9349 9350
9349 9414
9350 9415
9351 9416
9351 9417
9352 9418
9352 9419
9353 9354
9353 9420
9354 9421
9355 9422
9355 9423
9356 9424
9356 9425
9357 9358
9357 9426
9358 9427
9359 9428
9360 9429
9361 9362
9361 9430
9362 9431
9363 9432
9363 9433
9364 9434
9364 9435
9365 9366
9365 9436
9366 9437
9367 9438
9368 9439
9369 9370
9369 9440
9370 9441
9371 9442
9371 9443
9372 9444
9372 9445
9373 9374
9373 9446
9374 9447
9375 9448
9376 9449
9377 9378
9377 9450
9378 9451
9379 9452
9380 9453
9381 9382
9381 9454
9382 9455
9383 9456
9384 9457
9385 9386
9385 9458
9386 9459
9387 9460
9387 9461
9388 9462
9388 9463
9389 9390
9389 9464
9390 9465
9391 9466
9391 9467
9392 9468
9392 9469
9393 9394
9393 9470
9394 9471
9395 9472
9396 9473
9397 9398
9397 9474
9398 9475
9399 9476
9399 9477
9400 9478
9400 9479
9401 9402
9401 9480
9402 9481
9403 9482
9403 9483
9404 9484
9405 9406
9405 9485
9406 9485
9407 9408
9409 9410
9409 9486
9410 9486
9411 9412
9413 9414
9413 9487
9414 9487
9415 9416
9417 9418
9419 9420
9419 9488
9420 9488
9421 9422
9423 9424
9425 9426
9425 9489
9426 9489
9427 9428
9429 9430
9429 9490
9430 9490
9431 9432
9433 9434
9435 9436
9435 9491
9436 9491
9437 9438
9439 9440
9439 9492
9440 9492
9441 9442
9443 9444
9445 9446
9445 9493
9446 9493
9447 9448
9449 9450
9449 9494
9450 9494
9451 9452
9453 9454
9453 9495
9454 9495
9455 9456
9457 9458
9457 9496
9458 9496
9459 9460
9461 9462
9463 9464
9463 9497
9464 9497
9465 9466
9467 9468
9469 9470
9469 9498
9470 9498
9471 9472
9473 9474
9473 9499
9474 9499
9475 9476
9477 9478
9479 9480
9479 9500
9480 9500
9481 9482
9483 9484
