# Factoring MIS graph
n = 4075674079
n1 = 64793
n2 = 62903
k1 = 16
k2 = 16
seed = 5
type = fact_map

vertices: 9486

weights:
0 2.0
1 2.0
2 2.0
3 2.0
4 2.0
5 2.0
6 2.0
7 2.0
8 2.0
9 2.0
10 2.0
11 2.0
12 2.0
13 2.0
14 2.0
15 2.0
16 2.0
17 2.0
18 2.0
19 2.0
20 2.0
21 2.0
22 2.0
23 2.0
24 2.0
25 2.0
26 2.0
27 2.0
28 2.0
29 2.0
30 2.0
31 2.0
32 2.0
33 2.0
34 2.0
35 2.0
36 2.0
37 2.0
38 2.0
39 2.0
40 2.0
41 2.0
42 2.0
43 2.0
44 2.0
45 1.0
46 2.0
47 2.0
48 1.0
49 2.0
50 2.0
51 1.0
52 2.0
53 2.0
54 1.0
55 2.0
56 2.0
57 1.0
58 2.0
59 2.0
60 1.0
61 2.0
62 2.0
63 1.0
64 2.0
65 2.0
66 1.0
67 2.0
68 2.0
69 1.0
70 2.0
71 2.0
72 1.0
73 2.0
74 2.0
75 1.0
76 2.0
77 2.0
78 1.0
79 2.0
80 2.0
81 1.0
82 2.0
83 2.0
84 1.0
85 2.0
86 2.0
87 1.0
88 2.0
89 2.0
90 1.0
91 3.0
92 3.0
93 2.0
94 2.0
95 3.0
96 3.0
97 2.0
98 2.0
99 3.0
100 3.0
101 2.0
102 2.0
103 3.0
104 3.0
105 2.0
106 2.0
107 3.0
108 3.0
109 2.0
110 2.0
111 3.0
112 3.0
113 2.0
114 2.0
115 3.0
116 3.0
117 2.0
118 2.0
119 3.0
120 3.0
121 2.0
122 2.0
123 3.0
124 3.0
125 2.0
126 2.0
127 3.0
128 3.0
129 2.0
130 2.0
131 3.0
132 3.0
133 2.0
134 2.0
135 3.0
136 3.0
137 2.0
138 2.0
139 3.0
140 3.0
141 2.0
142 2.0
143 3.0
144 3.0
145 2.0
146 2.0
147 3.0
148 3.0
149 2.0
150 2.0
151 3.0
152 3.0
153 2.0
154 2.0
155 2.0
156 3.0
157 3.0
158 2.0
159 3.0
160 3.0
161 2.0
162 3.0
163 3.0
164 2.0
165 3.0
166 3.0
167 2.0
168 3.0
169 3.0
170 2.0
171 3.0
172 3.0
173 2.0
174 3.0
175 3.0
176 2.0
177 3.0
178 3.0
179 2.0
180 3.0
181 3.0
182 2.0
183 3.0
184 3.0
185 2.0
186 3.0
187 3.0
188 2.0
189 3.0
190 3.0
191 2.0
192 3.0
193 3.0
194 2.0
195 3.0
196 3.0
197 2.0
198 3.0
199 3.0
200 2.0
201 3.0
202 3.0
203 2.0
204 2.0
205 2.0
206 3.0
207 3.0
208 2.0
209 2.0
210 2.0
211 3.0
212 3.0
213 2.0
214 2.0
215 2.0
216 3.0
217 3.0
218 2.0
219 2.0
220 2.0
221 3.0
222 3.0
223 2.0
224 2.0
225 2.0
226 3.0
227 3.0
228 2.0
229 2.0
230 2.0
231 3.0
232 3.0
233 2.0
234 2.0
235 2.0
236 3.0
237 3.0
238 2.0
239 2.0
240 2.0
241 3.0
242 3.0
243 2.0
244 2.0
245 2.0
246 3.0
247 3.0
248 2.0
249 2.0
250 2.0
251 3.0
252 3.0
253 2.0
254 2.0
255 2.0
256 3.0
257 3.0
258 2.0
259 2.0
260 2.0
261 3.0
262 3.0
263 2.0
264 2.0
265 2.0
266 3.0
267 3.0
268 2.0
269 2.0
270 2.0
271 3.0
272 3.0
273 2.0
274 2.0
275 2.0
276 3.0
277 3.0
278 2.0
279 2.0
280 2.0
281 2.0
282 2.0
283 2.0
284 2.0
285 2.0
286 2.0
287 2.0
288 2.0
289 2.0
290 2.0
291 2.0
292 2.0
293 2.0
294 2.0
295 2.0
296 2.0
297 2.0
298 2.0
299 2.0
300 2.0
301 2.0
302 2.0
303 2.0
304 2.0
305 2.0
306 2.0
307 2.0
308 2.0
309 2.0
310 2.0
311 2.0
312 2.0
313 2.0
314 2.0
315 2.0
316 2.0
317 2.0
318 2.0
319 2.0
320 2.0
321 2.0
322 2.0
323 2.0
324 2.0
325 2.0
326 2.0
327 2.0
328 2.0
329 2.0
330 2.0
331 2.0
332 2.0
333 2.0
334 2.0
335 2.0
336 2.0
337 2.0
338 2.0
339 2.0
340 2.0
341 2.0
342 2.0
343 2.0
344 2.0
345 2.0
346 2.0
347 2.0
348 2.0
349 2.0
350 2.0
351 2.0
352 2.0
353 2.0
354 2.0
355 2.0
356 2.0
357 2.0
358 2.0
359 2.0
360 2.0
361 2.0
362 2.0
363 2.0
364 2.0
365 2.0
366 2.0
367 2.0
368 2.0
369 2.0
370 2.0
371 2.0
372 2.0
373 2.0
374 2.0
375 2.0
376 2.0
377 3.0
378 4.0
379 3.0
380 3.0
381 3.0
382 3.0
383 3.0
384 4.0
385 3.0
386 3.0
387 3.0
388 3.0
389 3.0
390 4.0
391 3.0
392 3.0
393 3.0
394 3.0
395 3.0
396 4.0
397 3.0
398 3.0
399 3.0
400 3.0
401 3.0
402 4.0
403 3.0
404 3.0
405 3.0
406 3.0
407 3.0
408 4.0
409 3.0
410 3.0
411 3.0
412 3.0
413 3.0
414 4.0
415 3.0
416 3.0
417 3.0
418 3.0
419 3.0
420 4.0
421 3.0
422 3.0
423 3.0
424 3.0
425 3.0
426 4.0
427 3.0
428 3.0
429 3.0
430 3.0
431 3.0
432 4.0
433 3.0
434 3.0
435 3.0
436 3.0
437 3.0
438 4.0
439 3.0
440 3.0
441 3.0
442 3.0
443 3.0
444 4.0
445 3.0
446 3.0
447 3.0
448 3.0
449 3.0
450 4.0
451 3.0
452 3.0
453 3.0
454 3.0
455 3.0
456 4.0
457 3.0
458 3.0
459 3.0
460 3.0
461 3.0
462 4.0
463 3.0
464 3.0
465 3.0
466 3.0
467 3.0
468 4.0
469 3.0
470 3.0
471 3.0
472 3.0
473 1.0
474 2.0
475 2.0
476 2.0
477 2.0
478 2.0
479 2.0
480 2.0
481 2.0
482 2.0
483 2.0
484 2.0
485 2.0
486 2.0
487 2.0
488 2.0
489 2.0
490 2.0
491 2.0
492 2.0
493 2.0
494 2.0
495 2.0
496 2.0
497 2.0
498 2.0
499 2.0
500 2.0
501 2.0
502 2.0
503 2.0
504 2.0
505 2.0
506 2.0
507 2.0
508 2.0
509 2.0
510 2.0
511 2.0
512 2.0
513 2.0
514 2.0
515 2.0
516 2.0
517 2.0
518 2.0
519 2.0
520 2.0
521 2.0
522 2.0
523 2.0
524 2.0
525 2.0
526 2.0
527 2.0
528 2.0
529 2.0
530 2.0
531 2.0
532 2.0
533 2.0
534 2.0
535 2.0
536 2.0
537 1.0
538 3.0
539 3.0
540 3.0
541 3.0
542 3.0
543 3.0
544 3.0
545 3.0
546 3.0
547 3.0
548 3.0
549 3.0
550 3.0
551 3.0
552 3.0
553 3.0
554 3.0
555 3.0
556 3.0
557 3.0
558 3.0
559 3.0
560 3.0
561 3.0
562 3.0
563 3.0
564 3.0
565 3.0
566 3.0
567 3.0
568 3.0
569 3.0
570 3.0
571 3.0
572 3.0
573 3.0
574 3.0
575 3.0
576 3.0
577 3.0
578 3.0
579 3.0
580 3.0
581 3.0
582 3.0
583 3.0
584 3.0
585 3.0
586 3.0
587 3.0
588 3.0
589 3.0
590 3.0
591 3.0
592 3.0
593 3.0
594 3.0
595 3.0
596 3.0
597 3.0
598 3.0
599 3.0
600 3.0
601 3.0
602 3.0
603 3.0
604 3.0
605 3.0
606 3.0
607 3.0
608 3.0
609 3.0
610 3.0
611 3.0
612 3.0
613 3.0
614 3.0
615 3.0
616 3.0
617 3.0
618 3.0
619 3.0
620 3.0
621 3.0
622 3.0
623 3.0
624 3.0
625 3.0
626 3.0
627 3.0
628 3.0
629 3.0
630 3.0
631 3.0
632 2.0
633 2.0
634 2.0
635 2.0
636 2.0
637 2.0
638 2.0
639 2.0
640 2.0
641 2.0
642 2.0
643 2.0
644 2.0
645 2.0
646 2.0
647 2.0
648 2.0
649 2.0
650 2.0
651 2.0
652 2.0
653 2.0
654 2.0
655 2.0
656 2.0
657 2.0
658 2.0
659 2.0
660 2.0
661 2.0
662 2.0
663 2.0
664 2.0
665 2.0
666 2.0
667 2.0
668 2.0
669 2.0
670 2.0
671 2.0
672 2.0
673 2.0
674 2.0
675 2.0
676 2.0
677 2.0
678 2.0
679 3.0
680 3.0
681 2.0
682 2.0
683 3.0
684 3.0
685 2.0
686 2.0
687 3.0
688 3.0
689 2.0
690 2.0
691 3.0
692 3.0
693 2.0
694 2.0
695 3.0
696 3.0
697 2.0
698 2.0
699 3.0
700 3.0
701 2.0
702 2.0
703 3.0
704 3.0
705 2.0
706 2.0
707 3.0
708 3.0
709 2.0
710 2.0
711 3.0
712 3.0
713 2.0
714 2.0
715 3.0
716 3.0
717 2.0
718 2.0
719 3.0
720 3.0
721 2.0
722 2.0
723 3.0
724 3.0
725 2.0
726 2.0
727 3.0
728 3.0
729 2.0
730 2.0
731 3.0
732 3.0
733 2.0
734 2.0
735 3.0
736 3.0
737 2.0
738 2.0
739 3.0
740 3.0
741 2.0
742 2.0
743 2.0
744 3.0
745 3.0
746 2.0
747 3.0
748 3.0
749 2.0
750 3.0
751 3.0
752 2.0
753 3.0
754 3.0
755 2.0
756 3.0
757 3.0
758 2.0
759 3.0
760 3.0
761 2.0
762 3.0
763 3.0
764 2.0
765 3.0
766 3.0
767 2.0
768 3.0
769 3.0
770 2.0
771 3.0
772 3.0
773 2.0
774 3.0
775 3.0
776 2.0
777 3.0
778 3.0
779 2.0
780 3.0
781 3.0
782 2.0
783 3.0
784 3.0
785 2.0
786 3.0
787 3.0
788 2.0
789 3.0
790 3.0
791 3.0
792 3.0
793 2.0
794 2.0
795 2.0
796 3.0
797 3.0
798 2.0
799 2.0
800 2.0
801 3.0
802 3.0
803 2.0
804 2.0
805 2.0
806 3.0
807 3.0
808 2.0
809 2.0
810 2.0
811 3.0
812 3.0
813 2.0
814 2.0
815 2.0
816 3.0
817 3.0
818 2.0
819 2.0
820 2.0
821 3.0
822 3.0
823 2.0
824 2.0
825 2.0
826 3.0
827 3.0
828 2.0
829 2.0
830 2.0
831 3.0
832 3.0
833 2.0
834 2.0
835 2.0
836 3.0
837 3.0
838 2.0
839 2.0
840 2.0
841 3.0
842 3.0
843 2.0
844 2.0
845 2.0
846 3.0
847 3.0
848 2.0
849 2.0
850 2.0
851 3.0
852 3.0
853 2.0
854 2.0
855 2.0
856 3.0
857 3.0
858 2.0
859 2.0
860 2.0
861 3.0
862 3.0
863 2.0
864 2.0
865 2.0
866 3.0
867 3.0
868 2.0
869 2.0
870 2.0
871 2.0
872 2.0
873 2.0
874 2.0
875 2.0
876 2.0
877 2.0
878 2.0
879 2.0
880 2.0
881 2.0
882 2.0
883 2.0
884 2.0
885 2.0
886 2.0
887 2.0
888 2.0
889 2.0
890 2.0
891 2.0
892 2.0
893 2.0
894 2.0
895 2.0
896 2.0
897 2.0
898 2.0
899 2.0
900 2.0
901 2.0
902 2.0
903 2.0
904 2.0
905 2.0
906 2.0
907 2.0
908 2.0
909 2.0
910 2.0
911 2.0
912 2.0
913 2.0
914 2.0
915 2.0
916 2.0
917 2.0
918 2.0
919 2.0
920 2.0
921 2.0
922 2.0
923 2.0
924 2.0
925 2.0
926 2.0
927 2.0
928 2.0
929 2.0
930 2.0
931 2.0
932 2.0
933 2.0
934 2.0
935 2.0
936 2.0
937 2.0
938 2.0
939 2.0
940 2.0
941 2.0
942 2.0
943 2.0
944 2.0
945 2.0
946 2.0
947 2.0
948 2.0
949 2.0
950 2.0
951 2.0
952 2.0
953 2.0
954 2.0
955 2.0
956 2.0
957 2.0
958 2.0
959 2.0
960 2.0
961 2.0
962 2.0
963 2.0
964 2.0
965 2.0
966 2.0
967 3.0
968 4.0
969 3.0
970 3.0
971 3.0
972 3.0
973 3.0
974 4.0
975 3.0
976 3.0
977 3.0
978 3.0
979 3.0
980 4.0
981 3.0
982 3.0
983 3.0
984 3.0
985 3.0
986 4.0
987 3.0
988 3.0
989 3.0
990 3.0
991 3.0
992 4.0
993 3.0
994 3.0
995 3.0
996 3.0
997 3.0
998 4.0
999 3.0
1000 3.0
1001 3.0
1002 3.0
1003 3.0
1004 4.0
1005 3.0
1006 3.0
1007 3.0
1008 3.0
1009 3.0
1010 4.0
1011 3.0
1012 3.0
1013 3.0
1014 3.0
1015 3.0
1016 4.0
1017 3.0
1018 3.0
1019 3.0
1020 3.0
1021 3.0
1022 4.0
1023 3.0
1024 3.0
1025 3.0
1026 3.0
1027 3.0
1028 4.0
1029 3.0
1030 3.0
1031 3.0
1032 3.0
1033 3.0
1034 4.0
1035 3.0
1036 3.0
1037 3.0
1038 3.0
1039 3.0
1040 4.0
1041 3.0
1042 3.0
1043 3.0
1044 3.0
1045 3.0
1046 4.0
1047 3.0
1048 3.0
1049 3.0
1050 3.0
1051 3.0
1052 4.0
1053 3.0
1054 3.0
1055 3.0
1056 3.0
1057 3.0
1058 4.0
1059 3.0
1060 3.0
1061 3.0
1062 3.0
1063 1.0
1064 2.0
1065 2.0
1066 2.0
1067 2.0
1068 2.0
1069 2.0
1070 2.0
1071 2.0
1072 2.0
1073 2.0
1074 2.0
1075 2.0
1076 2.0
1077 2.0
1078 2.0
1079 2.0
1080 2.0
1081 2.0
1082 2.0
1083 2.0
1084 2.0
1085 2.0
1086 2.0
1087 2.0
1088 2.0
1089 2.0
1090 2.0
1091 2.0
1092 2.0
1093 2.0
1094 2.0
1095 2.0
1096 2.0
1097 2.0
1098 2.0
1099 2.0
1100 2.0
1101 2.0
1102 2.0
1103 2.0
1104 2.0
1105 2.0
1106 2.0
1107 2.0
1108 2.0
1109 2.0
1110 2.0
1111 2.0
1112 2.0
1113 2.0
1114 2.0
1115 2.0
1116 2.0
1117 2.0
1118 2.0
1119 2.0
1120 2.0
1121 2.0
1122 2.0
1123 2.0
1124 2.0
1125 2.0
1126 2.0
1127 1.0
1128 3.0
1129 3.0
1130 3.0
1131 3.0
1132 3.0
1133 3.0
1134 3.0
1135 3.0
1136 3.0
1137 3.0
1138 3.0
1139 3.0
1140 3.0
1141 3.0
1142 3.0
1143 3.0
1144 3.0
1145 3.0
1146 3.0
1147 3.0
1148 3.0
1149 3.0
1150 3.0
1151 3.0
1152 3.0
1153 3.0
1154 3.0
1155 3.0
1156 3.0
1157 3.0
1158 3.0
1159 3.0
1160 3.0
1161 3.0
1162 3.0
1163 3.0
1164 3.0
1165 3.0
1166 3.0
1167 3.0
1168 3.0
1169 3.0
1170 3.0
1171 3.0
1172 3.0
1173 3.0
1174 3.0
1175 3.0
1176 3.0
1177 3.0
1178 3.0
1179 3.0
1180 3.0
1181 3.0
1182 3.0
1183 3.0
1184 3.0
1185 3.0
1186 3.0
1187 3.0
1188 3.0
1189 3.0
1190 3.0
1191 3.0
1192 3.0
1193 3.0
1194 3.0
1195 3.0
1196 3.0
1197 3.0
1198 3.0
1199 3.0
1200 3.0
1201 3.0
1202 3.0
1203 3.0
1204 3.0
1205 3.0
1206 3.0
1207 3.0
1208 3.0
1209 3.0
1210 3.0
1211 3.0
1212 3.0
1213 3.0
1214 3.0
1215 3.0
1216 3.0
1217 3.0
1218 3.0
1219 3.0
1220 3.0
1221 3.0
1222 2.0
1223 2.0
1224 2.0
1225 2.0
1226 2.0
1227 2.0
1228 2.0
1229 2.0
1230 2.0
1231 2.0
1232 2.0
1233 2.0
1234 2.0
1235 2.0
1236 2.0
1237 2.0
1238 2.0
1239 2.0
1240 2.0
1241 2.0
1242 2.0
1243 2.0
1244 2.0
1245 2.0
1246 2.0
1247 2.0
1248 2.0
1249 2.0
1250 2.0
1251 2.0
1252 2.0
1253 2.0
1254 2.0
1255 2.0
1256 2.0
1257 2.0
1258 2.0
1259 2.0
1260 2.0
1261 2.0
1262 2.0
1263 2.0
1264 2.0
1265 2.0
1266 2.0
1267 2.0
1268 2.0
1269 3.0
1270 3.0
1271 2.0
1272 2.0
1273 3.0
1274 3.0
1275 2.0
1276 2.0
1277 3.0
1278 3.0
1279 2.0
1280 2.0
1281 3.0
1282 3.0
1283 2.0
1284 2.0
1285 3.0
1286 3.0
1287 2.0
1288 2.0
1289 3.0
1290 3.0
1291 2.0
1292 2.0
1293 3.0
1294 3.0
1295 2.0
1296 2.0
1297 3.0
1298 3.0
1299 2.0
1300 2.0
1301 3.0
1302 3.0
1303 2.0
1304 2.0
1305 3.0
1306 3.0
1307 2.0
1308 2.0
1309 3.0
1310 3.0
1311 2.0
1312 2.0
1313 3.0
1314 3.0
1315 2.0
1316 2.0
1317 3.0
1318 3.0
1319 2.0
1320 2.0
1321 3.0
1322 3.0
1323 2.0
1324 2.0
1325 3.0
1326 3.0
1327 2.0
1328 2.0
1329 3.0
1330 3.0
1331 2.0
1332 2.0
1333 2.0
1334 3.0
1335 3.0
1336 2.0
1337 3.0
1338 3.0
1339 2.0
1340 3.0
1341 3.0
1342 2.0
1343 3.0
1344 3.0
1345 2.0
1346 3.0
1347 3.0
1348 2.0
1349 3.0
1350 3.0
1351 2.0
1352 3.0
1353 3.0
1354 2.0
1355 3.0
1356 3.0
1357 2.0
1358 3.0
1359 3.0
1360 2.0
1361 3.0
1362 3.0
1363 2.0
1364 3.0
1365 3.0
1366 2.0
1367 3.0
1368 3.0
1369 2.0
1370 3.0
1371 3.0
1372 2.0
1373 3.0
1374 3.0
1375 2.0
1376 3.0
1377 3.0
1378 2.0
1379 3.0
1380 3.0
1381 3.0
1382 3.0
1383 2.0
1384 2.0
1385 2.0
1386 3.0
1387 3.0
1388 2.0
1389 2.0
1390 2.0
1391 3.0
1392 3.0
1393 2.0
1394 2.0
1395 2.0
1396 3.0
1397 3.0
1398 2.0
1399 2.0
1400 2.0
1401 3.0
1402 3.0
1403 2.0
1404 2.0
1405 2.0
1406 3.0
1407 3.0
1408 2.0
1409 2.0
1410 2.0
1411 3.0
1412 3.0
1413 2.0
1414 2.0
1415 2.0
1416 3.0
1417 3.0
1418 2.0
1419 2.0
1420 2.0
1421 3.0
1422 3.0
1423 2.0
1424 2.0
1425 2.0
1426 3.0
1427 3.0
1428 2.0
1429 2.0
1430 2.0
1431 3.0
1432 3.0
1433 2.0
1434 2.0
1435 2.0
1436 3.0
1437 3.0
1438 2.0
1439 2.0
1440 2.0
1441 3.0
1442 3.0
1443 2.0
1444 2.0
1445 2.0
1446 3.0
1447 3.0
1448 2.0
1449 2.0
1450 2.0
1451 3.0
1452 3.0
1453 2.0
1454 2.0
1455 2.0
1456 3.0
1457 3.0
1458 2.0
1459 2.0
1460 2.0
1461 2.0
1462 2.0
1463 2.0
1464 2.0
1465 2.0
1466 2.0
1467 2.0
1468 2.0
1469 2.0
1470 2.0
1471 2.0
1472 2.0
1473 2.0
1474 2.0
1475 2.0
1476 2.0
1477 2.0
1478 2.0
1479 2.0
1480 2.0
1481 2.0
1482 2.0
1483 2.0
1484 2.0
1485 2.0
1486 2.0
1487 2.0
1488 2.0
1489 2.0
1490 2.0
1491 2.0
1492 2.0
1493 2.0
1494 2.0
1495 2.0
1496 2.0
1497 2.0
1498 2.0
1499 2.0
1500 2.0
1501 2.0
1502 2.0
1503 2.0
1504 2.0
1505 2.0
1506 2.0
1507 2.0
1508 2.0
1509 2.0
1510 2.0
1511 2.0
1512 2.0
1513 2.0
1514 2.0
1515 2.0
1516 2.0
1517 2.0
1518 2.0
1519 2.0
1520 2.0
1521 2.0
1522 2.0
1523 2.0
1524 2.0
1525 2.0
1526 2.0
1527 2.0
1528 2.0
1529 2.0
1530 2.0
1531 2.0
1532 2.0
1533 2.0
1534 2.0
1535 2.0
1536 2.0
1537 2.0
1538 2.0
1539 2.0
1540 2.0
1541 2.0
1542 2.0
1543 2.0
1544 2.0
1545 2.0
1546 2.0
1547 2.0
1548 2.0
1549 2.0
1550 2.0
1551 2.0
1552 2.0
1553 2.0
1554 2.0
1555 2.0
1556 2.0
1557 3.0
1558 4.0
1559 3.0
1560 3.0
1561 3.0
1562 3.0
1563 3.0
1564 4.0
1565 3.0
1566 3.0
1567 3.0
1568 3.0
1569 3.0
1570 4.0
1571 3.0
1572 3.0
1573 3.0
1574 3.0
1575 3.0
1576 4.0
1577 3.0
1578 3.0
1579 3.0
1580 3.0
1581 3.0
1582 4.0
1583 3.0
1584 3.0
1585 3.0
1586 3.0
1587 3.0
1588 4.0
1589 3.0
1590 3.0
1591 3.0
1592 3.0
1593 3.0
1594 4.0
1595 3.0
1596 3.0
1597 3.0
1598 3.0
1599 3.0
1600 4.0
1601 3.0
1602 3.0
1603 3.0
1604 3.0
1605 3.0
1606 4.0
1607 3.0
1608 3.0
1609 3.0
1610 3.0
1611 3.0
1612 4.0
1613 3.0
1614 3.0
1615 3.0
1616 3.0
1617 3.0
1618 4.0
1619 3.0
1620 3.0
1621 3.0
1622 3.0
1623 3.0
1624 4.0
1625 3.0
1626 3.0
1627 3.0
1628 3.0
1629 3.0
1630 4.0
1631 3.0
1632 3.0
1633 3.0
1634 3.0
1635 3.0
1636 4.0
1637 3.0
1638 3.0
1639 3.0
1640 3.0
1641 3.0
1642 4.0
1643 3.0
1644 3.0
1645 3.0
1646 3.0
1647 3.0
1648 4.0
1649 3.0
1650 3.0
1651 3.0
1652 3.0
1653 1.0
1654 2.0
1655 2.0
1656 2.0
1657 2.0
1658 2.0
1659 2.0
1660 2.0
1661 2.0
1662 2.0
1663 2.0
1664 2.0
1665 2.0
1666 2.0
1667 2.0
1668 2.0
1669 2.0
1670 2.0
1671 2.0
1672 2.0
1673 2.0
1674 2.0
1675 2.0
1676 2.0
1677 2.0
1678 2.0
1679 2.0
1680 2.0
1681 2.0
1682 2.0
1683 2.0
1684 2.0
1685 2.0
1686 2.0
1687 2.0
1688 2.0
1689 2.0
1690 2.0
1691 2.0
1692 2.0
1693 2.0
1694 2.0
1695 2.0
1696 2.0
1697 2.0
1698 2.0
1699 2.0
1700 2.0
1701 2.0
1702 2.0
1703 2.0
1704 2.0
1705 2.0
1706 2.0
1707 2.0
1708 2.0
1709 2.0
1710 2.0
1711 2.0
1712 2.0
1713 2.0
1714 2.0
1715 2.0
1716 2.0
1717 1.0
1718 3.0
1719 3.0
1720 3.0
1721 3.0
1722 3.0
1723 3.0
1724 3.0
1725 3.0
1726 3.0
1727 3.0
1728 3.0
1729 3.0
1730 3.0
1731 3.0
1732 3.0
1733 3.0
1734 3.0
1735 3.0
1736 3.0
1737 3.0
1738 3.0
1739 3.0
1740 3.0
1741 3.0
1742 3.0
1743 3.0
1744 3.0
1745 3.0
1746 3.0
1747 3.0
1748 3.0
1749 3.0
1750 3.0
1751 3.0
1752 3.0
1753 3.0
1754 3.0
1755 3.0
1756 3.0
1757 3.0
1758 3.0
1759 3.0
1760 3.0
1761 3.0
1762 3.0
1763 3.0
1764 3.0
1765 3.0
1766 3.0
1767 3.0
1768 3.0
1769 3.0
1770 3.0
1771 3.0
1772 3.0
1773 3.0
1774 3.0
1775 3.0
1776 3.0
1777 3.0
1778 3.0
1779 3.0
1780 3.0
1781 3.0
1782 3.0
1783 3.0
1784 3.0
1785 3.0
1786 3.0
1787 3.0
1788 3.0
1789 3.0
1790 3.0
1791 3.0
1792 3.0
1793 3.0
1794 3.0
1795 3.0
1796 3.0
1797 3.0
1798 3.0
1799 3.0
1800 3.0
1801 3.0
1802 3.0
1803 3.0
1804 3.0
1805 3.0
1806 3.0
1807 3.0
1808 3.0
1809 3.0
1810 3.0
1811 3.0
1812 2.0
1813 2.0
1814 2.0
1815 2.0
1816 2.0
1817 2.0
1818 2.0
1819 2.0
1820 2.0
1821 2.0
1822 2.0
1823 2.0
1824 2.0
1825 2.0
1826 2.0
1827 2.0
1828 2.0
1829 2.0
1830 2.0
1831 2.0
1832 2.0
1833 2.0
1834 2.0
1835 2.0
1836 2.0
1837 2.0
1838 2.0
1839 2.0
1840 2.0
1841 2.0
1842 2.0
1843 2.0
1844 2.0
1845 2.0
1846 2.0
1847 2.0
1848 2.0
1849 2.0
1850 2.0
1851 2.0
1852 2.0
1853 2.0
1854 2.0
1855 2.0
1856 2.0
1857 2.0
1858 2.0
1859 3.0
1860 3.0
1861 2.0
1862 2.0
1863 3.0
1864 3.0
1865 2.0
1866 2.0
1867 3.0
1868 3.0
1869 2.0
1870 2.0
1871 3.0
1872 3.0
1873 2.0
1874 2.0
1875 3.0
1876 3.0
1877 2.0
1878 2.0
1879 3.0
1880 3.0
1881 2.0
1882 2.0
1883 3.0
1884 3.0
1885 2.0
1886 2.0
1887 3.0
1888 3.0
1889 2.0
1890 2.0
1891 3.0
1892 3.0
1893 2.0
1894 2.0
1895 3.0
1896 3.0
1897 2.0
1898 2.0
1899 3.0
1900 3.0
1901 2.0
1902 2.0
1903 3.0
1904 3.0
1905 2.0
1906 2.0
1907 3.0
1908 3.0
1909 2.0
1910 2.0
1911 3.0
1912 3.0
1913 2.0
1914 2.0
1915 3.0
1916 3.0
1917 2.0
1918 2.0
1919 3.0
1920 3.0
1921 2.0
1922 2.0
1923 2.0
1924 3.0
1925 3.0
1926 2.0
1927 3.0
1928 3.0
1929 2.0
1930 3.0
1931 3.0
1932 2.0
1933 3.0
1934 3.0
1935 2.0
1936 3.0
1937 3.0
1938 2.0
1939 3.0
1940 3.0
1941 2.0
1942 3.0
1943 3.0
1944 2.0
1945 3.0
1946 3.0
1947 2.0
1948 3.0
1949 3.0
1950 2.0
1951 3.0
1952 3.0
1953 2.0
1954 3.0
1955 3.0
1956 2.0
1957 3.0
1958 3.0
1959 2.0
1960 3.0
1961 3.0
1962 2.0
1963 3.0
1964 3.0
1965 2.0
1966 3.0
1967 3.0
1968 2.0
1969 3.0
1970 3.0
1971 3.0
1972 3.0
1973 2.0
1974 2.0
1975 2.0
1976 3.0
1977 3.0
1978 2.0
1979 2.0
1980 2.0
1981 3.0
1982 3.0
1983 2.0
1984 2.0
1985 2.0
1986 3.0
1987 3.0
1988 2.0
1989 2.0
1990 2.0
1991 3.0
1992 3.0
1993 2.0
1994 2.0
1995 2.0
1996 3.0
1997 3.0
1998 2.0
1999 2.0
2000 2.0
2001 3.0
2002 3.0
2003 2.0
2004 2.0
2005 2.0
2006 3.0
2007 3.0
2008 2.0
2009 2.0
2010 2.0
2011 3.0
2012 3.0
2013 2.0
2014 2.0
2015 2.0
2016 3.0
2017 3.0
2018 2.0
2019 2.0
2020 2.0
2021 3.0
2022 3.0
2023 2.0
2024 2.0
2025 2.0
2026 3.0
2027 3.0
2028 2.0
2029 2.0
2030 2.0
2031 3.0
2032 3.0
2033 2.0
2034 2.0
2035 2.0
2036 3.0
2037 3.0
2038 2.0
2039 2.0
2040 2.0
2041 3.0
2042 3.0
2043 2.0
2044 2.0
2045 2.0
2046 3.0
2047 3.0
2048 2.0
2049 2.0
2050 2.0
2051 2.0
2052 2.0
2053 2.0
2054 2.0
2055 2.0
2056 2.0
2057 2.0
2058 2.0
2059 2.0
2060 2.0
2061 2.0
2062 2.0
2063 2.0
2064 2.0
2065 2.0
2066 2.0
2067 2.0
2068 2.0
2069 2.0
2070 2.0
2071 2.0
2072 2.0
2073 2.0
2074 2.0
2075 2.0
2076 2.0
2077 2.0
2078 2.0
2079 2.0
2080 2.0
2081 2.0
2082 2.0
2083 2.0
2084 2.0
2085 2.0
2086 2.0
2087 2.0
2088 2.0
2089 2.0
2090 2.0
2091 2.0
2092 2.0
2093 2.0
2094 2.0
2095 2.0
2096 2.0
2097 2.0
2098 2.0
2099 2.0
2100 2.0
2101 2.0
2102 2.0
2103 2.0
2104 2.0
2105 2.0
2106 2.0
2107 2.0
2108 2.0
2109 2.0
2110 2.0
2111 2.0
2112 2.0
2113 2.0
2114 2.0
2115 2.0
2116 2.0
2117 2.0
2118 2.0
2119 2.0
2120 2.0
2121 2.0
2122 2.0
2123 2.0
2124 2.0
2125 2.0
2126 2.0
2127 2.0
2128 2.0
2129 2.0
2130 2.0
2131 2.0
2132 2.0
2133 2.0
2134 2.0
2135 2.0
2136 2.0
2137 2.0
2138 2.0
2139 2.0
2140 2.0
2141 2.0
2142 2.0
2143 2.0
2144 2.0
2145 2.0
2146 2.0
2147 3.0
2148 4.0
2149 3.0
2150 3.0
2151 3.0
2152 3.0
2153 3.0
2154 4.0
2155 3.0
2156 3.0
2157 3.0
2158 3.0
2159 3.0
2160 4.0
2161 3.0
2162 3.0
2163 3.0
2164 3.0
2165 3.0
2166 4.0
2167 3.0
2168 3.0
2169 3.0
2170 3.0
2171 3.0
2172 4.0
2173 3.0
2174 3.0
2175 3.0
2176 3.0
2177 3.0
2178 4.0
2179 3.0
2180 3.0
2181 3.0
2182 3.0
2183 3.0
2184 4.0
2185 3.0
2186 3.0
2187 3.0
2188 3.0
2189 3.0
2190 4.0
2191 3.0
2192 3.0
2193 3.0
2194 3.0
2195 3.0
2196 4.0
2197 3.0
2198 3.0
2199 3.0
2200 3.0
2201 3.0
2202 4.0
2203 3.0
2204 3.0
2205 3.0
2206 3.0
2207 3.0
2208 4.0
2209 3.0
2210 3.0
2211 3.0
2212 3.0
2213 3.0
2214 4.0
2215 3.0
2216 3.0
2217 3.0
2218 3.0
2219 3.0
2220 4.0
2221 3.0
2222 3.0
2223 3.0
2224 3.0
2225 3.0
2226 4.0
2227 3.0
2228 3.0
2229 3.0
2230 3.0
2231 3.0
2232 4.0
2233 3.0
2234 3.0
2235 3.0
2236 3.0
2237 3.0
2238 4.0
2239 3.0
2240 3.0
2241 3.0
2242 3.0
2243 1.0
2244 2.0
2245 2.0
2246 2.0
2247 2.0
2248 2.0
2249 2.0
2250 2.0
2251 2.0
2252 2.0
2253 2.0
2254 2.0
2255 2.0
2256 2.0
2257 2.0
2258 2.0
2259 2.0
2260 2.0
2261 2.0
2262 2.0
2263 2.0
2264 2.0
2265 2.0
2266 2.0
2267 2.0
2268 2.0
2269 2.0
2270 2.0
2271 2.0
2272 2.0
2273 2.0
2274 2.0
2275 2.0
2276 2.0
2277 2.0
2278 2.0
2279 2.0
2280 2.0
2281 2.0
2282 2.0
2283 2.0
2284 2.0
2285 2.0
2286 2.0
2287 2.0
2288 2.0
2289 2.0
2290 2.0
2291 2.0
2292 2.0
2293 2.0
2294 2.0
2295 2.0
2296 2.0
2297 2.0
2298 2.0
2299 2.0
2300 2.0
2301 2.0
2302 2.0
2303 2.0
2304 2.0
2305 2.0
2306 2.0
2307 1.0
2308 3.0
2309 3.0
2310 3.0
2311 3.0
2312 3.0
2313 3.0
2314 3.0
2315 3.0
2316 3.0
2317 3.0
2318 3.0
2319 3.0
2320 3.0
2321 3.0
2322 3.0
2323 3.0
2324 3.0
2325 3.0
2326 3.0
2327 3.0
2328 3.0
2329 3.0
2330 3.0
2331 3.0
2332 3.0
2333 3.0
2334 3.0
2335 3.0
2336 3.0
2337 3.0
2338 3.0
2339 3.0
2340 3.0
2341 3.0
2342 3.0
2343 3.0
2344 3.0
2345 3.0
2346 3.0
2347 3.0
2348 3.0
2349 3.0
2350 3.0
2351 3.0
2352 3.0
2353 3.0
2354 3.0
2355 3.0
2356 3.0
2357 3.0
2358 3.0
2359 3.0
2360 3.0
2361 3.0
2362 3.0
2363 3.0
2364 3.0
2365 3.0
2366 3.0
2367 3.0
2368 3.0
2369 3.0
2370 3.0
2371 3.0
2372 3.0
2373 3.0
2374 3.0
2375 3.0
2376 3.0
2377 3.0
2378 3.0
2379 3.0
2380 3.0
2381 3.0
2382 3.0
2383 3.0
2384 3.0
2385 3.0
2386 3.0
2387 3.0
2388 3.0
2389 3.0
2390 3.0
2391 3.0
2392 3.0
2393 3.0
2394 3.0
2395 3.0
2396 3.0
2397 3.0
2398 3.0
2399 3.0
2400 3.0
2401 3.0
2402 3.0
2403 3.0
2404 2.0
2405 2.0
2406 2.0
2407 2.0
2408 2.0
2409 2.0
2410 2.0
2411 2.0
2412 2.0
2413 2.0
2414 2.0
2415 2.0
2416 2.0
2417 2.0
2418 2.0
2419 2.0
2420 2.0
2421 2.0
2422 2.0
2423 2.0
2424 2.0
2425 2.0
2426 2.0
2427 2.0
2428 2.0
2429 2.0
2430 2.0
2431 2.0
2432 2.0
2433 2.0
2434 2.0
2435 2.0
2436 2.0
2437 2.0
2438 2.0
2439 2.0
2440 2.0
2441 2.0
2442 2.0
2443 2.0
2444 2.0
2445 2.0
2446 2.0
2447 2.0
2448 2.0
2449 2.0
2450 2.0
2451 3.0
2452 3.0
2453 2.0
2454 2.0
2455 3.0
2456 3.0
2457 2.0
2458 2.0
2459 3.0
2460 3.0
2461 2.0
2462 2.0
2463 3.0
2464 3.0
2465 2.0
2466 2.0
2467 3.0
2468 3.0
2469 2.0
2470 2.0
2471 3.0
2472 3.0
2473 2.0
2474 2.0
2475 3.0
2476 3.0
2477 2.0
2478 2.0
2479 3.0
2480 3.0
2481 2.0
2482 2.0
2483 3.0
2484 3.0
2485 2.0
2486 2.0
2487 3.0
2488 3.0
2489 2.0
2490 2.0
2491 3.0
2492 3.0
2493 2.0
2494 2.0
2495 3.0
2496 3.0
2497 2.0
2498 2.0
2499 3.0
2500 3.0
2501 2.0
2502 2.0
2503 3.0
2504 3.0
2505 2.0
2506 2.0
2507 3.0
2508 3.0
2509 2.0
2510 2.0
2511 3.0
2512 3.0
2513 2.0
2514 2.0
2515 2.0
2516 3.0
2517 3.0
2518 2.0
2519 3.0
2520 3.0
2521 2.0
2522 3.0
2523 3.0
2524 2.0
2525 3.0
2526 3.0
2527 2.0
2528 3.0
2529 3.0
2530 2.0
2531 3.0
2532 3.0
2533 2.0
2534 3.0
2535 3.0
2536 2.0
2537 3.0
2538 3.0
2539 2.0
2540 3.0
2541 3.0
2542 2.0
2543 3.0
2544 3.0
2545 2.0
2546 3.0
2547 3.0
2548 2.0
2549 3.0
2550 3.0
2551 2.0
2552 3.0
2553 3.0
2554 2.0
2555 3.0
2556 3.0
2557 2.0
2558 3.0
2559 3.0
2560 2.0
2561 3.0
2562 3.0
2563 3.0
2564 3.0
2565 2.0
2566 2.0
2567 2.0
2568 3.0
2569 3.0
2570 2.0
2571 2.0
2572 2.0
2573 3.0
2574 3.0
2575 2.0
2576 2.0
2577 2.0
2578 3.0
2579 3.0
2580 2.0
2581 2.0
2582 2.0
2583 3.0
2584 3.0
2585 2.0
2586 2.0
2587 2.0
2588 3.0
2589 3.0
2590 2.0
2591 2.0
2592 2.0
2593 3.0
2594 3.0
2595 2.0
2596 2.0
2597 2.0
2598 3.0
2599 3.0
2600 2.0
2601 2.0
2602 2.0
2603 3.0
2604 3.0
2605 2.0
2606 2.0
2607 2.0
2608 3.0
2609 3.0
2610 2.0
2611 2.0
2612 2.0
2613 3.0
2614 3.0
2615 2.0
2616 2.0
2617 2.0
2618 3.0
2619 3.0
2620 2.0
2621 2.0
2622 2.0
2623 3.0
2624 3.0
2625 2.0
2626 2.0
2627 2.0
2628 3.0
2629 3.0
2630 2.0
2631 2.0
2632 2.0
2633 3.0
2634 3.0
2635 2.0
2636 2.0
2637 2.0
2638 3.0
2639 3.0
2640 2.0
2641 2.0
2642 2.0
2643 2.0
2644 2.0
2645 2.0
2646 2.0
2647 2.0
2648 2.0
2649 2.0
2650 2.0
2651 2.0
2652 2.0
2653 2.0
2654 2.0
2655 2.0
2656 2.0
2657 2.0
2658 2.0
2659 2.0
2660 2.0
2661 2.0
2662 2.0
2663 2.0
2664 2.0
2665 2.0
2666 2.0
2667 2.0
2668 2.0
2669 2.0
2670 2.0
2671 2.0
2672 2.0
2673 2.0
2674 2.0
2675 2.0
2676 2.0
2677 2.0
2678 2.0
2679 2.0
2680 2.0
2681 2.0
2682 2.0
2683 2.0
2684 2.0
2685 2.0
2686 2.0
2687 2.0
2688 2.0
2689 2.0
2690 2.0
2691 2.0
2692 2.0
2693 2.0
2694 2.0
2695 2.0
2696 2.0
2697 2.0
2698 2.0
2699 2.0
2700 2.0
2701 2.0
2702 2.0
2703 2.0
2704 2.0
2705 2.0
2706 2.0
2707 2.0
2708 2.0
2709 2.0
2710 2.0
2711 2.0
2712 2.0
2713 2.0
2714 2.0
2715 2.0
2716 2.0
2717 2.0
2718 2.0
2719 2.0
2720 2.0
2721 2.0
2722 2.0
2723 2.0
2724 2.0
2725 2.0
2726 2.0
2727 2.0
2728 2.0
2729 2.0
2730 2.0
2731 2.0
2732 2.0
2733 2.0
2734 2.0
2735 2.0
2736 2.0
2737 2.0
2738 2.0
2739 3.0
2740 4.0
2741 3.0
2742 3.0
2743 3.0
2744 3.0
2745 3.0
2746 4.0
2747 3.0
2748 3.0
2749 3.0
2750 3.0
2751 3.0
2752 4.0
2753 3.0
2754 3.0
2755 3.0
2756 3.0
2757 3.0
2758 4.0
2759 3.0
2760 3.0
2761 3.0
2762 3.0
2763 3.0
2764 4.0
2765 3.0
2766 3.0
2767 3.0
2768 3.0
2769 3.0
2770 4.0
2771 3.0
2772 3.0
2773 3.0
2774 3.0
2775 3.0
2776 4.0
2777 3.0
2778 3.0
2779 3.0
2780 3.0
2781 3.0
2782 4.0
2783 3.0
2784 3.0
2785 3.0
2786 3.0
2787 3.0
2788 4.0
2789 3.0
2790 3.0
2791 3.0
2792 3.0
2793 3.0
2794 4.0
2795 3.0
2796 3.0
2797 3.0
2798 3.0
2799 3.0
2800 4.0
2801 3.0
2802 3.0
2803 3.0
2804 3.0
2805 3.0
2806 4.0
2807 3.0
2808 3.0
2809 3.0
2810 3.0
2811 3.0
2812 4.0
2813 3.0
2814 3.0
2815 3.0
2816 3.0
2817 3.0
2818 4.0
2819 3.0
2820 3.0
2821 3.0
2822 3.0
2823 3.0
2824 4.0
2825 3.0
2826 3.0
2827 3.0
2828 3.0
2829 3.0
2830 4.0
2831 3.0
2832 3.0
2833 3.0
2834 3.0
2835 1.0
2836 2.0
2837 2.0
2838 2.0
2839 2.0
2840 2.0
2841 2.0
2842 2.0
2843 2.0
2844 2.0
2845 2.0
2846 2.0
2847 2.0
2848 2.0
2849 2.0
2850 2.0
2851 2.0
2852 2.0
2853 2.0
2854 2.0
2855 2.0
2856 2.0
2857 2.0
2858 2.0
2859 2.0
2860 2.0
2861 2.0
2862 2.0
2863 2.0
2864 2.0
2865 2.0
2866 2.0
2867 2.0
2868 2.0
2869 2.0
2870 2.0
2871 2.0
2872 2.0
2873 2.0
2874 2.0
2875 2.0
2876 2.0
2877 2.0
2878 2.0
2879 2.0
2880 2.0
2881 2.0
2882 2.0
2883 2.0
2884 2.0
2885 2.0
2886 2.0
2887 2.0
2888 2.0
2889 2.0
2890 2.0
2891 2.0
2892 2.0
2893 2.0
2894 2.0
2895 2.0
2896 2.0
2897 2.0
2898 2.0
2899 1.0
2900 3.0
2901 3.0
2902 3.0
2903 3.0
2904 3.0
2905 3.0
2906 3.0
2907 3.0
2908 3.0
2909 3.0
2910 3.0
2911 3.0
2912 3.0
2913 3.0
2914 3.0
2915 3.0
2916 3.0
2917 3.0
2918 3.0
2919 3.0
2920 3.0
2921 3.0
2922 3.0
2923 3.0
2924 3.0
2925 3.0
2926 3.0
2927 3.0
2928 3.0
2929 3.0
2930 3.0
2931 3.0
2932 3.0
2933 3.0
2934 3.0
2935 3.0
2936 3.0
2937 3.0
2938 3.0
2939 3.0
2940 3.0
2941 3.0
2942 3.0
2943 3.0
2944 3.0
2945 3.0
2946 3.0
2947 3.0
2948 3.0
2949 3.0
2950 3.0
2951 3.0
2952 3.0
2953 3.0
2954 3.0
2955 3.0
2956 3.0
2957 3.0
2958 3.0
2959 3.0
2960 3.0
2961 3.0
2962 3.0
2963 3.0
2964 3.0
2965 3.0
2966 3.0
2967 3.0
2968 3.0
2969 3.0
2970 3.0
2971 3.0
2972 3.0
2973 3.0
2974 3.0
2975 3.0
2976 3.0
2977 3.0
2978 3.0
2979 3.0
2980 3.0
2981 3.0
2982 3.0
2983 3.0
2984 3.0
2985 3.0
2986 3.0
2987 3.0
2988 3.0
2989 3.0
2990 3.0
2991 3.0
2992 3.0
2993 3.0
2994 3.0
2995 3.0
2996 2.0
2997 2.0
2998 2.0
2999 2.0
3000 2.0
3001 2.0
3002 2.0
3003 2.0
3004 2.0
3005 2.0
3006 2.0
3007 2.0
3008 2.0
3009 2.0
3010 2.0
3011 2.0
3012 2.0
3013 2.0
3014 2.0
3015 2.0
3016 2.0
3017 2.0
3018 2.0
3019 2.0
3020 2.0
3021 2.0
3022 2.0
3023 2.0
3024 2.0
3025 2.0
3026 2.0
3027 2.0
3028 2.0
3029 2.0
3030 2.0
3031 2.0
3032 2.0
3033 2.0
3034 2.0
3035 2.0
3036 2.0
3037 2.0
3038 2.0
3039 2.0
3040 2.0
3041 2.0
3042 2.0
3043 3.0
3044 3.0
3045 2.0
3046 2.0
3047 3.0
3048 3.0
3049 2.0
3050 2.0
3051 3.0
3052 3.0
3053 2.0
3054 2.0
3055 3.0
3056 3.0
3057 2.0
3058 2.0
3059 3.0
3060 3.0
3061 2.0
3062 2.0
3063 3.0
3064 3.0
3065 2.0
3066 2.0
3067 3.0
3068 3.0
3069 2.0
3070 2.0
3071 3.0
3072 3.0
3073 2.0
3074 2.0
3075 3.0
3076 3.0
3077 2.0
3078 2.0
3079 3.0
3080 3.0
3081 2.0
3082 2.0
3083 3.0
3084 3.0
3085 2.0
3086 2.0
3087 3.0
3088 3.0
3089 2.0
3090 2.0
3091 3.0
3092 3.0
3093 2.0
3094 2.0
3095 3.0
3096 3.0
3097 2.0
3098 2.0
3099 3.0
3100 3.0
3101 2.0
3102 2.0
3103 3.0
3104 3.0
3105 2.0
3106 2.0
3107 2.0
3108 3.0
3109 3.0
3110 2.0
3111 3.0
3112 3.0
3113 2.0
3114 3.0
3115 3.0
3116 2.0
3117 3.0
3118 3.0
3119 2.0
3120 3.0
3121 3.0
3122 2.0
3123 3.0
3124 3.0
3125 2.0
3126 3.0
3127 3.0
3128 2.0
3129 3.0
3130 3.0
3131 2.0
3132 3.0
3133 3.0
3134 2.0
3135 3.0
3136 3.0
3137 2.0
3138 3.0
3139 3.0
3140 2.0
3141 3.0
3142 3.0
3143 2.0
3144 3.0
3145 3.0
3146 2.0
3147 3.0
3148 3.0
3149 2.0
3150 3.0
3151 3.0
3152 2.0
3153 3.0
3154 3.0
3155 3.0
3156 3.0
3157 2.0
3158 2.0
3159 2.0
3160 3.0
3161 3.0
3162 2.0
3163 2.0
3164 2.0
3165 3.0
3166 3.0
3167 2.0
3168 2.0
3169 2.0
3170 3.0
3171 3.0
3172 2.0
3173 2.0
3174 2.0
3175 3.0
3176 3.0
3177 2.0
3178 2.0
3179 2.0
3180 3.0
3181 3.0
3182 2.0
3183 2.0
3184 2.0
3185 3.0
3186 3.0
3187 2.0
3188 2.0
3189 2.0
3190 3.0
3191 3.0
3192 2.0
3193 2.0
3194 2.0
3195 3.0
3196 3.0
3197 2.0
3198 2.0
3199 2.0
3200 3.0
3201 3.0
3202 2.0
3203 2.0
3204 2.0
3205 3.0
3206 3.0
3207 2.0
3208 2.0
3209 2.0
3210 3.0
3211 3.0
3212 2.0
3213 2.0
3214 2.0
3215 3.0
3216 3.0
3217 2.0
3218 2.0
3219 2.0
3220 3.0
3221 3.0
3222 2.0
3223 2.0
3224 2.0
3225 3.0
3226 3.0
3227 2.0
3228 2.0
3229 2.0
3230 3.0
3231 3.0
3232 2.0
3233 2.0
3234 2.0
3235 2.0
3236 2.0
3237 2.0
3238 2.0
3239 2.0
3240 2.0
3241 2.0
3242 2.0
3243 2.0
3244 2.0
3245 2.0
3246 2.0
3247 2.0
3248 2.0
3249 2.0
3250 2.0
3251 2.0
3252 2.0
3253 2.0
3254 2.0
3255 2.0
3256 2.0
3257 2.0
3258 2.0
3259 2.0
3260 2.0
3261 2.0
3262 2.0
3263 2.0
3264 2.0
3265 2.0
3266 2.0
3267 2.0
3268 2.0
3269 2.0
3270 2.0
3271 2.0
3272 2.0
3273 2.0
3274 2.0
3275 2.0
3276 2.0
3277 2.0
3278 2.0
3279 2.0
3280 2.0
3281 2.0
3282 2.0
3283 2.0
3284 2.0
3285 2.0
3286 2.0
3287 2.0
3288 2.0
3289 2.0
3290 2.0
3291 2.0
3292 2.0
3293 2.0
3294 2.0
3295 2.0
3296 2.0
3297 2.0
3298 2.0
3299 2.0
3300 2.0
3301 2.0
3302 2.0
3303 2.0
3304 2.0
3305 2.0
3306 2.0
3307 2.0
3308 2.0
3309 2.0
3310 2.0
3311 2.0
3312 2.0
3313 2.0
3314 2.0
3315 2.0
3316 2.0
3317 2.0
3318 2.0
3319 2.0
3320 2.0
3321 2.0
3322 2.0
3323 2.0
3324 2.0
3325 2.0
3326 2.0
3327 2.0
3328 2.0
3329 2.0
3330 2.0
3331 3.0
3332 4.0
3333 3.0
3334 3.0
3335 3.0
3336 3.0
3337 3.0
3338 4.0
3339 3.0
3340 3.0
3341 3.0
3342 3.0
3343 3.0
3344 4.0
3345 3.0
3346 3.0
3347 3.0
3348 3.0
3349 3.0
3350 4.0
3351 3.0
3352 3.0
3353 3.0
3354 3.0
3355 3.0
3356 4.0
3357 3.0
3358 3.0
3359 3.0
3360 3.0
3361 3.0
3362 4.0
3363 3.0
3364 3.0
3365 3.0
3366 3.0
3367 3.0
3368 4.0
3369 3.0
3370 3.0
3371 3.0
3372 3.0
3373 3.0
3374 4.0
3375 3.0
3376 3.0
3377 3.0
3378 3.0
3379 3.0
3380 4.0
3381 3.0
3382 3.0
3383 3.0
3384 3.0
3385 3.0
3386 4.0
3387 3.0
3388 3.0
3389 3.0
3390 3.0
3391 3.0
3392 4.0
3393 3.0
3394 3.0
3395 3.0
3396 3.0
3397 3.0
3398 4.0
3399 3.0
3400 3.0
3401 3.0
3402 3.0
3403 3.0
3404 4.0
3405 3.0
3406 3.0
3407 3.0
3408 3.0
3409 3.0
3410 4.0
3411 3.0
3412 3.0
3413 3.0
3414 3.0
3415 3.0
3416 4.0
3417 3.0
3418 3.0
3419 3.0
3420 3.0
3421 3.0
3422 4.0
3423 3.0
3424 3.0
3425 3.0
3426 3.0
3427 1.0
3428 2.0
3429 2.0
3430 2.0
3431 2.0
3432 2.0
3433 2.0
3434 2.0
3435 2.0
3436 2.0
3437 2.0
3438 2.0
3439 2.0
3440 2.0
3441 2.0
3442 2.0
3443 2.0
3444 2.0
3445 2.0
3446 2.0
3447 2.0
3448 2.0
3449 2.0
3450 2.0
3451 2.0
3452 2.0
3453 2.0
3454 2.0
3455 2.0
3456 2.0
3457 2.0
3458 2.0
3459 2.0
3460 2.0
3461 2.0
3462 2.0
3463 2.0
3464 2.0
3465 2.0
3466 2.0
3467 2.0
3468 2.0
3469 2.0
3470 2.0
3471 2.0
3472 2.0
3473 2.0
3474 2.0
3475 2.0
3476 2.0
3477 2.0
3478 2.0
3479 2.0
3480 2.0
3481 2.0
3482 2.0
3483 2.0
3484 2.0
3485 2.0
3486 2.0
3487 2.0
3488 2.0
3489 2.0
3490 2.0
3491 1.0
3492 3.0
3493 3.0
3494 3.0
3495 3.0
3496 3.0
3497 3.0
3498 3.0
3499 3.0
3500 3.0
3501 3.0
3502 3.0
3503 3.0
3504 3.0
3505 3.0
3506 3.0
3507 3.0
3508 3.0
3509 3.0
3510 3.0
3511 3.0
3512 3.0
3513 3.0
3514 3.0
3515 3.0
3516 3.0
3517 3.0
3518 3.0
3519 3.0
3520 3.0
3521 3.0
3522 3.0
3523 3.0
3524 3.0
3525 3.0
3526 3.0
3527 3.0
3528 3.0
3529 3.0
3530 3.0
3531 3.0
3532 3.0
3533 3.0
3534 3.0
3535 3.0
3536 3.0
3537 3.0
3538 3.0
3539 3.0
3540 3.0
3541 3.0
3542 3.0
3543 3.0
3544 3.0
3545 3.0
3546 3.0
3547 3.0
3548 3.0
3549 3.0
3550 3.0
3551 3.0
3552 3.0
3553 3.0
3554 3.0
3555 3.0
3556 3.0
3557 3.0
3558 3.0
3559 3.0
3560 3.0
3561 3.0
3562 3.0
3563 3.0
3564 3.0
3565 3.0
3566 3.0
3567 3.0
3568 3.0
3569 3.0
3570 3.0
3571 3.0
3572 3.0
3573 3.0
3574 3.0
3575 3.0
3576 3.0
3577 3.0
3578 3.0
3579 3.0
3580 3.0
3581 3.0
3582 3.0
3583 3.0
3584 3.0
3585 3.0
3586 2.0
3587 2.0
3588 2.0
3589 2.0
3590 2.0
3591 2.0
3592 2.0
3593 2.0
3594 2.0
3595 2.0
3596 2.0
3597 2.0
3598 2.0
3599 2.0
3600 2.0
3601 2.0
3602 2.0
3603 2.0
3604 2.0
3605 2.0
3606 2.0
3607 2.0
3608 2.0
3609 2.0
3610 2.0
3611 2.0
3612 2.0
3613 2.0
3614 2.0
3615 2.0
3616 2.0
3617 2.0
3618 2.0
3619 2.0
3620 2.0
3621 2.0
3622 2.0
3623 2.0
3624 2.0
3625 2.0
3626 2.0
3627 2.0
3628 2.0
3629 2.0
3630 2.0
3631 2.0
3632 2.0
3633 3.0
3634 3.0
3635 2.0
3636 2.0
3637 3.0
3638 3.0
3639 2.0
3640 2.0
3641 3.0
3642 3.0
3643 2.0
3644 2.0
3645 3.0
3646 3.0
3647 2.0
3648 2.0
3649 3.0
3650 3.0
3651 2.0
3652 2.0
3653 3.0
3654 3.0
3655 2.0
3656 2.0
3657 3.0
3658 3.0
3659 2.0
3660 2.0
3661 3.0
3662 3.0
3663 2.0
3664 2.0
3665 3.0
3666 3.0
3667 2.0
3668 2.0
3669 3.0
3670 3.0
3671 2.0
3672 2.0
3673 3.0
3674 3.0
3675 2.0
3676 2.0
3677 3.0
3678 3.0
3679 2.0
3680 2.0
3681 3.0
3682 3.0
3683 2.0
3684 2.0
3685 3.0
3686 3.0
3687 2.0
3688 2.0
3689 3.0
3690 3.0
3691 2.0
3692 2.0
3693 3.0
3694 3.0
3695 2.0
3696 2.0
3697 2.0
3698 3.0
3699 3.0
3700 2.0
3701 3.0
3702 3.0
3703 2.0
3704 3.0
3705 3.0
3706 2.0
3707 3.0
3708 3.0
3709 2.0
3710 3.0
3711 3.0
3712 2.0
3713 3.0
3714 3.0
3715 2.0
3716 3.0
3717 3.0
3718 2.0
3719 3.0
3720 3.0
3721 2.0
3722 3.0
3723 3.0
3724 2.0
3725 3.0
3726 3.0
3727 2.0
3728 3.0
3729 3.0
3730 2.0
3731 3.0
3732 3.0
3733 2.0
3734 3.0
3735 3.0
3736 2.0
3737 3.0
3738 3.0
3739 2.0
3740 3.0
3741 3.0
3742 2.0
3743 3.0
3744 3.0
3745 3.0
3746 3.0
3747 2.0
3748 2.0
3749 2.0
3750 3.0
3751 3.0
3752 2.0
3753 2.0
3754 2.0
3755 3.0
3756 3.0
3757 2.0
3758 2.0
3759 2.0
3760 3.0
3761 3.0
3762 2.0
3763 2.0
3764 2.0
3765 3.0
3766 3.0
3767 2.0
3768 2.0
3769 2.0
3770 3.0
3771 3.0
3772 2.0
3773 2.0
3774 2.0
3775 3.0
3776 3.0
3777 2.0
3778 2.0
3779 2.0
3780 3.0
3781 3.0
3782 2.0
3783 2.0
3784 2.0
3785 3.0
3786 3.0
3787 2.0
3788 2.0
3789 2.0
3790 3.0
3791 3.0
3792 2.0
3793 2.0
3794 2.0
3795 3.0
3796 3.0
3797 2.0
3798 2.0
3799 2.0
3800 3.0
3801 3.0
3802 2.0
3803 2.0
3804 2.0
3805 3.0
3806 3.0
3807 2.0
3808 2.0
3809 2.0
3810 3.0
3811 3.0
3812 2.0
3813 2.0
3814 2.0
3815 3.0
3816 3.0
3817 2.0
3818 2.0
3819 2.0
3820 3.0
3821 3.0
3822 2.0
3823 2.0
3824 2.0
3825 2.0
3826 2.0
3827 2.0
3828 2.0
3829 2.0
3830 2.0
3831 2.0
3832 2.0
3833 2.0
3834 2.0
3835 2.0
3836 2.0
3837 2.0
3838 2.0
3839 2.0
3840 2.0
3841 2.0
3842 2.0
3843 2.0
3844 2.0
3845 2.0
3846 2.0
3847 2.0
3848 2.0
3849 2.0
3850 2.0
3851 2.0
3852 2.0
3853 2.0
3854 2.0
3855 2.0
3856 2.0
3857 2.0
3858 2.0
3859 2.0
3860 2.0
3861 2.0
3862 2.0
3863 2.0
3864 2.0
3865 2.0
3866 2.0
3867 2.0
3868 2.0
3869 2.0
3870 2.0
3871 2.0
3872 2.0
3873 2.0
3874 2.0
3875 2.0
3876 2.0
3877 2.0
3878 2.0
3879 2.0
3880 2.0
3881 2.0
3882 2.0
3883 2.0
3884 2.0
3885 2.0
3886 2.0
3887 2.0
3888 2.0
3889 2.0
3890 2.0
3891 2.0
3892 2.0
3893 2.0
3894 2.0
3895 2.0
3896 2.0
3897 2.0
3898 2.0
3899 2.0
3900 2.0
3901 2.0
3902 2.0
3903 2.0
3904 2.0
3905 2.0
3906 2.0
3907 2.0
3908 2.0
3909 2.0
3910 2.0
3911 2.0
3912 2.0
3913 2.0
3914 2.0
3915 2.0
3916 2.0
3917 2.0
3918 2.0
3919 2.0
3920 2.0
3921 3.0
3922 4.0
3923 3.0
3924 3.0
3925 3.0
3926 3.0
3927 3.0
3928 4.0
3929 3.0
3930 3.0
3931 3.0
3932 3.0
3933 3.0
3934 4.0
3935 3.0
3936 3.0
3937 3.0
3938 3.0
3939 3.0
3940 4.0
3941 3.0
3942 3.0
3943 3.0
3944 3.0
3945 3.0
3946 4.0
3947 3.0
3948 3.0
3949 3.0
3950 3.0
3951 3.0
3952 4.0
3953 3.0
3954 3.0
3955 3.0
3956 3.0
3957 3.0
3958 4.0
3959 3.0
3960 3.0
3961 3.0
3962 3.0
3963 3.0
3964 4.0
3965 3.0
3966 3.0
3967 3.0
3968 3.0
3969 3.0
3970 4.0
3971 3.0
3972 3.0
3973 3.0
3974 3.0
3975 3.0
3976 4.0
3977 3.0
3978 3.0
3979 3.0
3980 3.0
3981 3.0
3982 4.0
3983 3.0
3984 3.0
3985 3.0
3986 3.0
3987 3.0
3988 4.0
3989 3.0
3990 3.0
3991 3.0
3992 3.0
3993 3.0
3994 4.0
3995 3.0
3996 3.0
3997 3.0
3998 3.0
3999 3.0
4000 4.0
4001 3.0
4002 3.0
4003 3.0
4004 3.0
4005 3.0
4006 4.0
4007 3.0
4008 3.0
4009 3.0
4010 3.0
4011 3.0
4012 4.0
4013 3.0
4014 3.0
4015 3.0
4016 3.0
4017 1.0
4018 2.0
4019 2.0
4020 2.0
4021 2.0
4022 2.0
4023 2.0
4024 2.0
4025 2.0
4026 2.0
4027 2.0
4028 2.0
4029 2.0
4030 2.0
4031 2.0
4032 2.0
4033 2.0
4034 2.0
4035 2.0
4036 2.0
4037 2.0
4038 2.0
4039 2.0
4040 2.0
4041 2.0
4042 2.0
4043 2.0
4044 2.0
4045 2.0
4046 2.0
4047 2.0
4048 2.0
4049 2.0
4050 2.0
4051 2.0
4052 2.0
4053 2.0
4054 2.0
4055 2.0
4056 2.0
4057 2.0
4058 2.0
4059 2.0
4060 2.0
4061 2.0
4062 2.0
4063 2.0
4064 2.0
4065 2.0
4066 2.0
4067 2.0
4068 2.0
4069 2.0
4070 2.0
4071 2.0
4072 2.0
4073 2.0
4074 2.0
4075 2.0
4076 2.0
4077 2.0
4078 2.0
4079 2.0
4080 2.0
4081 1.0
4082 3.0
4083 3.0
4084 3.0
4085 3.0
4086 3.0
4087 3.0
4088 3.0
4089 3.0
4090 3.0
4091 3.0
4092 3.0
4093 3.0
4094 3.0
4095 3.0
4096 3.0
4097 3.0
4098 3.0
4099 3.0
4100 3.0
4101 3.0
4102 3.0
4103 3.0
4104 3.0
4105 3.0
4106 3.0
4107 3.0
4108 3.0
4109 3.0
4110 3.0
4111 3.0
4112 3.0
4113 3.0
4114 3.0
4115 3.0
4116 3.0
4117 3.0
4118 3.0
4119 3.0
4120 3.0
4121 3.0
4122 3.0
4123 3.0
4124 3.0
4125 3.0
4126 3.0
4127 3.0
4128 3.0
4129 3.0
4130 3.0
4131 3.0
4132 3.0
4133 3.0
4134 3.0
4135 3.0
4136 3.0
4137 3.0
4138 3.0
4139 3.0
4140 3.0
4141 3.0
4142 3.0
4143 3.0
4144 3.0
4145 3.0
4146 3.0
4147 3.0
4148 3.0
4149 3.0
4150 3.0
4151 3.0
4152 3.0
4153 3.0
4154 3.0
4155 3.0
4156 3.0
4157 3.0
4158 3.0
4159 3.0
4160 3.0
4161 3.0
4162 3.0
4163 3.0
4164 3.0
4165 3.0
4166 3.0
4167 3.0
4168 3.0
4169 3.0
4170 3.0
4171 3.0
4172 3.0
4173 3.0
4174 3.0
4175 3.0
4176 3.0
4177 3.0
4178 2.0
4179 2.0
4180 2.0
4181 2.0
4182 2.0
4183 2.0
4184 2.0
4185 2.0
4186 2.0
4187 2.0
4188 2.0
4189 2.0
4190 2.0
4191 2.0
4192 2.0
4193 2.0
4194 2.0
4195 2.0
4196 2.0
4197 2.0
4198 2.0
4199 2.0
4200 2.0
4201 2.0
4202 2.0
4203 2.0
4204 2.0
4205 2.0
4206 2.0
4207 2.0
4208 2.0
4209 2.0
4210 2.0
4211 2.0
4212 2.0
4213 2.0
4214 2.0
4215 2.0
4216 2.0
4217 2.0
4218 2.0
4219 2.0
4220 2.0
4221 2.0
4222 2.0
4223 2.0
4224 2.0
4225 3.0
4226 3.0
4227 2.0
4228 2.0
4229 3.0
4230 3.0
4231 2.0
4232 2.0
4233 3.0
4234 3.0
4235 2.0
4236 2.0
4237 3.0
4238 3.0
4239 2.0
4240 2.0
4241 3.0
4242 3.0
4243 2.0
4244 2.0
4245 3.0
4246 3.0
4247 2.0
4248 2.0
4249 3.0
4250 3.0
4251 2.0
4252 2.0
4253 3.0
4254 3.0
4255 2.0
4256 2.0
4257 3.0
4258 3.0
4259 2.0
4260 2.0
4261 3.0
4262 3.0
4263 2.0
4264 2.0
4265 3.0
4266 3.0
4267 2.0
4268 2.0
4269 3.0
4270 3.0
4271 2.0
4272 2.0
4273 3.0
4274 3.0
4275 2.0
4276 2.0
4277 3.0
4278 3.0
4279 2.0
4280 2.0
4281 3.0
4282 3.0
4283 2.0
4284 2.0
4285 3.0
4286 3.0
4287 2.0
4288 2.0
4289 2.0
4290 3.0
4291 3.0
4292 2.0
4293 3.0
4294 3.0
4295 2.0
4296 3.0
4297 3.0
4298 2.0
4299 3.0
4300 3.0
4301 2.0
4302 3.0
4303 3.0
4304 2.0
4305 3.0
4306 3.0
4307 2.0
4308 3.0
4309 3.0
4310 2.0
4311 3.0
4312 3.0
4313 2.0
4314 3.0
4315 3.0
4316 2.0
4317 3.0
4318 3.0
4319 2.0
4320 3.0
4321 3.0
4322 2.0
4323 3.0
4324 3.0
4325 2.0
4326 3.0
4327 3.0
4328 2.0
4329 3.0
4330 3.0
4331 2.0
4332 3.0
4333 3.0
4334 2.0
4335 3.0
4336 3.0
4337 3.0
4338 3.0
4339 2.0
4340 2.0
4341 2.0
4342 3.0
4343 3.0
4344 2.0
4345 2.0
4346 2.0
4347 3.0
4348 3.0
4349 2.0
4350 2.0
4351 2.0
4352 3.0
4353 3.0
4354 2.0
4355 2.0
4356 2.0
4357 3.0
4358 3.0
4359 2.0
4360 2.0
4361 2.0
4362 3.0
4363 3.0
4364 2.0
4365 2.0
4366 2.0
4367 3.0
4368 3.0
4369 2.0
4370 2.0
4371 2.0
4372 3.0
4373 3.0
4374 2.0
4375 2.0
4376 2.0
4377 3.0
4378 3.0
4379 2.0
4380 2.0
4381 2.0
4382 3.0
4383 3.0
4384 2.0
4385 2.0
4386 2.0
4387 3.0
4388 3.0
4389 2.0
4390 2.0
4391 2.0
4392 3.0
4393 3.0
4394 2.0
4395 2.0
4396 2.0
4397 3.0
4398 3.0
4399 2.0
4400 2.0
4401 2.0
4402 3.0
4403 3.0
4404 2.0
4405 2.0
4406 2.0
4407 3.0
4408 3.0
4409 2.0
4410 2.0
4411 2.0
4412 3.0
4413 3.0
4414 2.0
4415 2.0
4416 2.0
4417 2.0
4418 2.0
4419 2.0
4420 2.0
4421 2.0
4422 2.0
4423 2.0
4424 2.0
4425 2.0
4426 2.0
4427 2.0
4428 2.0
4429 2.0
4430 2.0
4431 2.0
4432 2.0
4433 2.0
4434 2.0
4435 2.0
4436 2.0
4437 2.0
4438 2.0
4439 2.0
4440 2.0
4441 2.0
4442 2.0
4443 2.0
4444 2.0
4445 2.0
4446 2.0
4447 2.0
4448 2.0
4449 2.0
4450 2.0
4451 2.0
4452 2.0
4453 2.0
4454 2.0
4455 2.0
4456 2.0
4457 2.0
4458 2.0
4459 2.0
4460 2.0
4461 2.0
4462 2.0
4463 2.0
4464 2.0
4465 2.0
4466 2.0
4467 2.0
4468 2.0
4469 2.0
4470 2.0
4471 2.0
4472 2.0
4473 2.0
4474 2.0
4475 2.0
4476 2.0
4477 2.0
4478 2.0
4479 2.0
4480 2.0
4481 2.0
4482 2.0
4483 2.0
4484 2.0
4485 2.0
4486 2.0
4487 2.0
4488 2.0
4489 2.0
4490 2.0
4491 2.0
4492 2.0
4493 2.0
4494 2.0
4495 2.0
4496 2.0
4497 2.0
4498 2.0
4499 2.0
4500 2.0
4501 2.0
4502 2.0
4503 2.0
4504 2.0
4505 2.0
4506 2.0
4507 2.0
4508 2.0
4509 2.0
4510 2.0
4511 2.0
4512 2.0
4513 3.0
4514 4.0
4515 3.0
4516 3.0
4517 3.0
4518 3.0
4519 3.0
4520 4.0
4521 3.0
4522 3.0
4523 3.0
4524 3.0
4525 3.0
4526 4.0
4527 3.0
4528 3.0
4529 3.0
4530 3.0
4531 3.0
4532 4.0
4533 3.0
4534 3.0
4535 3.0
4536 3.0
4537 3.0
4538 4.0
4539 3.0
4540 3.0
4541 3.0
4542 3.0
4543 3.0
4544 4.0
4545 3.0
4546 3.0
4547 3.0
4548 3.0
4549 3.0
4550 4.0
4551 3.0
4552 3.0
4553 3.0
4554 3.0
4555 3.0
4556 4.0
4557 3.0
4558 3.0
4559 3.0
4560 3.0
4561 3.0
4562 4.0
4563 3.0
4564 3.0
4565 3.0
4566 3.0
4567 3.0
4568 4.0
4569 3.0
4570 3.0
4571 3.0
4572 3.0
4573 3.0
4574 4.0
4575 3.0
4576 3.0
4577 3.0
4578 3.0
4579 3.0
4580 4.0
4581 3.0
4582 3.0
4583 3.0
4584 3.0
4585 3.0
4586 4.0
4587 3.0
4588 3.0
4589 3.0
4590 3.0
4591 3.0
4592 4.0
4593 3.0
4594 3.0
4595 3.0
4596 3.0
4597 3.0
4598 4.0
4599 3.0
4600 3.0
4601 3.0
4602 3.0
4603 3.0
4604 4.0
4605 3.0
4606 3.0
4607 3.0
4608 3.0
4609 1.0
4610 2.0
4611 2.0
4612 2.0
4613 2.0
4614 2.0
4615 2.0
4616 2.0
4617 2.0
4618 2.0
4619 2.0
4620 2.0
4621 2.0
4622 2.0
4623 2.0
4624 2.0
4625 2.0
4626 2.0
4627 2.0
4628 2.0
4629 2.0
4630 2.0
4631 2.0
4632 2.0
4633 2.0
4634 2.0
4635 2.0
4636 2.0
4637 2.0
4638 2.0
4639 2.0
4640 2.0
4641 2.0
4642 2.0
4643 2.0
4644 2.0
4645 2.0
4646 2.0
4647 2.0
4648 2.0
4649 2.0
4650 2.0
4651 2.0
4652 2.0
4653 2.0
4654 2.0
4655 2.0
4656 2.0
4657 2.0
4658 2.0
4659 2.0
4660 2.0
4661 2.0
4662 2.0
4663 2.0
4664 2.0
4665 2.0
4666 2.0
4667 2.0
4668 2.0
4669 2.0
4670 2.0
4671 2.0
4672 2.0
4673 1.0
4674 3.0
4675 3.0
4676 3.0
4677 3.0
4678 3.0
4679 3.0
4680 3.0
4681 3.0
4682 3.0
4683 3.0
4684 3.0
4685 3.0
4686 3.0
4687 3.0
4688 3.0
4689 3.0
4690 3.0
4691 3.0
4692 3.0
4693 3.0
4694 3.0
4695 3.0
4696 3.0
4697 3.0
4698 3.0
4699 3.0
4700 3.0
4701 3.0
4702 3.0
4703 3.0
4704 3.0
4705 3.0
4706 3.0
4707 3.0
4708 3.0
4709 3.0
4710 3.0
4711 3.0
4712 3.0
4713 3.0
4714 3.0
4715 3.0
4716 3.0
4717 3.0
4718 3.0
4719 3.0
4720 3.0
4721 3.0
4722 3.0
4723 3.0
4724 3.0
4725 3.0
4726 3.0
4727 3.0
4728 3.0
4729 3.0
4730 3.0
4731 3.0
4732 3.0
4733 3.0
4734 3.0
4735 3.0
4736 3.0
4737 3.0
4738 3.0
4739 3.0
4740 3.0
4741 3.0
4742 3.0
4743 3.0
4744 3.0
4745 3.0
4746 3.0
4747 3.0
4748 3.0
4749 3.0
4750 3.0
4751 3.0
4752 3.0
4753 3.0
4754 3.0
4755 3.0
4756 3.0
4757 3.0
4758 3.0
4759 3.0
4760 3.0
4761 3.0
4762 3.0
4763 3.0
4764 3.0
4765 3.0
4766 3.0
4767 3.0
4768 2.0
4769 2.0
4770 2.0
4771 2.0
4772 2.0
4773 2.0
4774 2.0
4775 2.0
4776 2.0
4777 2.0
4778 2.0
4779 2.0
4780 2.0
4781 2.0
4782 2.0
4783 2.0
4784 2.0
4785 2.0
4786 2.0
4787 2.0
4788 2.0
4789 2.0
4790 2.0
4791 2.0
4792 2.0
4793 2.0
4794 2.0
4795 2.0
4796 2.0
4797 2.0
4798 2.0
4799 2.0
4800 2.0
4801 2.0
4802 2.0
4803 2.0
4804 2.0
4805 2.0
4806 2.0
4807 2.0
4808 2.0
4809 2.0
4810 2.0
4811 2.0
4812 2.0
4813 2.0
4814 2.0
4815 3.0
4816 3.0
4817 2.0
4818 2.0
4819 3.0
4820 3.0
4821 2.0
4822 2.0
4823 3.0
4824 3.0
4825 2.0
4826 2.0
4827 3.0
4828 3.0
4829 2.0
4830 2.0
4831 3.0
4832 3.0
4833 2.0
4834 2.0
4835 3.0
4836 3.0
4837 2.0
4838 2.0
4839 3.0
4840 3.0
4841 2.0
4842 2.0
4843 3.0
4844 3.0
4845 2.0
4846 2.0
4847 3.0
4848 3.0
4849 2.0
4850 2.0
4851 3.0
4852 3.0
4853 2.0
4854 2.0
4855 3.0
4856 3.0
4857 2.0
4858 2.0
4859 3.0
4860 3.0
4861 2.0
4862 2.0
4863 3.0
4864 3.0
4865 2.0
4866 2.0
4867 3.0
4868 3.0
4869 2.0
4870 2.0
4871 3.0
4872 3.0
4873 2.0
4874 2.0
4875 3.0
4876 3.0
4877 2.0
4878 2.0
4879 2.0
4880 3.0
4881 3.0
4882 2.0
4883 3.0
4884 3.0
4885 2.0
4886 3.0
4887 3.0
4888 2.0
4889 3.0
4890 3.0
4891 2.0
4892 3.0
4893 3.0
4894 2.0
4895 3.0
4896 3.0
4897 2.0
4898 3.0
4899 3.0
4900 2.0
4901 3.0
4902 3.0
4903 2.0
4904 3.0
4905 3.0
4906 2.0
4907 3.0
4908 3.0
4909 2.0
4910 3.0
4911 3.0
4912 2.0
4913 3.0
4914 3.0
4915 2.0
4916 3.0
4917 3.0
4918 2.0
4919 3.0
4920 3.0
4921 2.0
4922 3.0
4923 3.0
4924 2.0
4925 3.0
4926 3.0
4927 3.0
4928 3.0
4929 2.0
4930 2.0
4931 2.0
4932 3.0
4933 3.0
4934 2.0
4935 2.0
4936 2.0
4937 3.0
4938 3.0
4939 2.0
4940 2.0
4941 2.0
4942 3.0
4943 3.0
4944 2.0
4945 2.0
4946 2.0
4947 3.0
4948 3.0
4949 2.0
4950 2.0
4951 2.0
4952 3.0
4953 3.0
4954 2.0
4955 2.0
4956 2.0
4957 3.0
4958 3.0
4959 2.0
4960 2.0
4961 2.0
4962 3.0
4963 3.0
4964 2.0
4965 2.0
4966 2.0
4967 3.0
4968 3.0
4969 2.0
4970 2.0
4971 2.0
4972 3.0
4973 3.0
4974 2.0
4975 2.0
4976 2.0
4977 3.0
4978 3.0
4979 2.0
4980 2.0
4981 2.0
4982 3.0
4983 3.0
4984 2.0
4985 2.0
4986 2.0
4987 3.0
4988 3.0
4989 2.0
4990 2.0
4991 2.0
4992 3.0
4993 3.0
4994 2.0
4995 2.0
4996 2.0
4997 3.0
4998 3.0
4999 2.0
5000 2.0
5001 2.0
5002 3.0
5003 3.0
5004 2.0
5005 2.0
5006 2.0
5007 2.0
5008 2.0
5009 2.0
5010 2.0
5011 2.0
5012 2.0
5013 2.0
5014 2.0
5015 2.0
5016 2.0
5017 2.0
5018 2.0
5019 2.0
5020 2.0
5021 2.0
5022 2.0
5023 2.0
5024 2.0
5025 2.0
5026 2.0
5027 2.0
5028 2.0
5029 2.0
5030 2.0
5031 2.0
5032 2.0
5033 2.0
5034 2.0
5035 2.0
5036 2.0
5037 2.0
5038 2.0
5039 2.0
5040 2.0
5041 2.0
5042 2.0
5043 2.0
5044 2.0
5045 2.0
5046 2.0
5047 2.0
5048 2.0
5049 2.0
5050 2.0
5051 2.0
5052 2.0
5053 2.0
5054 2.0
5055 2.0
5056 2.0
5057 2.0
5058 2.0
5059 2.0
5060 2.0
5061 2.0
5062 2.0
5063 2.0
5064 2.0
5065 2.0
5066 2.0
5067 2.0
5068 2.0
5069 2.0
5070 2.0
5071 2.0
5072 2.0
5073 2.0
5074 2.0
5075 2.0
5076 2.0
5077 2.0
5078 2.0
5079 2.0
5080 2.0
5081 2.0
5082 2.0
5083 2.0
5084 2.0
5085 2.0
5086 2.0
5087 2.0
5088 2.0
5089 2.0
5090 2.0
5091 2.0
5092 2.0
5093 2.0
5094 2.0
5095 2.0
5096 2.0
5097 2.0
5098 2.0
5099 2.0
5100 2.0
5101 2.0
5102 2.0
5103 3.0
5104 4.0
5105 3.0
5106 3.0
5107 3.0
5108 3.0
5109 3.0
5110 4.0
5111 3.0
5112 3.0
5113 3.0
5114 3.0
5115 3.0
5116 4.0
5117 3.0
5118 3.0
5119 3.0
5120 3.0
5121 3.0
5122 4.0
5123 3.0
5124 3.0
5125 3.0
5126 3.0
5127 3.0
5128 4.0
5129 3.0
5130 3.0
5131 3.0
5132 3.0
5133 3.0
5134 4.0
5135 3.0
5136 3.0
5137 3.0
5138 3.0
5139 3.0
5140 4.0
5141 3.0
5142 3.0
5143 3.0
5144 3.0
5145 3.0
5146 4.0
5147 3.0
5148 3.0
5149 3.0
5150 3.0
5151 3.0
5152 4.0
5153 3.0
5154 3.0
5155 3.0
5156 3.0
5157 3.0
5158 4.0
5159 3.0
5160 3.0
5161 3.0
5162 3.0
5163 3.0
5164 4.0
5165 3.0
5166 3.0
5167 3.0
5168 3.0
5169 3.0
5170 4.0
5171 3.0
5172 3.0
5173 3.0
5174 3.0
5175 3.0
5176 4.0
5177 3.0
5178 3.0
5179 3.0
5180 3.0
5181 3.0
5182 4.0
5183 3.0
5184 3.0
5185 3.0
5186 3.0
5187 3.0
5188 4.0
5189 3.0
5190 3.0
5191 3.0
5192 3.0
5193 3.0
5194 4.0
5195 3.0
5196 3.0
5197 3.0
5198 3.0
5199 1.0
5200 2.0
5201 2.0
5202 2.0
5203 2.0
5204 2.0
5205 2.0
5206 2.0
5207 2.0
5208 2.0
5209 2.0
5210 2.0
5211 2.0
5212 2.0
5213 2.0
5214 2.0
5215 2.0
5216 2.0
5217 2.0
5218 2.0
5219 2.0
5220 2.0
5221 2.0
5222 2.0
5223 2.0
5224 2.0
5225 2.0
5226 2.0
5227 2.0
5228 2.0
5229 2.0
5230 2.0
5231 2.0
5232 2.0
5233 2.0
5234 2.0
5235 2.0
5236 2.0
5237 2.0
5238 2.0
5239 2.0
5240 2.0
5241 2.0
5242 2.0
5243 2.0
5244 2.0
5245 2.0
5246 2.0
5247 2.0
5248 2.0
5249 2.0
5250 2.0
5251 2.0
5252 2.0
5253 2.0
5254 2.0
5255 2.0
5256 2.0
5257 2.0
5258 2.0
5259 2.0
5260 2.0
5261 2.0
5262 2.0
5263 1.0
5264 3.0
5265 3.0
5266 3.0
5267 3.0
5268 3.0
5269 3.0
5270 3.0
5271 3.0
5272 3.0
5273 3.0
5274 3.0
5275 3.0
5276 3.0
5277 3.0
5278 3.0
5279 3.0
5280 3.0
5281 3.0
5282 3.0
5283 3.0
5284 3.0
5285 3.0
5286 3.0
5287 3.0
5288 3.0
5289 3.0
5290 3.0
5291 3.0
5292 3.0
5293 3.0
5294 3.0
5295 3.0
5296 3.0
5297 3.0
5298 3.0
5299 3.0
5300 3.0
5301 3.0
5302 3.0
5303 3.0
5304 3.0
5305 3.0
5306 3.0
5307 3.0
5308 3.0
5309 3.0
5310 3.0
5311 3.0
5312 3.0
5313 3.0
5314 3.0
5315 3.0
5316 3.0
5317 3.0
5318 3.0
5319 3.0
5320 3.0
5321 3.0
5322 3.0
5323 3.0
5324 3.0
5325 3.0
5326 3.0
5327 3.0
5328 3.0
5329 3.0
5330 3.0
5331 3.0
5332 3.0
5333 3.0
5334 3.0
5335 3.0
5336 3.0
5337 3.0
5338 3.0
5339 3.0
5340 3.0
5341 3.0
5342 3.0
5343 3.0
5344 3.0
5345 3.0
5346 3.0
5347 3.0
5348 3.0
5349 3.0
5350 3.0
5351 3.0
5352 3.0
5353 3.0
5354 3.0
5355 3.0
5356 3.0
5357 3.0
5358 2.0
5359 2.0
5360 2.0
5361 2.0
5362 2.0
5363 2.0
5364 2.0
5365 2.0
5366 2.0
5367 2.0
5368 2.0
5369 2.0
5370 2.0
5371 2.0
5372 2.0
5373 2.0
5374 2.0
5375 2.0
5376 2.0
5377 2.0
5378 2.0
5379 2.0
5380 2.0
5381 2.0
5382 2.0
5383 2.0
5384 2.0
5385 2.0
5386 2.0
5387 2.0
5388 2.0
5389 2.0
5390 2.0
5391 2.0
5392 2.0
5393 2.0
5394 2.0
5395 2.0
5396 2.0
5397 2.0
5398 2.0
5399 2.0
5400 2.0
5401 2.0
5402 2.0
5403 2.0
5404 2.0
5405 3.0
5406 3.0
5407 2.0
5408 2.0
5409 3.0
5410 3.0
5411 2.0
5412 2.0
5413 3.0
5414 3.0
5415 2.0
5416 2.0
5417 3.0
5418 3.0
5419 2.0
5420 2.0
5421 3.0
5422 3.0
5423 2.0
5424 2.0
5425 3.0
5426 3.0
5427 2.0
5428 2.0
5429 3.0
5430 3.0
5431 2.0
5432 2.0
5433 3.0
5434 3.0
5435 2.0
5436 2.0
5437 3.0
5438 3.0
5439 2.0
5440 2.0
5441 3.0
5442 3.0
5443 2.0
5444 2.0
5445 3.0
5446 3.0
5447 2.0
5448 2.0
5449 3.0
5450 3.0
5451 2.0
5452 2.0
5453 3.0
5454 3.0
5455 2.0
5456 2.0
5457 3.0
5458 3.0
5459 2.0
5460 2.0
5461 3.0
5462 3.0
5463 2.0
5464 2.0
5465 3.0
5466 3.0
5467 2.0
5468 2.0
5469 2.0
5470 3.0
5471 3.0
5472 2.0
5473 3.0
5474 3.0
5475 2.0
5476 3.0
5477 3.0
5478 2.0
5479 3.0
5480 3.0
5481 2.0
5482 3.0
5483 3.0
5484 2.0
5485 3.0
5486 3.0
5487 2.0
5488 3.0
5489 3.0
5490 2.0
5491 3.0
5492 3.0
5493 2.0
5494 3.0
5495 3.0
5496 2.0
5497 3.0
5498 3.0
5499 2.0
5500 3.0
5501 3.0
5502 2.0
5503 3.0
5504 3.0
5505 2.0
5506 3.0
5507 3.0
5508 2.0
5509 3.0
5510 3.0
5511 2.0
5512 3.0
5513 3.0
5514 2.0
5515 3.0
5516 3.0
5517 3.0
5518 3.0
5519 2.0
5520 2.0
5521 2.0
5522 3.0
5523 3.0
5524 2.0
5525 2.0
5526 2.0
5527 3.0
5528 3.0
5529 2.0
5530 2.0
5531 2.0
5532 3.0
5533 3.0
5534 2.0
5535 2.0
5536 2.0
5537 3.0
5538 3.0
5539 2.0
5540 2.0
5541 2.0
5542 3.0
5543 3.0
5544 2.0
5545 2.0
5546 2.0
5547 3.0
5548 3.0
5549 2.0
5550 2.0
5551 2.0
5552 3.0
5553 3.0
5554 2.0
5555 2.0
5556 2.0
5557 3.0
5558 3.0
5559 2.0
5560 2.0
5561 2.0
5562 3.0
5563 3.0
5564 2.0
5565 2.0
5566 2.0
5567 3.0
5568 3.0
5569 2.0
5570 2.0
5571 2.0
5572 3.0
5573 3.0
5574 2.0
5575 2.0
5576 2.0
5577 3.0
5578 3.0
5579 2.0
5580 2.0
5581 2.0
5582 3.0
5583 3.0
5584 2.0
5585 2.0
5586 2.0
5587 3.0
5588 3.0
5589 2.0
5590 2.0
5591 2.0
5592 3.0
5593 3.0
5594 2.0
5595 2.0
5596 2.0
5597 2.0
5598 2.0
5599 2.0
5600 2.0
5601 2.0
5602 2.0
5603 2.0
5604 2.0
5605 2.0
5606 2.0
5607 2.0
5608 2.0
5609 2.0
5610 2.0
5611 2.0
5612 2.0
5613 2.0
5614 2.0
5615 2.0
5616 2.0
5617 2.0
5618 2.0
5619 2.0
5620 2.0
5621 2.0
5622 2.0
5623 2.0
5624 2.0
5625 2.0
5626 2.0
5627 2.0
5628 2.0
5629 2.0
5630 2.0
5631 2.0
5632 2.0
5633 2.0
5634 2.0
5635 2.0
5636 2.0
5637 2.0
5638 2.0
5639 2.0
5640 2.0
5641 2.0
5642 2.0
5643 2.0
5644 2.0
5645 2.0
5646 2.0
5647 2.0
5648 2.0
5649 2.0
5650 2.0
5651 2.0
5652 2.0
5653 2.0
5654 2.0
5655 2.0
5656 2.0
5657 2.0
5658 2.0
5659 2.0
5660 2.0
5661 2.0
5662 2.0
5663 2.0
5664 2.0
5665 2.0
5666 2.0
5667 2.0
5668 2.0
5669 2.0
5670 2.0
5671 2.0
5672 2.0
5673 2.0
5674 2.0
5675 2.0
5676 2.0
5677 2.0
5678 2.0
5679 2.0
5680 2.0
5681 2.0
5682 2.0
5683 2.0
5684 2.0
5685 2.0
5686 2.0
5687 2.0
5688 2.0
5689 2.0
5690 2.0
5691 2.0
5692 2.0
5693 3.0
5694 4.0
5695 3.0
5696 3.0
5697 3.0
5698 3.0
5699 3.0
5700 4.0
5701 3.0
5702 3.0
5703 3.0
5704 3.0
5705 3.0
5706 4.0
5707 3.0
5708 3.0
5709 3.0
5710 3.0
5711 3.0
5712 4.0
5713 3.0
5714 3.0
5715 3.0
5716 3.0
5717 3.0
5718 4.0
5719 3.0
5720 3.0
5721 3.0
5722 3.0
5723 3.0
5724 4.0
5725 3.0
5726 3.0
5727 3.0
5728 3.0
5729 3.0
5730 4.0
5731 3.0
5732 3.0
5733 3.0
5734 3.0
5735 3.0
5736 4.0
5737 3.0
5738 3.0
5739 3.0
5740 3.0
5741 3.0
5742 4.0
5743 3.0
5744 3.0
5745 3.0
5746 3.0
5747 3.0
5748 4.0
5749 3.0
5750 3.0
5751 3.0
5752 3.0
5753 3.0
5754 4.0
5755 3.0
5756 3.0
5757 3.0
5758 3.0
5759 3.0
5760 4.0
5761 3.0
5762 3.0
5763 3.0
5764 3.0
5765 3.0
5766 4.0
5767 3.0
5768 3.0
5769 3.0
5770 3.0
5771 3.0
5772 4.0
5773 3.0
5774 3.0
5775 3.0
5776 3.0
5777 3.0
5778 4.0
5779 3.0
5780 3.0
5781 3.0
5782 3.0
5783 3.0
5784 4.0
5785 3.0
5786 3.0
5787 3.0
5788 3.0
5789 1.0
5790 2.0
5791 2.0
5792 2.0
5793 2.0
5794 2.0
5795 2.0
5796 2.0
5797 2.0
5798 2.0
5799 2.0
5800 2.0
5801 2.0
5802 2.0
5803 2.0
5804 2.0
5805 2.0
5806 2.0
5807 2.0
5808 2.0
5809 2.0
5810 2.0
5811 2.0
5812 2.0
5813 2.0
5814 2.0
5815 2.0
5816 2.0
5817 2.0
5818 2.0
5819 2.0
5820 2.0
5821 2.0
5822 2.0
5823 2.0
5824 2.0
5825 2.0
5826 2.0
5827 2.0
5828 2.0
5829 2.0
5830 2.0
5831 2.0
5832 2.0
5833 2.0
5834 2.0
5835 2.0
5836 2.0
5837 2.0
5838 2.0
5839 2.0
5840 2.0
5841 2.0
5842 2.0
5843 2.0
5844 2.0
5845 2.0
5846 2.0
5847 2.0
5848 2.0
5849 2.0
5850 2.0
5851 2.0
5852 2.0
5853 1.0
5854 3.0
5855 3.0
5856 3.0
5857 3.0
5858 3.0
5859 3.0
5860 3.0
5861 3.0
5862 3.0
5863 3.0
5864 3.0
5865 3.0
5866 3.0
5867 3.0
5868 3.0
5869 3.0
5870 3.0
5871 3.0
5872 3.0
5873 3.0
5874 3.0
5875 3.0
5876 3.0
5877 3.0
5878 3.0
5879 3.0
5880 3.0
5881 3.0
5882 3.0
5883 3.0
5884 3.0
5885 3.0
5886 3.0
5887 3.0
5888 3.0
5889 3.0
5890 3.0
5891 3.0
5892 3.0
5893 3.0
5894 3.0
5895 3.0
5896 3.0
5897 3.0
5898 3.0
5899 3.0
5900 3.0
5901 3.0
5902 3.0
5903 3.0
5904 3.0
5905 3.0
5906 3.0
5907 3.0
5908 3.0
5909 3.0
5910 3.0
5911 3.0
5912 3.0
5913 3.0
5914 3.0
5915 3.0
5916 3.0
5917 3.0
5918 3.0
5919 3.0
5920 3.0
5921 3.0
5922 3.0
5923 3.0
5924 3.0
5925 3.0
5926 3.0
5927 3.0
5928 3.0
5929 3.0
5930 3.0
5931 3.0
5932 3.0
5933 3.0
5934 3.0
5935 3.0
5936 3.0
5937 3.0
5938 3.0
5939 3.0
5940 3.0
5941 3.0
5942 3.0
5943 3.0
5944 3.0
5945 3.0
5946 3.0
5947 3.0
5948 2.0
5949 2.0
5950 2.0
5951 2.0
5952 2.0
5953 2.0
5954 2.0
5955 2.0
5956 2.0
5957 2.0
5958 2.0
5959 2.0
5960 2.0
5961 2.0
5962 2.0
5963 2.0
5964 2.0
5965 2.0
5966 2.0
5967 2.0
5968 2.0
5969 2.0
5970 2.0
5971 2.0
5972 2.0
5973 2.0
5974 2.0
5975 2.0
5976 2.0
5977 2.0
5978 2.0
5979 2.0
5980 2.0
5981 2.0
5982 2.0
5983 2.0
5984 2.0
5985 2.0
5986 2.0
5987 2.0
5988 2.0
5989 2.0
5990 2.0
5991 2.0
5992 2.0
5993 2.0
5994 2.0
5995 3.0
5996 3.0
5997 2.0
5998 2.0
5999 3.0
6000 3.0
6001 2.0
6002 2.0
6003 3.0
6004 3.0
6005 2.0
6006 2.0
6007 3.0
6008 3.0
6009 2.0
6010 2.0
6011 3.0
6012 3.0
6013 2.0
6014 2.0
6015 3.0
6016 3.0
6017 2.0
6018 2.0
6019 3.0
6020 3.0
6021 2.0
6022 2.0
6023 3.0
6024 3.0
6025 2.0
6026 2.0
6027 3.0
6028 3.0
6029 2.0
6030 2.0
6031 3.0
6032 3.0
6033 2.0
6034 2.0
6035 3.0
6036 3.0
6037 2.0
6038 2.0
6039 3.0
6040 3.0
6041 2.0
6042 2.0
6043 3.0
6044 3.0
6045 2.0
6046 2.0
6047 3.0
6048 3.0
6049 2.0
6050 2.0
6051 3.0
6052 3.0
6053 2.0
6054 2.0
6055 3.0
6056 3.0
6057 2.0
6058 2.0
6059 2.0
6060 3.0
6061 3.0
6062 2.0
6063 3.0
6064 3.0
6065 2.0
6066 3.0
6067 3.0
6068 2.0
6069 3.0
6070 3.0
6071 2.0
6072 3.0
6073 3.0
6074 2.0
6075 3.0
6076 3.0
6077 2.0
6078 3.0
6079 3.0
6080 2.0
6081 3.0
6082 3.0
6083 2.0
6084 3.0
6085 3.0
6086 2.0
6087 3.0
6088 3.0
6089 2.0
6090 3.0
6091 3.0
6092 2.0
6093 3.0
6094 3.0
6095 2.0
6096 3.0
6097 3.0
6098 2.0
6099 3.0
6100 3.0
6101 2.0
6102 3.0
6103 3.0
6104 2.0
6105 3.0
6106 3.0
6107 3.0
6108 3.0
6109 2.0
6110 2.0
6111 2.0
6112 3.0
6113 3.0
6114 2.0
6115 2.0
6116 2.0
6117 3.0
6118 3.0
6119 2.0
6120 2.0
6121 2.0
6122 3.0
6123 3.0
6124 2.0
6125 2.0
6126 2.0
6127 3.0
6128 3.0
6129 2.0
6130 2.0
6131 2.0
6132 3.0
6133 3.0
6134 2.0
6135 2.0
6136 2.0
6137 3.0
6138 3.0
6139 2.0
6140 2.0
6141 2.0
6142 3.0
6143 3.0
6144 2.0
6145 2.0
6146 2.0
6147 3.0
6148 3.0
6149 2.0
6150 2.0
6151 2.0
6152 3.0
6153 3.0
6154 2.0
6155 2.0
6156 2.0
6157 3.0
6158 3.0
6159 2.0
6160 2.0
6161 2.0
6162 3.0
6163 3.0
6164 2.0
6165 2.0
6166 2.0
6167 3.0
6168 3.0
6169 2.0
6170 2.0
6171 2.0
6172 3.0
6173 3.0
6174 2.0
6175 2.0
6176 2.0
6177 3.0
6178 3.0
6179 2.0
6180 2.0
6181 2.0
6182 3.0
6183 3.0
6184 2.0
6185 2.0
6186 2.0
6187 2.0
6188 2.0
6189 2.0
6190 2.0
6191 2.0
6192 2.0
6193 2.0
6194 2.0
6195 2.0
6196 2.0
6197 2.0
6198 2.0
6199 2.0
6200 2.0
6201 2.0
6202 2.0
6203 2.0
6204 2.0
6205 2.0
6206 2.0
6207 2.0
6208 2.0
6209 2.0
6210 2.0
6211 2.0
6212 2.0
6213 2.0
6214 2.0
6215 2.0
6216 2.0
6217 2.0
6218 2.0
6219 2.0
6220 2.0
6221 2.0
6222 2.0
6223 2.0
6224 2.0
6225 2.0
6226 2.0
6227 2.0
6228 2.0
6229 2.0
6230 2.0
6231 2.0
6232 2.0
6233 2.0
6234 2.0
6235 2.0
6236 2.0
6237 2.0
6238 2.0
6239 2.0
6240 2.0
6241 2.0
6242 2.0
6243 2.0
6244 2.0
6245 2.0
6246 2.0
6247 2.0
6248 2.0
6249 2.0
6250 2.0
6251 2.0
6252 2.0
6253 2.0
6254 2.0
6255 2.0
6256 2.0
6257 2.0
6258 2.0
6259 2.0
6260 2.0
6261 2.0
6262 2.0
6263 2.0
6264 2.0
6265 2.0
6266 2.0
6267 2.0
6268 2.0
6269 2.0
6270 2.0
6271 2.0
6272 2.0
6273 2.0
6274 2.0
6275 2.0
6276 2.0
6277 2.0
6278 2.0
6279 2.0
6280 2.0
6281 2.0
6282 2.0
6283 3.0
6284 4.0
6285 3.0
6286 3.0
6287 3.0
6288 3.0
6289 3.0
6290 4.0
6291 3.0
6292 3.0
6293 3.0
6294 3.0
6295 3.0
6296 4.0
6297 3.0
6298 3.0
6299 3.0
6300 3.0
6301 3.0
6302 4.0
6303 3.0
6304 3.0
6305 3.0
6306 3.0
6307 3.0
6308 4.0
6309 3.0
6310 3.0
6311 3.0
6312 3.0
6313 3.0
6314 4.0
6315 3.0
6316 3.0
6317 3.0
6318 3.0
6319 3.0
6320 4.0
6321 3.0
6322 3.0
6323 3.0
6324 3.0
6325 3.0
6326 4.0
6327 3.0
6328 3.0
6329 3.0
6330 3.0
6331 3.0
6332 4.0
6333 3.0
6334 3.0
6335 3.0
6336 3.0
6337 3.0
6338 4.0
6339 3.0
6340 3.0
6341 3.0
6342 3.0
6343 3.0
6344 4.0
6345 3.0
6346 3.0
6347 3.0
6348 3.0
6349 3.0
6350 4.0
6351 3.0
6352 3.0
6353 3.0
6354 3.0
6355 3.0
6356 4.0
6357 3.0
6358 3.0
6359 3.0
6360 3.0
6361 3.0
6362 4.0
6363 3.0
6364 3.0
6365 3.0
6366 3.0
6367 3.0
6368 4.0
6369 3.0
6370 3.0
6371 3.0
6372 3.0
6373 3.0
6374 4.0
6375 3.0
6376 3.0
6377 3.0
6378 3.0
6379 1.0
6380 2.0
6381 2.0
6382 2.0
6383 2.0
6384 2.0
6385 2.0
6386 2.0
6387 2.0
6388 2.0
6389 2.0
6390 2.0
6391 2.0
6392 2.0
6393 2.0
6394 2.0
6395 2.0
6396 2.0
6397 2.0
6398 2.0
6399 2.0
6400 2.0
6401 2.0
6402 2.0
6403 2.0
6404 2.0
6405 2.0
6406 2.0
6407 2.0
6408 2.0
6409 2.0
6410 2.0
6411 2.0
6412 2.0
6413 2.0
6414 2.0
6415 2.0
6416 2.0
6417 2.0
6418 2.0
6419 2.0
6420 2.0
6421 2.0
6422 2.0
6423 2.0
6424 2.0
6425 2.0
6426 2.0
6427 2.0
6428 2.0
6429 2.0
6430 2.0
6431 2.0
6432 2.0
6433 2.0
6434 2.0
6435 2.0
6436 2.0
6437 2.0
6438 2.0
6439 2.0
6440 2.0
6441 2.0
6442 2.0
6443 1.0
6444 3.0
6445 3.0
6446 3.0
6447 3.0
6448 3.0
6449 3.0
6450 3.0
6451 3.0
6452 3.0
6453 3.0
6454 3.0
6455 3.0
6456 3.0
6457 3.0
6458 3.0
6459 3.0
6460 3.0
6461 3.0
6462 3.0
6463 3.0
6464 3.0
6465 3.0
6466 3.0
6467 3.0
6468 3.0
6469 3.0
6470 3.0
6471 3.0
6472 3.0
6473 3.0
6474 3.0
6475 3.0
6476 3.0
6477 3.0
6478 3.0
6479 3.0
6480 3.0
6481 3.0
6482 3.0
6483 3.0
6484 3.0
6485 3.0
6486 3.0
6487 3.0
6488 3.0
6489 3.0
6490 3.0
6491 3.0
6492 3.0
6493 3.0
6494 3.0
6495 3.0
6496 3.0
6497 3.0
6498 3.0
6499 3.0
6500 3.0
6501 3.0
6502 3.0
6503 3.0
6504 3.0
6505 3.0
6506 3.0
6507 3.0
6508 3.0
6509 3.0
6510 3.0
6511 3.0
6512 3.0
6513 3.0
6514 3.0
6515 3.0
6516 3.0
6517 3.0
6518 3.0
6519 3.0
6520 3.0
6521 3.0
6522 3.0
6523 3.0
6524 3.0
6525 3.0
6526 3.0
6527 3.0
6528 3.0
6529 3.0
6530 3.0
6531 3.0
6532 3.0
6533 3.0
6534 3.0
6535 3.0
6536 3.0
6537 3.0
6538 3.0
6539 3.0
6540 2.0
6541 2.0
6542 2.0
6543 2.0
6544 2.0
6545 2.0
6546 2.0
6547 2.0
6548 2.0
6549 2.0
6550 2.0
6551 2.0
6552 2.0
6553 2.0
6554 2.0
6555 2.0
6556 2.0
6557 2.0
6558 2.0
6559 2.0
6560 2.0
6561 2.0
6562 2.0
6563 2.0
6564 2.0
6565 2.0
6566 2.0
6567 2.0
6568 2.0
6569 2.0
6570 2.0
6571 2.0
6572 2.0
6573 2.0
6574 2.0
6575 2.0
6576 2.0
6577 2.0
6578 2.0
6579 2.0
6580 2.0
6581 2.0
6582 2.0
6583 2.0
6584 2.0
6585 2.0
6586 2.0
6587 3.0
6588 3.0
6589 2.0
6590 2.0
6591 3.0
6592 3.0
6593 2.0
6594 2.0
6595 3.0
6596 3.0
6597 2.0
6598 2.0
6599 3.0
6600 3.0
6601 2.0
6602 2.0
6603 3.0
6604 3.0
6605 2.0
6606 2.0
6607 3.0
6608 3.0
6609 2.0
6610 2.0
6611 3.0
6612 3.0
6613 2.0
6614 2.0
6615 3.0
6616 3.0
6617 2.0
6618 2.0
6619 3.0
6620 3.0
6621 2.0
6622 2.0
6623 3.0
6624 3.0
6625 2.0
6626 2.0
6627 3.0
6628 3.0
6629 2.0
6630 2.0
6631 3.0
6632 3.0
6633 2.0
6634 2.0
6635 3.0
6636 3.0
6637 2.0
6638 2.0
6639 3.0
6640 3.0
6641 2.0
6642 2.0
6643 3.0
6644 3.0
6645 2.0
6646 2.0
6647 3.0
6648 3.0
6649 2.0
6650 2.0
6651 2.0
6652 3.0
6653 3.0
6654 2.0
6655 3.0
6656 3.0
6657 2.0
6658 3.0
6659 3.0
6660 2.0
6661 3.0
6662 3.0
6663 2.0
6664 3.0
6665 3.0
6666 2.0
6667 3.0
6668 3.0
6669 2.0
6670 3.0
6671 3.0
6672 2.0
6673 3.0
6674 3.0
6675 2.0
6676 3.0
6677 3.0
6678 2.0
6679 3.0
6680 3.0
6681 2.0
6682 3.0
6683 3.0
6684 2.0
6685 3.0
6686 3.0
6687 2.0
6688 3.0
6689 3.0
6690 2.0
6691 3.0
6692 3.0
6693 2.0
6694 3.0
6695 3.0
6696 2.0
6697 3.0
6698 3.0
6699 3.0
6700 3.0
6701 2.0
6702 2.0
6703 2.0
6704 3.0
6705 3.0
6706 2.0
6707 2.0
6708 2.0
6709 3.0
6710 3.0
6711 2.0
6712 2.0
6713 2.0
6714 3.0
6715 3.0
6716 2.0
6717 2.0
6718 2.0
6719 3.0
6720 3.0
6721 2.0
6722 2.0
6723 2.0
6724 3.0
6725 3.0
6726 2.0
6727 2.0
6728 2.0
6729 3.0
6730 3.0
6731 2.0
6732 2.0
6733 2.0
6734 3.0
6735 3.0
6736 2.0
6737 2.0
6738 2.0
6739 3.0
6740 3.0
6741 2.0
6742 2.0
6743 2.0
6744 3.0
6745 3.0
6746 2.0
6747 2.0
6748 2.0
6749 3.0
6750 3.0
6751 2.0
6752 2.0
6753 2.0
6754 3.0
6755 3.0
6756 2.0
6757 2.0
6758 2.0
6759 3.0
6760 3.0
6761 2.0
6762 2.0
6763 2.0
6764 3.0
6765 3.0
6766 2.0
6767 2.0
6768 2.0
6769 3.0
6770 3.0
6771 2.0
6772 2.0
6773 2.0
6774 3.0
6775 3.0
6776 2.0
6777 2.0
6778 2.0
6779 2.0
6780 2.0
6781 2.0
6782 2.0
6783 2.0
6784 2.0
6785 2.0
6786 2.0
6787 2.0
6788 2.0
6789 2.0
6790 2.0
6791 2.0
6792 2.0
6793 2.0
6794 2.0
6795 2.0
6796 2.0
6797 2.0
6798 2.0
6799 2.0
6800 2.0
6801 2.0
6802 2.0
6803 2.0
6804 2.0
6805 2.0
6806 2.0
6807 2.0
6808 2.0
6809 2.0
6810 2.0
6811 2.0
6812 2.0
6813 2.0
6814 2.0
6815 2.0
6816 2.0
6817 2.0
6818 2.0
6819 2.0
6820 2.0
6821 2.0
6822 2.0
6823 2.0
6824 2.0
6825 2.0
6826 2.0
6827 2.0
6828 2.0
6829 2.0
6830 2.0
6831 2.0
6832 2.0
6833 2.0
6834 2.0
6835 2.0
6836 2.0
6837 2.0
6838 2.0
6839 2.0
6840 2.0
6841 2.0
6842 2.0
6843 2.0
6844 2.0
6845 2.0
6846 2.0
6847 2.0
6848 2.0
6849 2.0
6850 2.0
6851 2.0
6852 2.0
6853 2.0
6854 2.0
6855 2.0
6856 2.0
6857 2.0
6858 2.0
6859 2.0
6860 2.0
6861 2.0
6862 2.0
6863 2.0
6864 2.0
6865 2.0
6866 2.0
6867 2.0
6868 2.0
6869 2.0
6870 2.0
6871 2.0
6872 2.0
6873 2.0
6874 2.0
6875 3.0
6876 4.0
6877 3.0
6878 3.0
6879 3.0
6880 3.0
6881 3.0
6882 4.0
6883 3.0
6884 3.0
6885 3.0
6886 3.0
6887 3.0
6888 4.0
6889 3.0
6890 3.0
6891 3.0
6892 3.0
6893 3.0
6894 4.0
6895 3.0
6896 3.0
6897 3.0
6898 3.0
6899 3.0
6900 4.0
6901 3.0
6902 3.0
6903 3.0
6904 3.0
6905 3.0
6906 4.0
6907 3.0
6908 3.0
6909 3.0
6910 3.0
6911 3.0
6912 4.0
6913 3.0
6914 3.0
6915 3.0
6916 3.0
6917 3.0
6918 4.0
6919 3.0
6920 3.0
6921 3.0
6922 3.0
6923 3.0
6924 4.0
6925 3.0
6926 3.0
6927 3.0
6928 3.0
6929 3.0
6930 4.0
6931 3.0
6932 3.0
6933 3.0
6934 3.0
6935 3.0
6936 4.0
6937 3.0
6938 3.0
6939 3.0
6940 3.0
6941 3.0
6942 4.0
6943 3.0
6944 3.0
6945 3.0
6946 3.0
6947 3.0
6948 4.0
6949 3.0
6950 3.0
6951 3.0
6952 3.0
6953 3.0
6954 4.0
6955 3.0
6956 3.0
6957 3.0
6958 3.0
6959 3.0
6960 4.0
6961 3.0
6962 3.0
6963 3.0
6964 3.0
6965 3.0
6966 4.0
6967 3.0
6968 3.0
6969 3.0
6970 3.0
6971 1.0
6972 2.0
6973 2.0
6974 2.0
6975 2.0
6976 2.0
6977 2.0
6978 2.0
6979 2.0
6980 2.0
6981 2.0
6982 2.0
6983 2.0
6984 2.0
6985 2.0
6986 2.0
6987 2.0
6988 2.0
6989 2.0
6990 2.0
6991 2.0
6992 2.0
6993 2.0
6994 2.0
6995 2.0
6996 2.0
6997 2.0
6998 2.0
6999 2.0
7000 2.0
7001 2.0
7002 2.0
7003 2.0
7004 2.0
7005 2.0
7006 2.0
7007 2.0
7008 2.0
7009 2.0
7010 2.0
7011 2.0
7012 2.0
7013 2.0
7014 2.0
7015 2.0
7016 2.0
7017 2.0
7018 2.0
7019 2.0
7020 2.0
7021 2.0
7022 2.0
7023 2.0
7024 2.0
7025 2.0
7026 2.0
7027 2.0
7028 2.0
7029 2.0
7030 2.0
7031 2.0
7032 2.0
7033 2.0
7034 2.0
7035 1.0
7036 3.0
7037 3.0
7038 3.0
7039 3.0
7040 3.0
7041 3.0
7042 3.0
7043 3.0
7044 3.0
7045 3.0
7046 3.0
7047 3.0
7048 3.0
7049 3.0
7050 3.0
7051 3.0
7052 3.0
7053 3.0
7054 3.0
7055 3.0
7056 3.0
7057 3.0
7058 3.0
7059 3.0
7060 3.0
7061 3.0
7062 3.0
7063 3.0
7064 3.0
7065 3.0
7066 3.0
7067 3.0
7068 3.0
7069 3.0
7070 3.0
7071 3.0
7072 3.0
7073 3.0
7074 3.0
7075 3.0
7076 3.0
7077 3.0
7078 3.0
7079 3.0
7080 3.0
7081 3.0
7082 3.0
7083 3.0
7084 3.0
7085 3.0
7086 3.0
7087 3.0
7088 3.0
7089 3.0
7090 3.0
7091 3.0
7092 3.0
7093 3.0
7094 3.0
7095 3.0
7096 3.0
7097 3.0
7098 3.0
7099 3.0
7100 3.0
7101 3.0
7102 3.0
7103 3.0
7104 3.0
7105 3.0
7106 3.0
7107 3.0
7108 3.0
7109 3.0
7110 3.0
7111 3.0
7112 3.0
7113 3.0
7114 3.0
7115 3.0
7116 3.0
7117 3.0
7118 3.0
7119 3.0
7120 3.0
7121 3.0
7122 3.0
7123 3.0
7124 3.0
7125 3.0
7126 3.0
7127 3.0
7128 3.0
7129 3.0
7130 2.0
7131 2.0
7132 2.0
7133 2.0
7134 2.0
7135 2.0
7136 2.0
7137 2.0
7138 2.0
7139 2.0
7140 2.0
7141 2.0
7142 2.0
7143 2.0
7144 2.0
7145 2.0
7146 2.0
7147 2.0
7148 2.0
7149 2.0
7150 2.0
7151 2.0
7152 2.0
7153 2.0
7154 2.0
7155 2.0
7156 2.0
7157 2.0
7158 2.0
7159 2.0
7160 2.0
7161 2.0
7162 2.0
7163 2.0
7164 2.0
7165 2.0
7166 2.0
7167 2.0
7168 2.0
7169 2.0
7170 2.0
7171 2.0
7172 2.0
7173 2.0
7174 2.0
7175 2.0
7176 2.0
7177 3.0
7178 3.0
7179 2.0
7180 2.0
7181 3.0
7182 3.0
7183 2.0
7184 2.0
7185 3.0
7186 3.0
7187 2.0
7188 2.0
7189 3.0
7190 3.0
7191 2.0
7192 2.0
7193 3.0
7194 3.0
7195 2.0
7196 2.0
7197 3.0
7198 3.0
7199 2.0
7200 2.0
7201 3.0
7202 3.0
7203 2.0
7204 2.0
7205 3.0
7206 3.0
7207 2.0
7208 2.0
7209 3.0
7210 3.0
7211 2.0
7212 2.0
7213 3.0
7214 3.0
7215 2.0
7216 2.0
7217 3.0
7218 3.0
7219 2.0
7220 2.0
7221 3.0
7222 3.0
7223 2.0
7224 2.0
7225 3.0
7226 3.0
7227 2.0
7228 2.0
7229 3.0
7230 3.0
7231 2.0
7232 2.0
7233 3.0
7234 3.0
7235 2.0
7236 2.0
7237 3.0
7238 3.0
7239 2.0
7240 2.0
7241 2.0
7242 3.0
7243 3.0
7244 2.0
7245 3.0
7246 3.0
7247 2.0
7248 3.0
7249 3.0
7250 2.0
7251 3.0
7252 3.0
7253 2.0
7254 3.0
7255 3.0
7256 2.0
7257 3.0
7258 3.0
7259 2.0
7260 3.0
7261 3.0
7262 2.0
7263 3.0
7264 3.0
7265 2.0
7266 3.0
7267 3.0
7268 2.0
7269 3.0
7270 3.0
7271 2.0
7272 3.0
7273 3.0
7274 2.0
7275 3.0
7276 3.0
7277 2.0
7278 3.0
7279 3.0
7280 2.0
7281 3.0
7282 3.0
7283 2.0
7284 3.0
7285 3.0
7286 2.0
7287 3.0
7288 3.0
7289 3.0
7290 3.0
7291 2.0
7292 2.0
7293 2.0
7294 3.0
7295 3.0
7296 2.0
7297 2.0
7298 2.0
7299 3.0
7300 3.0
7301 2.0
7302 2.0
7303 2.0
7304 3.0
7305 3.0
7306 2.0
7307 2.0
7308 2.0
7309 3.0
7310 3.0
7311 2.0
7312 2.0
7313 2.0
7314 3.0
7315 3.0
7316 2.0
7317 2.0
7318 2.0
7319 3.0
7320 3.0
7321 2.0
7322 2.0
7323 2.0
7324 3.0
7325 3.0
7326 2.0
7327 2.0
7328 2.0
7329 3.0
7330 3.0
7331 2.0
7332 2.0
7333 2.0
7334 3.0
7335 3.0
7336 2.0
7337 2.0
7338 2.0
7339 3.0
7340 3.0
7341 2.0
7342 2.0
7343 2.0
7344 3.0
7345 3.0
7346 2.0
7347 2.0
7348 2.0
7349 3.0
7350 3.0
7351 2.0
7352 2.0
7353 2.0
7354 3.0
7355 3.0
7356 2.0
7357 2.0
7358 2.0
7359 3.0
7360 3.0
7361 2.0
7362 2.0
7363 2.0
7364 3.0
7365 3.0
7366 2.0
7367 2.0
7368 2.0
7369 2.0
7370 2.0
7371 2.0
7372 2.0
7373 2.0
7374 2.0
7375 2.0
7376 2.0
7377 2.0
7378 2.0
7379 2.0
7380 2.0
7381 2.0
7382 2.0
7383 2.0
7384 2.0
7385 2.0
7386 2.0
7387 2.0
7388 2.0
7389 2.0
7390 2.0
7391 2.0
7392 2.0
7393 2.0
7394 2.0
7395 2.0
7396 2.0
7397 2.0
7398 2.0
7399 2.0
7400 2.0
7401 2.0
7402 2.0
7403 2.0
7404 2.0
7405 2.0
7406 2.0
7407 2.0
7408 2.0
7409 2.0
7410 2.0
7411 2.0
7412 2.0
7413 2.0
7414 2.0
7415 2.0
7416 2.0
7417 2.0
7418 2.0
7419 2.0
7420 2.0
7421 2.0
7422 2.0
7423 2.0
7424 2.0
7425 2.0
7426 2.0
7427 2.0
7428 2.0
7429 2.0
7430 2.0
7431 2.0
7432 2.0
7433 2.0
7434 2.0
7435 2.0
7436 2.0
7437 2.0
7438 2.0
7439 2.0
7440 2.0
7441 2.0
7442 2.0
7443 2.0
7444 2.0
7445 2.0
7446 2.0
7447 2.0
7448 2.0
7449 2.0
7450 2.0
7451 2.0
7452 2.0
7453 2.0
7454 2.0
7455 2.0
7456 2.0
7457 2.0
7458 2.0
7459 2.0
7460 2.0
7461 2.0
7462 2.0
7463 2.0
7464 2.0
7465 3.0
7466 4.0
7467 3.0
7468 3.0
7469 3.0
7470 3.0
7471 3.0
7472 4.0
7473 3.0
7474 3.0
7475 3.0
7476 3.0
7477 3.0
7478 4.0
7479 3.0
7480 3.0
7481 3.0
7482 3.0
7483 3.0
7484 4.0
7485 3.0
7486 3.0
7487 3.0
7488 3.0
7489 3.0
7490 4.0
7491 3.0
7492 3.0
7493 3.0
7494 3.0
7495 3.0
7496 4.0
7497 3.0
7498 3.0
7499 3.0
7500 3.0
7501 3.0
7502 4.0
7503 3.0
7504 3.0
7505 3.0
7506 3.0
7507 3.0
7508 4.0
7509 3.0
7510 3.0
7511 3.0
7512 3.0
7513 3.0
7514 4.0
7515 3.0
7516 3.0
7517 3.0
7518 3.0
7519 3.0
7520 4.0
7521 3.0
7522 3.0
7523 3.0
7524 3.0
7525 3.0
7526 4.0
7527 3.0
7528 3.0
7529 3.0
7530 3.0
7531 3.0
7532 4.0
7533 3.0
7534 3.0
7535 3.0
7536 3.0
7537 3.0
7538 4.0
7539 3.0
7540 3.0
7541 3.0
7542 3.0
7543 3.0
7544 4.0
7545 3.0
7546 3.0
7547 3.0
7548 3.0
7549 3.0
7550 4.0
7551 3.0
7552 3.0
7553 3.0
7554 3.0
7555 3.0
7556 4.0
7557 3.0
7558 3.0
7559 3.0
7560 3.0
7561 1.0
7562 2.0
7563 2.0
7564 2.0
7565 2.0
7566 2.0
7567 2.0
7568 2.0
7569 2.0
7570 2.0
7571 2.0
7572 2.0
7573 2.0
7574 2.0
7575 2.0
7576 2.0
7577 2.0
7578 2.0
7579 2.0
7580 2.0
7581 2.0
7582 2.0
7583 2.0
7584 2.0
7585 2.0
7586 2.0
7587 2.0
7588 2.0
7589 2.0
7590 2.0
7591 2.0
7592 2.0
7593 2.0
7594 2.0
7595 2.0
7596 2.0
7597 2.0
7598 2.0
7599 2.0
7600 2.0
7601 2.0
7602 2.0
7603 2.0
7604 2.0
7605 2.0
7606 2.0
7607 2.0
7608 2.0
7609 2.0
7610 2.0
7611 2.0
7612 2.0
7613 2.0
7614 2.0
7615 2.0
7616 2.0
7617 2.0
7618 2.0
7619 2.0
7620 2.0
7621 2.0
7622 2.0
7623 2.0
7624 2.0
7625 1.0
7626 3.0
7627 3.0
7628 3.0
7629 3.0
7630 3.0
7631 3.0
7632 3.0
7633 3.0
7634 3.0
7635 3.0
7636 3.0
7637 3.0
7638 3.0
7639 3.0
7640 3.0
7641 3.0
7642 3.0
7643 3.0
7644 3.0
7645 3.0
7646 3.0
7647 3.0
7648 3.0
7649 3.0
7650 3.0
7651 3.0
7652 3.0
7653 3.0
7654 3.0
7655 3.0
7656 3.0
7657 3.0
7658 3.0
7659 3.0
7660 3.0
7661 3.0
7662 3.0
7663 3.0
7664 3.0
7665 3.0
7666 3.0
7667 3.0
7668 3.0
7669 3.0
7670 3.0
7671 3.0
7672 3.0
7673 3.0
7674 3.0
7675 3.0
7676 3.0
7677 3.0
7678 3.0
7679 3.0
7680 3.0
7681 3.0
7682 3.0
7683 3.0
7684 3.0
7685 3.0
7686 3.0
7687 3.0
7688 3.0
7689 3.0
7690 3.0
7691 3.0
7692 3.0
7693 3.0
7694 3.0
7695 3.0
7696 3.0
7697 3.0
7698 3.0
7699 3.0
7700 3.0
7701 3.0
7702 3.0
7703 3.0
7704 3.0
7705 3.0
7706 3.0
7707 3.0
7708 3.0
7709 3.0
7710 3.0
7711 3.0
7712 3.0
7713 3.0
7714 3.0
7715 3.0
7716 3.0
7717 3.0
7718 3.0
7719 3.0
7720 2.0
7721 2.0
7722 2.0
7723 2.0
7724 2.0
7725 2.0
7726 2.0
7727 2.0
7728 2.0
7729 2.0
7730 2.0
7731 2.0
7732 2.0
7733 2.0
7734 2.0
7735 2.0
7736 2.0
7737 2.0
7738 2.0
7739 2.0
7740 2.0
7741 2.0
7742 2.0
7743 2.0
7744 2.0
7745 2.0
7746 2.0
7747 2.0
7748 2.0
7749 2.0
7750 2.0
7751 2.0
7752 2.0
7753 2.0
7754 2.0
7755 2.0
7756 2.0
7757 2.0
7758 2.0
7759 2.0
7760 2.0
7761 2.0
7762 2.0
7763 2.0
7764 2.0
7765 2.0
7766 2.0
7767 3.0
7768 3.0
7769 2.0
7770 2.0
7771 3.0
7772 3.0
7773 2.0
7774 2.0
7775 3.0
7776 3.0
7777 2.0
7778 2.0
7779 3.0
7780 3.0
7781 2.0
7782 2.0
7783 3.0
7784 3.0
7785 2.0
7786 2.0
7787 3.0
7788 3.0
7789 2.0
7790 2.0
7791 3.0
7792 3.0
7793 2.0
7794 2.0
7795 3.0
7796 3.0
7797 2.0
7798 2.0
7799 3.0
7800 3.0
7801 2.0
7802 2.0
7803 3.0
7804 3.0
7805 2.0
7806 2.0
7807 3.0
7808 3.0
7809 2.0
7810 2.0
7811 3.0
7812 3.0
7813 2.0
7814 2.0
7815 3.0
7816 3.0
7817 2.0
7818 2.0
7819 3.0
7820 3.0
7821 2.0
7822 2.0
7823 3.0
7824 3.0
7825 2.0
7826 2.0
7827 3.0
7828 3.0
7829 2.0
7830 2.0
7831 2.0
7832 3.0
7833 3.0
7834 2.0
7835 3.0
7836 3.0
7837 2.0
7838 3.0
7839 3.0
7840 2.0
7841 3.0
7842 3.0
7843 2.0
7844 3.0
7845 3.0
7846 2.0
7847 3.0
7848 3.0
7849 2.0
7850 3.0
7851 3.0
7852 2.0
7853 3.0
7854 3.0
7855 2.0
7856 3.0
7857 3.0
7858 2.0
7859 3.0
7860 3.0
7861 2.0
7862 3.0
7863 3.0
7864 2.0
7865 3.0
7866 3.0
7867 2.0
7868 3.0
7869 3.0
7870 2.0
7871 3.0
7872 3.0
7873 2.0
7874 3.0
7875 3.0
7876 2.0
7877 3.0
7878 3.0
7879 3.0
7880 3.0
7881 2.0
7882 2.0
7883 2.0
7884 3.0
7885 3.0
7886 2.0
7887 2.0
7888 2.0
7889 3.0
7890 3.0
7891 2.0
7892 2.0
7893 2.0
7894 3.0
7895 3.0
7896 2.0
7897 2.0
7898 2.0
7899 3.0
7900 3.0
7901 2.0
7902 2.0
7903 2.0
7904 3.0
7905 3.0
7906 2.0
7907 2.0
7908 2.0
7909 3.0
7910 3.0
7911 2.0
7912 2.0
7913 2.0
7914 3.0
7915 3.0
7916 2.0
7917 2.0
7918 2.0
7919 3.0
7920 3.0
7921 2.0
7922 2.0
7923 2.0
7924 3.0
7925 3.0
7926 2.0
7927 2.0
7928 2.0
7929 3.0
7930 3.0
7931 2.0
7932 2.0
7933 2.0
7934 3.0
7935 3.0
7936 2.0
7937 2.0
7938 2.0
7939 3.0
7940 3.0
7941 2.0
7942 2.0
7943 2.0
7944 3.0
7945 3.0
7946 2.0
7947 2.0
7948 2.0
7949 3.0
7950 3.0
7951 2.0
7952 2.0
7953 2.0
7954 3.0
7955 3.0
7956 2.0
7957 2.0
7958 2.0
7959 2.0
7960 2.0
7961 2.0
7962 2.0
7963 2.0
7964 2.0
7965 2.0
7966 2.0
7967 2.0
7968 2.0
7969 2.0
7970 2.0
7971 2.0
7972 2.0
7973 2.0
7974 2.0
7975 2.0
7976 2.0
7977 2.0
7978 2.0
7979 2.0
7980 2.0
7981 2.0
7982 2.0
7983 2.0
7984 2.0
7985 2.0
7986 2.0
7987 2.0
7988 2.0
7989 2.0
7990 2.0
7991 2.0
7992 2.0
7993 2.0
7994 2.0
7995 2.0
7996 2.0
7997 2.0
7998 2.0
7999 2.0
8000 2.0
8001 2.0
8002 2.0
8003 2.0
8004 2.0
8005 2.0
8006 2.0
8007 2.0
8008 2.0
8009 2.0
8010 2.0
8011 2.0
8012 2.0
8013 2.0
8014 2.0
8015 2.0
8016 2.0
8017 2.0
8018 2.0
8019 2.0
8020 2.0
8021 2.0
8022 2.0
8023 2.0
8024 2.0
8025 2.0
8026 2.0
8027 2.0
8028 2.0
8029 2.0
8030 2.0
8031 2.0
8032 2.0
8033 2.0
8034 2.0
8035 2.0
8036 2.0
8037 2.0
8038 2.0
8039 2.0
8040 2.0
8041 2.0
8042 2.0
8043 2.0
8044 2.0
8045 2.0
8046 2.0
8047 2.0
8048 2.0
8049 2.0
8050 2.0
8051 2.0
8052 2.0
8053 2.0
8054 2.0
8055 3.0
8056 4.0
8057 3.0
8058 3.0
8059 3.0
8060 3.0
8061 3.0
8062 4.0
8063 3.0
8064 3.0
8065 3.0
8066 3.0
8067 3.0
8068 4.0
8069 3.0
8070 3.0
8071 3.0
8072 3.0
8073 3.0
8074 4.0
8075 3.0
8076 3.0
8077 3.0
8078 3.0
8079 3.0
8080 4.0
8081 3.0
8082 3.0
8083 3.0
8084 3.0
8085 3.0
8086 4.0
8087 3.0
8088 3.0
8089 3.0
8090 3.0
8091 3.0
8092 4.0
8093 3.0
8094 3.0
8095 3.0
8096 3.0
8097 3.0
8098 4.0
8099 3.0
8100 3.0
8101 3.0
8102 3.0
8103 3.0
8104 4.0
8105 3.0
8106 3.0
8107 3.0
8108 3.0
8109 3.0
8110 4.0
8111 3.0
8112 3.0
8113 3.0
8114 3.0
8115 3.0
8116 4.0
8117 3.0
8118 3.0
8119 3.0
8120 3.0
8121 3.0
8122 4.0
8123 3.0
8124 3.0
8125 3.0
8126 3.0
8127 3.0
8128 4.0
8129 3.0
8130 3.0
8131 3.0
8132 3.0
8133 3.0
8134 4.0
8135 3.0
8136 3.0
8137 3.0
8138 3.0
8139 3.0
8140 4.0
8141 3.0
8142 3.0
8143 3.0
8144 3.0
8145 3.0
8146 4.0
8147 3.0
8148 3.0
8149 3.0
8150 3.0
8151 1.0
8152 2.0
8153 2.0
8154 2.0
8155 2.0
8156 2.0
8157 2.0
8158 2.0
8159 2.0
8160 2.0
8161 2.0
8162 2.0
8163 2.0
8164 2.0
8165 2.0
8166 2.0
8167 2.0
8168 2.0
8169 2.0
8170 2.0
8171 2.0
8172 2.0
8173 2.0
8174 2.0
8175 2.0
8176 2.0
8177 2.0
8178 2.0
8179 2.0
8180 2.0
8181 2.0
8182 2.0
8183 2.0
8184 2.0
8185 2.0
8186 2.0
8187 2.0
8188 2.0
8189 2.0
8190 2.0
8191 2.0
8192 2.0
8193 2.0
8194 2.0
8195 2.0
8196 2.0
8197 2.0
8198 2.0
8199 2.0
8200 2.0
8201 2.0
8202 2.0
8203 2.0
8204 2.0
8205 2.0
8206 2.0
8207 2.0
8208 2.0
8209 2.0
8210 2.0
8211 2.0
8212 2.0
8213 2.0
8214 2.0
8215 1.0
8216 3.0
8217 3.0
8218 3.0
8219 3.0
8220 3.0
8221 3.0
8222 3.0
8223 3.0
8224 3.0
8225 3.0
8226 3.0
8227 3.0
8228 3.0
8229 3.0
8230 3.0
8231 3.0
8232 3.0
8233 3.0
8234 3.0
8235 3.0
8236 3.0
8237 3.0
8238 3.0
8239 3.0
8240 3.0
8241 3.0
8242 3.0
8243 3.0
8244 3.0
8245 3.0
8246 3.0
8247 3.0
8248 3.0
8249 3.0
8250 3.0
8251 3.0
8252 3.0
8253 3.0
8254 3.0
8255 3.0
8256 3.0
8257 3.0
8258 3.0
8259 3.0
8260 3.0
8261 3.0
8262 3.0
8263 3.0
8264 3.0
8265 3.0
8266 3.0
8267 3.0
8268 3.0
8269 3.0
8270 3.0
8271 3.0
8272 3.0
8273 3.0
8274 3.0
8275 3.0
8276 3.0
8277 3.0
8278 3.0
8279 3.0
8280 3.0
8281 3.0
8282 3.0
8283 3.0
8284 3.0
8285 3.0
8286 3.0
8287 3.0
8288 3.0
8289 3.0
8290 3.0
8291 3.0
8292 3.0
8293 3.0
8294 3.0
8295 3.0
8296 3.0
8297 3.0
8298 3.0
8299 3.0
8300 3.0
8301 3.0
8302 3.0
8303 3.0
8304 3.0
8305 3.0
8306 3.0
8307 3.0
8308 3.0
8309 3.0
8310 3.0
8311 3.0
8312 2.0
8313 2.0
8314 2.0
8315 2.0
8316 2.0
8317 2.0
8318 2.0
8319 2.0
8320 2.0
8321 2.0
8322 2.0
8323 2.0
8324 2.0
8325 2.0
8326 2.0
8327 2.0
8328 2.0
8329 2.0
8330 2.0
8331 2.0
8332 2.0
8333 2.0
8334 2.0
8335 2.0
8336 2.0
8337 2.0
8338 2.0
8339 2.0
8340 2.0
8341 2.0
8342 2.0
8343 2.0
8344 2.0
8345 2.0
8346 2.0
8347 2.0
8348 2.0
8349 2.0
8350 2.0
8351 2.0
8352 2.0
8353 2.0
8354 2.0
8355 2.0
8356 2.0
8357 2.0
8358 2.0
8359 3.0
8360 3.0
8361 2.0
8362 2.0
8363 3.0
8364 3.0
8365 2.0
8366 2.0
8367 3.0
8368 3.0
8369 2.0
8370 2.0
8371 3.0
8372 3.0
8373 2.0
8374 2.0
8375 3.0
8376 3.0
8377 2.0
8378 2.0
8379 3.0
8380 3.0
8381 2.0
8382 2.0
8383 3.0
8384 3.0
8385 2.0
8386 2.0
8387 3.0
8388 3.0
8389 2.0
8390 2.0
8391 3.0
8392 3.0
8393 2.0
8394 2.0
8395 3.0
8396 3.0
8397 2.0
8398 2.0
8399 3.0
8400 3.0
8401 2.0
8402 2.0
8403 3.0
8404 3.0
8405 2.0
8406 2.0
8407 3.0
8408 3.0
8409 2.0
8410 2.0
8411 3.0
8412 3.0
8413 2.0
8414 2.0
8415 3.0
8416 3.0
8417 2.0
8418 2.0
8419 3.0
8420 3.0
8421 2.0
8422 2.0
8423 2.0
8424 3.0
8425 3.0
8426 2.0
8427 3.0
8428 3.0
8429 2.0
8430 3.0
8431 3.0
8432 2.0
8433 3.0
8434 3.0
8435 2.0
8436 3.0
8437 3.0
8438 2.0
8439 3.0
8440 3.0
8441 2.0
8442 3.0
8443 3.0
8444 2.0
8445 3.0
8446 3.0
8447 2.0
8448 3.0
8449 3.0
8450 2.0
8451 3.0
8452 3.0
8453 2.0
8454 3.0
8455 3.0
8456 2.0
8457 3.0
8458 3.0
8459 2.0
8460 3.0
8461 3.0
8462 2.0
8463 3.0
8464 3.0
8465 2.0
8466 3.0
8467 3.0
8468 2.0
8469 3.0
8470 3.0
8471 3.0
8472 3.0
8473 2.0
8474 2.0
8475 2.0
8476 3.0
8477 3.0
8478 2.0
8479 2.0
8480 2.0
8481 3.0
8482 3.0
8483 2.0
8484 2.0
8485 2.0
8486 3.0
8487 3.0
8488 2.0
8489 2.0
8490 2.0
8491 3.0
8492 3.0
8493 2.0
8494 2.0
8495 2.0
8496 3.0
8497 3.0
8498 2.0
8499 2.0
8500 2.0
8501 3.0
8502 3.0
8503 2.0
8504 2.0
8505 2.0
8506 3.0
8507 3.0
8508 2.0
8509 2.0
8510 2.0
8511 3.0
8512 3.0
8513 2.0
8514 2.0
8515 2.0
8516 3.0
8517 3.0
8518 2.0
8519 2.0
8520 2.0
8521 3.0
8522 3.0
8523 2.0
8524 2.0
8525 2.0
8526 3.0
8527 3.0
8528 2.0
8529 2.0
8530 2.0
8531 3.0
8532 3.0
8533 2.0
8534 2.0
8535 2.0
8536 3.0
8537 3.0
8538 2.0
8539 2.0
8540 2.0
8541 3.0
8542 3.0
8543 2.0
8544 2.0
8545 2.0
8546 3.0
8547 3.0
8548 2.0
8549 2.0
8550 2.0
8551 2.0
8552 2.0
8553 2.0
8554 2.0
8555 2.0
8556 2.0
8557 2.0
8558 2.0
8559 2.0
8560 2.0
8561 2.0
8562 2.0
8563 2.0
8564 2.0
8565 2.0
8566 2.0
8567 2.0
8568 2.0
8569 2.0
8570 2.0
8571 2.0
8572 2.0
8573 2.0
8574 2.0
8575 2.0
8576 2.0
8577 2.0
8578 2.0
8579 2.0
8580 2.0
8581 2.0
8582 2.0
8583 2.0
8584 2.0
8585 2.0
8586 2.0
8587 2.0
8588 2.0
8589 2.0
8590 2.0
8591 2.0
8592 2.0
8593 2.0
8594 2.0
8595 2.0
8596 2.0
8597 2.0
8598 2.0
8599 2.0
8600 2.0
8601 2.0
8602 2.0
8603 2.0
8604 2.0
8605 2.0
8606 2.0
8607 2.0
8608 2.0
8609 2.0
8610 2.0
8611 2.0
8612 2.0
8613 2.0
8614 2.0
8615 2.0
8616 2.0
8617 2.0
8618 2.0
8619 2.0
8620 2.0
8621 2.0
8622 2.0
8623 2.0
8624 2.0
8625 2.0
8626 2.0
8627 2.0
8628 2.0
8629 2.0
8630 2.0
8631 2.0
8632 2.0
8633 2.0
8634 2.0
8635 2.0
8636 2.0
8637 2.0
8638 2.0
8639 2.0
8640 2.0
8641 2.0
8642 2.0
8643 2.0
8644 2.0
8645 2.0
8646 2.0
8647 3.0
8648 4.0
8649 3.0
8650 3.0
8651 3.0
8652 3.0
8653 3.0
8654 4.0
8655 3.0
8656 3.0
8657 3.0
8658 3.0
8659 3.0
8660 4.0
8661 3.0
8662 3.0
8663 3.0
8664 3.0
8665 3.0
8666 4.0
8667 3.0
8668 3.0
8669 3.0
8670 3.0
8671 3.0
8672 4.0
8673 3.0
8674 3.0
8675 3.0
8676 3.0
8677 3.0
8678 4.0
8679 3.0
8680 3.0
8681 3.0
8682 3.0
8683 3.0
8684 4.0
8685 3.0
8686 3.0
8687 3.0
8688 3.0
8689 3.0
8690 4.0
8691 3.0
8692 3.0
8693 3.0
8694 3.0
8695 3.0
8696 4.0
8697 3.0
8698 3.0
8699 3.0
8700 3.0
8701 3.0
8702 4.0
8703 3.0
8704 3.0
8705 3.0
8706 3.0
8707 3.0
8708 4.0
8709 3.0
8710 3.0
8711 3.0
8712 3.0
8713 3.0
8714 4.0
8715 3.0
8716 3.0
8717 3.0
8718 3.0
8719 3.0
8720 4.0
8721 3.0
8722 3.0
8723 3.0
8724 3.0
8725 3.0
8726 4.0
8727 3.0
8728 3.0
8729 3.0
8730 3.0
8731 3.0
8732 4.0
8733 3.0
8734 3.0
8735 3.0
8736 3.0
8737 3.0
8738 4.0
8739 3.0
8740 3.0
8741 3.0
8742 3.0
8743 1.0
8744 2.0
8745 2.0
8746 2.0
8747 2.0
8748 2.0
8749 2.0
8750 2.0
8751 2.0
8752 2.0
8753 2.0
8754 2.0
8755 2.0
8756 2.0
8757 2.0
8758 2.0
8759 2.0
8760 2.0
8761 2.0
8762 2.0
8763 2.0
8764 2.0
8765 2.0
8766 2.0
8767 2.0
8768 2.0
8769 2.0
8770 2.0
8771 2.0
8772 2.0
8773 2.0
8774 2.0
8775 2.0
8776 2.0
8777 2.0
8778 2.0
8779 2.0
8780 2.0
8781 2.0
8782 2.0
8783 2.0
8784 2.0
8785 2.0
8786 2.0
8787 2.0
8788 2.0
8789 2.0
8790 2.0
8791 2.0
8792 2.0
8793 2.0
8794 2.0
8795 2.0
8796 2.0
8797 2.0
8798 2.0
8799 2.0
8800 2.0
8801 2.0
8802 2.0
8803 2.0
8804 2.0
8805 2.0
8806 2.0
8807 1.0
8808 3.0
8809 3.0
8810 3.0
8811 3.0
8812 3.0
8813 3.0
8814 3.0
8815 3.0
8816 3.0
8817 3.0
8818 3.0
8819 3.0
8820 3.0
8821 3.0
8822 3.0
8823 3.0
8824 3.0
8825 3.0
8826 3.0
8827 3.0
8828 3.0
8829 3.0
8830 3.0
8831 3.0
8832 3.0
8833 3.0
8834 3.0
8835 3.0
8836 3.0
8837 3.0
8838 3.0
8839 3.0
8840 3.0
8841 3.0
8842 3.0
8843 3.0
8844 3.0
8845 3.0
8846 3.0
8847 3.0
8848 3.0
8849 3.0
8850 3.0
8851 3.0
8852 3.0
8853 3.0
8854 3.0
8855 3.0
8856 3.0
8857 3.0
8858 3.0
8859 3.0
8860 3.0
8861 3.0
8862 3.0
8863 3.0
8864 3.0
8865 3.0
8866 3.0
8867 3.0
8868 3.0
8869 3.0
8870 3.0
8871 3.0
8872 3.0
8873 3.0
8874 3.0
8875 3.0
8876 3.0
8877 3.0
8878 3.0
8879 3.0
8880 3.0
8881 3.0
8882 3.0
8883 3.0
8884 3.0
8885 3.0
8886 3.0
8887 3.0
8888 3.0
8889 3.0
8890 3.0
8891 3.0
8892 3.0
8893 3.0
8894 3.0
8895 3.0
8896 3.0
8897 3.0
8898 3.0
8899 3.0
8900 3.0
8901 3.0
8902 2.0
8903 2.0
8904 2.0
8905 2.0
8906 2.0
8907 2.0
8908 2.0
8909 2.0
8910 2.0
8911 2.0
8912 2.0
8913 2.0
8914 2.0
8915 2.0
8916 2.0
8917 2.0
8918 2.0
8919 2.0
8920 2.0
8921 2.0
8922 2.0
8923 2.0
8924 2.0
8925 2.0
8926 2.0
8927 2.0
8928 2.0
8929 2.0
8930 2.0
8931 2.0
8932 2.0
8933 2.0
8934 2.0
8935 2.0
8936 2.0
8937 2.0
8938 2.0
8939 2.0
8940 2.0
8941 2.0
8942 2.0
8943 2.0
8944 2.0
8945 2.0
8946 2.0
8947 2.0
8948 2.0
8949 3.0
8950 3.0
8951 2.0
8952 2.0
8953 3.0
8954 3.0
8955 2.0
8956 2.0
8957 3.0
8958 3.0
8959 2.0
8960 2.0
8961 3.0
8962 3.0
8963 2.0
8964 2.0
8965 3.0
8966 3.0
8967 2.0
8968 2.0
8969 3.0
8970 3.0
8971 2.0
8972 2.0
8973 3.0
8974 3.0
8975 2.0
8976 2.0
8977 3.0
8978 3.0
8979 2.0
8980 2.0
8981 3.0
8982 3.0
8983 2.0
8984 2.0
8985 3.0
8986 3.0
8987 2.0
8988 2.0
8989 3.0
8990 3.0
8991 2.0
8992 2.0
8993 3.0
8994 3.0
8995 2.0
8996 2.0
8997 3.0
8998 3.0
8999 2.0
9000 2.0
9001 3.0
9002 3.0
9003 2.0
9004 2.0
9005 3.0
9006 3.0
9007 2.0
9008 2.0
9009 3.0
9010 3.0
9011 2.0
9012 2.0
9013 2.0
9014 3.0
9015 3.0
9016 2.0
9017 3.0
9018 3.0
9019 2.0
9020 3.0
9021 3.0
9022 2.0
9023 3.0
9024 3.0
9025 2.0
9026 3.0
9027 3.0
9028 2.0
9029 3.0
9030 3.0
9031 2.0
9032 3.0
9033 3.0
9034 2.0
9035 3.0
9036 3.0
9037 2.0
9038 3.0
9039 3.0
9040 2.0
9041 3.0
9042 3.0
9043 2.0
9044 3.0
9045 3.0
9046 2.0
9047 3.0
9048 3.0
9049 2.0
9050 3.0
9051 3.0
9052 2.0
9053 3.0
9054 3.0
9055 2.0
9056 3.0
9057 3.0
9058 2.0
9059 3.0
9060 3.0
9061 3.0
9062 3.0
9063 2.0
9064 2.0
9065 2.0
9066 3.0
9067 3.0
9068 2.0
9069 2.0
9070 2.0
9071 3.0
9072 3.0
9073 2.0
9074 2.0
9075 2.0
9076 3.0
9077 3.0
9078 2.0
9079 2.0
9080 2.0
9081 3.0
9082 3.0
9083 2.0
9084 2.0
9085 2.0
9086 3.0
9087 3.0
9088 2.0
9089 2.0
9090 2.0
9091 3.0
9092 3.0
9093 2.0
9094 2.0
9095 2.0
9096 3.0
9097 3.0
9098 2.0
9099 2.0
9100 2.0
9101 3.0
9102 3.0
9103 2.0
9104 2.0
9105 2.0
9106 3.0
9107 3.0
9108 2.0
9109 2.0
9110 2.0
9111 3.0
9112 3.0
9113 2.0
9114 2.0
9115 2.0
9116 3.0
9117 3.0
9118 2.0
9119 2.0
9120 2.0
9121 3.0
9122 3.0
9123 2.0
9124 2.0
9125 2.0
9126 3.0
9127 3.0
9128 2.0
9129 2.0
9130 2.0
9131 3.0
9132 3.0
9133 2.0
9134 2.0
9135 2.0
9136 3.0
9137 3.0
9138 2.0
9139 2.0
9140 2.0
9141 2.0
9142 2.0
9143 2.0
9144 2.0
9145 2.0
9146 2.0
9147 2.0
9148 2.0
9149 2.0
9150 2.0
9151 2.0
9152 2.0
9153 2.0
9154 2.0
9155 2.0
9156 2.0
9157 2.0
9158 2.0
9159 2.0
9160 2.0
9161 2.0
9162 2.0
9163 2.0
9164 2.0
9165 2.0
9166 2.0
9167 2.0
9168 2.0
9169 2.0
9170 2.0
9171 2.0
9172 2.0
9173 2.0
9174 2.0
9175 2.0
9176 2.0
9177 2.0
9178 2.0
9179 2.0
9180 2.0
9181 2.0
9182 2.0
9183 2.0
9184 2.0
9185 2.0
9186 2.0
9187 2.0
9188 2.0
9189 2.0
9190 2.0
9191 2.0
9192 2.0
9193 2.0
9194 2.0
9195 2.0
9196 2.0
9197 2.0
9198 2.0
9199 2.0
9200 2.0
9201 2.0
9202 2.0
9203 2.0
9204 2.0
9205 2.0
9206 2.0
9207 2.0
9208 2.0
9209 2.0
9210 2.0
9211 2.0
9212 2.0
9213 2.0
9214 2.0
9215 2.0
9216 2.0
9217 2.0
9218 2.0
9219 2.0
9220 2.0
9221 2.0
9222 2.0
9223 2.0
9224 2.0
9225 2.0
9226 2.0
9227 2.0
9228 2.0
9229 2.0
9230 2.0
9231 2.0
9232 2.0
9233 2.0
9234 2.0
9235 2.0
9236 2.0
9237 3.0
9238 4.0
9239 3.0
9240 3.0
9241 3.0
9242 3.0
9243 3.0
9244 4.0
9245 3.0
9246 3.0
9247 3.0
9248 3.0
9249 3.0
9250 4.0
9251 3.0
9252 3.0
9253 3.0
9254 3.0
9255 3.0
9256 4.0
9257 3.0
9258 3.0
9259 3.0
9260 3.0
9261 3.0
9262 4.0
9263 3.0
9264 3.0
9265 3.0
9266 3.0
9267 3.0
9268 4.0
9269 3.0
9270 3.0
9271 3.0
9272 3.0
9273 3.0
9274 4.0
9275 3.0
9276 3.0
9277 3.0
9278 3.0
9279 3.0
9280 4.0
9281 3.0
9282 3.0
9283 3.0
9284 3.0
9285 3.0
9286 4.0
9287 3.0
9288 3.0
9289 3.0
9290 3.0
9291 3.0
9292 4.0
9293 3.0
9294 3.0
9295 3.0
9296 3.0
9297 3.0
9298 4.0
9299 3.0
9300 3.0
9301 3.0
9302 3.0
9303 3.0
9304 4.0
9305 3.0
9306 3.0
9307 3.0
9308 3.0
9309 3.0
9310 4.0
9311 3.0
9312 3.0
9313 3.0
9314 3.0
9315 3.0
9316 4.0
9317 3.0
9318 3.0
9319 3.0
9320 3.0
9321 3.0
9322 4.0
9323 3.0
9324 3.0
9325 3.0
9326 3.0
9327 3.0
9328 4.0
9329 3.0
9330 3.0
9331 3.0
9332 3.0
9333 1.0
9334 2.0
9335 2.0
9336 2.0
9337 2.0
9338 2.0
9339 2.0
9340 2.0
9341 2.0
9342 2.0
9343 2.0
9344 2.0
9345 2.0
9346 2.0
9347 2.0
9348 2.0
9349 2.0
9350 2.0
9351 2.0
9352 2.0
9353 2.0
9354 2.0
9355 2.0
9356 2.0
9357 2.0
9358 2.0
9359 2.0
9360 2.0
9361 2.0
9362 2.0
9363 2.0
9364 2.0
9365 2.0
9366 2.0
9367 2.0
9368 2.0
9369 2.0
9370 2.0
9371 2.0
9372 2.0
9373 2.0
9374 2.0
9375 2.0
9376 2.0
9377 2.0
9378 2.0
9379 2.0
9380 2.0
9381 2.0
9382 2.0
9383 2.0
9384 2.0
9385 2.0
9386 2.0
9387 2.0
9388 2.0
9389 2.0
9390 2.0
9391 2.0
9392 2.0
9393 2.0
9394 2.0
9395 2.0
9396 2.0
9397 1.0
9398 3.0
9399 3.0
9400 3.0
9401 3.0
9402 3.0
9403 3.0
9404 3.0
9405 3.0
9406 3.0
9407 3.0
9408 3.0
9409 3.0
9410 3.0
9411 3.0
9412 3.0
9413 3.0
9414 3.0
9415 3.0
9416 3.0
9417 3.0
9418 3.0
9419 3.0
9420 3.0
9421 3.0
9422 3.0
9423 3.0
9424 3.0
9425 3.0
9426 3.0
9427 3.0
9428 3.0
9429 3.0
9430 3.0
9431 3.0
9432 3.0
9433 3.0
9434 3.0
9435 3.0
9436 3.0
9437 3.0
9438 3.0
9439 3.0
9440 3.0
9441 3.0
9442 3.0
9443 3.0
9444 3.0
9445 3.0
9446 3.0
9447 3.0
9448 3.0
9449 3.0
9450 3.0
9451 3.0
9452 3.0
9453 3.0
9454 3.0
9455 3.0
9456 3.0
9457 3.0
9458 3.0
9459 3.0
9460 3.0
9461 3.0
9462 3.0
9463 3.0
9464 3.0
9465 3.0
9466 3.0
9467 3.0
9468 3.0
9469 3.0
9470 1.0
9471 1.0
9472 1.0
9473 1.0
9474 1.0
9475 1.0
9476 1.0
9477 1.0
9478 1.0
9479 1.0
9480 1.0
9481 1.0
9482 1.0
9483 1.0
9484 1.0
9485 1.0

edges:
1 2
1 47
2 31
3 4
3 50
4 32
5 6
5 53
6 33
7 8
7 56
8 34
9 10
9 59
10 35
11 12
11 62
12 36
13 14
13 65
14 37
15 16
15 68
16 38
17 18
17 71
18 39
19 20
19 74
20 40
21 22
21 77
22 41
23 24
23 80
24 42
25 26
25 83
26 43
27 28
27 86
28 44
29 30
29 89
30 45
31 48
32 51
33 54
34 57
35 60
36 63
37 66
38 69
39 72
40 75
41 78
42 81
43 84
44 87
45 90
46 92
46 93
47 157
47 158
48 159
49 96
49 97
50 160
50 161
51 162
52 100
52 101
53 163
53 164
54 165
55 104
55 105
56 166
56 167
57 168
58 108
58 109
59 169
59 170
60 171
61 112
61 113
62 172
62 173
63 174
64 116
64 117
65 175
65 176
66 177
67 120
67 121
68 178
68 179
69 180
70 124
70 125
71 181
71 182
72 183
73 128
73 129
74 184
74 185
75 186
76 132
76 133
77 187
77 188
78 189
79 136
79 137
80 190
80 191
81 192
82 140
82 141
83 193
83 194
84 195
85 144
85 145
86 196
86 197
87 198
88 148
88 149
89 199
89 200
90 201
91 152
91 153
92 93
92 156
92 202
92 203
93 94
93 202
93 203
94 157
94 203
94 204
95 158
95 205
95 206
96 97
96 159
96 207
96 208
97 98
97 207
97 208
98 160
98 208
98 209
99 161
99 210
99 211
100 101
100 162
100 212
100 213
101 102
101 212
101 213
102 163
102 213
102 214
103 164
103 215
103 216
104 105
104 165
104 217
104 218
105 106
105 217
105 218
106 166
106 218
106 219
107 167
107 220
107 221
108 109
108 168
108 222
108 223
109 110
109 222
109 223
110 169
110 223
110 224
111 170
111 225
111 226
112 113
112 171
112 227
112 228
113 114
113 227
113 228
114 172
114 228
114 229
115 173
115 230
115 231
116 117
116 174
116 232
116 233
117 118
117 232
117 233
118 175
118 233
118 234
119 176
119 235
119 236
120 121
120 177
120 237
120 238
121 122
121 237
121 238
122 178
122 238
122 239
123 179
123 240
123 241
124 125
124 180
124 242
124 243
125 126
125 242
125 243
126 181
126 243
126 244
127 182
127 245
127 246
128 129
128 183
128 247
128 248
129 130
129 247
129 248
130 184
130 248
130 249
131 185
131 250
131 251
132 133
132 186
132 252
132 253
133 134
133 252
133 253
134 187
134 253
134 254
135 188
135 255
135 256
136 137
136 189
136 257
136 258
137 138
137 257
137 258
138 190
138 258
138 259
139 191
139 260
139 261
140 141
140 192
140 262
140 263
141 142
141 262
141 263
142 193
142 263
142 264
143 194
143 265
143 266
144 145
144 195
144 267
144 268
145 146
145 267
145 268
146 196
146 268
146 269
147 197
147 270
147 271
148 149
148 198
148 272
148 273
149 150
149 272
149 273
150 199
150 273
150 274
151 200
151 275
151 276
152 153
152 201
152 277
152 278
153 154
153 277
153 278
154 278
154 279
155 280
155 281
156 202
157 158
157 204
157 282
157 283
158 205
158 282
158 283
159 207
160 161
160 209
160 284
160 285
161 210
161 284
161 285
162 212
163 164
163 214
163 286
163 287
164 215
164 286
164 287
165 217
166 167
166 219
166 288
166 289
167 220
167 288
167 289
168 222
169 170
169 224
169 290
169 291
170 225
170 290
170 291
171 227
172 173
172 229
172 292
172 293
173 230
173 292
173 293
174 232
175 176
175 234
175 294
175 295
176 235
176 294
176 295
177 237
178 179
178 239
178 296
178 297
179 240
179 296
179 297
180 242
181 182
181 244
181 298
181 299
182 245
182 298
182 299
183 247
184 185
184 249
184 300
184 301
185 250
185 300
185 301
186 252
187 188
187 254
187 302
187 303
188 255
188 302
188 303
189 257
190 191
190 259
190 304
190 305
191 260
191 304
191 305
192 262
193 194
193 264
193 306
193 307
194 265
194 306
194 307
195 267
196 197
196 269
196 308
196 309
197 270
197 308
197 309
198 272
199 200
199 274
199 310
199 311
200 275
200 310
200 311
201 277
202 203
202 314
203 314
204 282
204 315
205 283
205 316
206 317
207 208
207 318
208 318
209 284
209 319
210 285
210 320
211 321
212 213
212 322
213 322
214 286
214 323
215 287
215 324
216 325
217 218
217 326
218 326
219 288
219 327
220 289
220 328
221 329
222 223
222 330
223 330
224 290
224 331
225 291
225 332
226 333
227 228
227 334
228 334
229 292
229 335
230 293
230 336
231 337
232 233
232 338
233 338
234 294
234 339
235 295
235 340
236 341
237 238
237 342
238 342
239 296
239 343
240 297
240 344
241 345
242 243
242 346
243 346
244 298
244 347
245 299
245 348
246 349
247 248
247 350
248 350
249 300
249 351
250 301
250 352
251 353
252 253
252 354
253 354
254 302
254 355
255 303
255 356
256 357
257 258
257 358
258 358
259 304
259 359
260 305
260 360
261 361
262 263
262 362
263 362
264 306
264 363
265 307
265 364
266 365
267 268
267 366
268 366
269 308
269 367
270 309
270 368
271 369
272 273
272 370
273 370
274 310
274 371
275 311
275 372
276 373
277 278
277 374
278 374
279 312
279 375
280 313
280 376
281 377
282 283
282 315
283 316
284 285
284 319
285 320
286 287
286 323
287 324
288 289
288 327
289 328
290 291
290 331
291 332
292 293
292 335
293 336
294 295
294 339
295 340
296 297
296 343
297 344
298 299
298 347
299 348
300 301
300 351
301 352
302 303
302 355
303 356
304 305
304 359
305 360
306 307
306 363
307 364
308 309
308 367
309 368
310 311
310 371
311 372
312 313
312 375
313 376
314 378
314 379
315 379
316 380
316 381
317 382
317 383
318 384
318 385
319 385
320 386
320 387
321 388
321 389
322 390
322 391
323 391
324 392
324 393
325 394
325 395
326 396
326 397
327 397
328 398
328 399
329 400
329 401
330 402
330 403
331 403
332 404
332 405
333 406
333 407
334 408
334 409
335 409
336 410
336 411
337 412
337 413
338 414
338 415
339 415
340 416
340 417
341 418
341 419
342 420
342 421
343 421
344 422
344 423
345 424
345 425
346 426
346 427
347 427
348 428
348 429
349 430
349 431
350 432
350 433
351 433
352 434
352 435
353 436
353 437
354 438
354 439
355 439
356 440
356 441
357 442
357 443
358 444
358 445
359 445
360 446
360 447
361 448
361 449
362 450
362 451
363 451
364 452
364 453
365 454
365 455
366 456
366 457
367 457
368 458
368 459
369 460
369 461
370 462
370 463
371 463
372 464
372 465
373 466
373 467
374 468
374 469
375 469
376 470
376 471
377 472
377 473
378 379
378 474
378 539
378 540
379 475
379 539
379 540
380 381
380 476
380 541
380 542
381 477
381 541
381 542
382 383
382 477
382 543
382 544
383 478
383 543
383 544
384 385
384 478
384 545
384 546
385 479
385 545
385 546
386 387
386 480
386 547
386 548
387 481
387 547
387 548
388 389
388 481
388 549
388 550
389 482
389 549
389 550
390 391
390 482
390 551
390 552
391 483
391 551
391 552
392 393
392 484
392 553
392 554
393 485
393 553
393 554
394 395
394 485
394 555
394 556
395 486
395 555
395 556
396 397
396 486
396 557
396 558
397 487
397 557
397 558
398 399
398 488
398 559
398 560
399 489
399 559
399 560
400 401
400 489
400 561
400 562
401 490
401 561
401 562
402 403
402 490
402 563
402 564
403 491
403 563
403 564
404 405
404 492
404 565
404 566
405 493
405 565
405 566
406 407
406 493
406 567
406 568
407 494
407 567
407 568
408 409
408 494
408 569
408 570
409 495
409 569
409 570
410 411
410 496
410 571
410 572
411 497
411 571
411 572
412 413
412 497
412 573
412 574
413 498
413 573
413 574
414 415
414 498
414 575
414 576
415 499
415 575
415 576
416 417
416 500
416 577
416 578
417 501
417 577
417 578
418 419
418 501
418 579
418 580
419 502
419 579
419 580
420 421
420 502
420 581
420 582
421 503
421 581
421 582
422 423
422 504
422 583
422 584
423 505
423 583
423 584
424 425
424 505
424 585
424 586
425 506
425 585
425 586
426 427
426 506
426 587
426 588
427 507
427 587
427 588
428 429
428 508
428 589
428 590
429 509
429 589
429 590
430 431
430 509
430 591
430 592
431 510
431 591
431 592
432 433
432 510
432 593
432 594
433 511
433 593
433 594
434 435
434 512
434 595
434 596
435 513
435 595
435 596
436 437
436 513
436 597
436 598
437 514
437 597
437 598
438 439
438 514
438 599
438 600
439 515
439 599
439 600
440 441
440 516
440 601
440 602
441 517
441 601
441 602
442 443
442 517
442 603
442 604
443 518
443 603
443 604
444 445
444 518
444 605
444 606
445 519
445 605
445 606
446 447
446 520
446 607
446 608
447 521
447 607
447 608
448 449
448 521
448 609
448 610
449 522
449 609
449 610
450 451
450 522
450 611
450 612
451 523
451 611
451 612
452 453
452 524
452 613
452 614
453 525
453 613
453 614
454 455
454 525
454 615
454 616
455 526
455 615
455 616
456 457
456 526
456 617
456 618
457 527
457 617
457 618
458 459
458 528
458 619
458 620
459 529
459 619
459 620
460 461
460 529
460 621
460 622
461 530
461 621
461 622
462 463
462 530
462 623
462 624
463 531
463 623
463 624
464 465
464 532
464 625
464 626
465 533
465 625
465 626
466 467
466 533
466 627
466 628
467 534
467 627
467 628
468 469
468 534
468 629
468 630
469 535
469 629
469 630
470 471
470 536
470 631
470 632
471 537
471 631
471 632
472 473
472 537
473 538
474 539
475 476
475 540
476 541
477 542
477 543
478 544
478 545
479 480
479 546
480 547
481 548
481 549
482 550
482 551
483 484
483 552
484 553
485 554
485 555
486 556
486 557
487 488
487 558
488 559
489 560
489 561
490 562
490 563
491 492
491 564
492 565
493 566
493 567
494 568
494 569
495 496
495 570
496 571
497 572
497 573
498 574
498 575
499 500
499 576
500 577
501 578
501 579
502 580
502 581
503 504
503 582
504 583
505 584
505 585
506 586
506 587
507 508
507 588
508 589
509 590
509 591
510 592
510 593
511 512
511 594
512 595
513 596
513 597
514 598
514 599
515 516
515 600
516 601
517 602
517 603
518 604
518 605
519 520
519 606
520 607
521 608
521 609
522 610
522 611
523 524
523 612
524 613
525 614
525 615
526 616
526 617
527 528
527 618
528 619
529 620
529 621
530 622
530 623
531 532
531 624
532 625
533 626
533 627
534 628
534 629
535 536
535 630
536 631
537 632
539 540
539 633
540 633
541 542
541 634
542 634
543 544
543 635
544 635
545 546
545 636
546 636
547 548
547 637
548 637
549 550
549 638
550 638
551 552
551 639
552 639
553 554
553 640
554 640
555 556
555 641
556 641
557 558
557 642
558 642
559 560
559 643
560 643
561 562
561 644
562 644
563 564
563 645
564 645
565 566
565 646
566 646
567 568
567 647
568 647
569 570
569 648
570 648
571 572
571 649
572 649
573 574
573 650
574 650
575 576
575 651
576 651
577 578
577 652
578 652
579 580
579 653
580 653
581 582
581 654
582 654
583 584
583 655
584 655
585 586
585 656
586 656
587 588
587 657
588 657
589 590
589 658
590 658
591 592
591 659
592 659
593 594
593 660
594 660
595 596
595 661
596 661
597 598
597 662
598 662
599 600
599 663
600 663
601 602
601 664
602 664
603 604
603 665
604 665
605 606
605 666
606 666
607 608
607 667
608 667
609 610
609 668
610 668
611 612
611 669
612 669
613 614
613 670
614 670
615 616
615 671
616 671
617 618
617 672
618 672
619 620
619 673
620 673
621 622
621 674
622 674
623 624
623 675
624 675
625 626
625 676
626 676
627 628
627 677
628 677
629 630
629 678
630 678
631 632
631 679
632 679
633 680
633 681
634 745
634 746
635 747
636 684
636 685
637 748
637 749
638 750
639 688
639 689
640 751
640 752
641 753
642 692
642 693
643 754
643 755
644 756
645 696
645 697
646 757
646 758
647 759
648 700
648 701
649 760
649 761
650 762
651 704
651 705
652 763
652 764
653 765
654 708
654 709
655 766
655 767
656 768
657 712
657 713
658 769
658 770
659 771
660 716
660 717
661 772
661 773
662 774
663 720
663 721
664 775
664 776
665 777
666 724
666 725
667 778
667 779
668 780
669 728
669 729
670 781
670 782
671 783
672 732
672 733
673 784
673 785
674 786
675 736
675 737
676 787
676 788
677 789
678 740
678 741
679 790
679 791
680 681
680 744
680 792
680 793
681 682
681 792
681 793
682 745
682 793
682 794
683 746
683 795
683 796
684 685
684 747
684 797
684 798
685 686
685 797
685 798
686 748
686 798
686 799
687 749
687 800
687 801
688 689
688 750
688 802
688 803
689 690
689 802
689 803
690 751
690 803
690 804
691 752
691 805
691 806
692 693
692 753
692 807
692 808
693 694
693 807
693 808
694 754
694 808
694 809
695 755
695 810
695 811
696 697
696 756
696 812
696 813
697 698
697 812
697 813
698 757
698 813
698 814
699 758
699 815
699 816
700 701
700 759
700 817
700 818
701 702
701 817
701 818
702 760
702 818
702 819
703 761
703 820
703 821
704 705
704 762
704 822
704 823
705 706
705 822
705 823
706 763
706 823
706 824
707 764
707 825
707 826
708 709
708 765
708 827
708 828
709 710
709 827
709 828
710 766
710 828
710 829
711 767
711 830
711 831
712 713
712 768
712 832
712 833
713 714
713 832
713 833
714 769
714 833
714 834
715 770
715 835
715 836
716 717
716 771
716 837
716 838
717 718
717 837
717 838
718 772
718 838
718 839
719 773
719 840
719 841
720 721
720 774
720 842
720 843
721 722
721 842
721 843
722 775
722 843
722 844
723 776
723 845
723 846
724 725
724 777
724 847
724 848
725 726
725 847
725 848
726 778
726 848
726 849
727 779
727 850
727 851
728 729
728 780
728 852
728 853
729 730
729 852
729 853
730 781
730 853
730 854
731 782
731 855
731 856
732 733
732 783
732 857
732 858
733 734
733 857
733 858
734 784
734 858
734 859
735 785
735 860
735 861
736 737
736 786
736 862
736 863
737 738
737 862
737 863
738 787
738 863
738 864
739 788
739 865
739 866
740 741
740 789
740 867
740 868
741 742
741 867
741 868
742 790
742 868
742 869
743 791
743 870
743 871
744 792
745 746
745 794
745 872
745 873
746 795
746 872
746 873
747 797
748 749
748 799
748 874
748 875
749 800
749 874
749 875
750 802
751 752
751 804
751 876
751 877
752 805
752 876
752 877
753 807
754 755
754 809
754 878
754 879
755 810
755 878
755 879
756 812
757 758
757 814
757 880
757 881
758 815
758 880
758 881
759 817
760 761
760 819
760 882
760 883
761 820
761 882
761 883
762 822
763 764
763 824
763 884
763 885
764 825
764 884
764 885
765 827
766 767
766 829
766 886
766 887
767 830
767 886
767 887
768 832
769 770
769 834
769 888
769 889
770 835
770 888
770 889
771 837
772 773
772 839
772 890
772 891
773 840
773 890
773 891
774 842
775 776
775 844
775 892
775 893
776 845
776 892
776 893
777 847
778 779
778 849
778 894
778 895
779 850
779 894
779 895
780 852
781 782
781 854
781 896
781 897
782 855
782 896
782 897
783 857
784 785
784 859
784 898
784 899
785 860
785 898
785 899
786 862
787 788
787 864
787 900
787 901
788 865
788 900
788 901
789 867
790 791
790 869
790 902
790 903
791 870
791 902
791 903
792 793
792 904
793 904
794 872
794 905
795 873
795 906
796 907
797 798
797 908
798 908
799 874
799 909
800 875
800 910
801 911
802 803
802 912
803 912
804 876
804 913
805 877
805 914
806 915
807 808
807 916
808 916
809 878
809 917
810 879
810 918
811 919
812 813
812 920
813 920
814 880
814 921
815 881
815 922
816 923
817 818
817 924
818 924
819 882
819 925
820 883
820 926
821 927
822 823
822 928
823 928
824 884
824 929
825 885
825 930
826 931
827 828
827 932
828 932
829 886
829 933
830 887
830 934
831 935
832 833
832 936
833 936
834 888
834 937
835 889
835 938
836 939
837 838
837 940
838 940
839 890
839 941
840 891
840 942
841 943
842 843
842 944
843 944
844 892
844 945
845 893
845 946
846 947
847 848
847 948
848 948
849 894
849 949
850 895
850 950
851 951
852 853
852 952
853 952
854 896
854 953
855 897
855 954
856 955
857 858
857 956
858 956
859 898
859 957
860 899
860 958
861 959
862 863
862 960
863 960
864 900
864 961
865 901
865 962
866 963
867 868
867 964
868 964
869 902
869 965
870 903
870 966
871 967
872 873
872 905
873 906
874 875
874 909
875 910
876 877
876 913
877 914
878 879
878 917
879 918
880 881
880 921
881 922
882 883
882 925
883 926
884 885
884 929
885 930
886 887
886 933
887 934
888 889
888 937
889 938
890 891
890 941
891 942
892 893
892 945
893 946
894 895
894 949
895 950
896 897
896 953
897 954
898 899
898 957
899 958
900 901
900 961
901 962
902 903
902 965
903 966
904 968
904 969
905 969
906 970
906 971
907 972
907 973
908 974
908 975
909 975
910 976
910 977
911 978
911 979
912 980
912 981
913 981
914 982
914 983
915 984
915 985
916 986
916 987
917 987
918 988
918 989
919 990
919 991
920 992
920 993
921 993
922 994
922 995
923 996
923 997
924 998
924 999
925 999
926 1000
926 1001
927 1002
927 1003
928 1004
928 1005
929 1005
930 1006
930 1007
931 1008
931 1009
932 1010
932 1011
933 1011
934 1012
934 1013
935 1014
935 1015
936 1016
936 1017
937 1017
938 1018
938 1019
939 1020
939 1021
940 1022
940 1023
941 1023
942 1024
942 1025
943 1026
943 1027
944 1028
944 1029
945 1029
946 1030
946 1031
947 1032
947 1033
948 1034
948 1035
949 1035
950 1036
950 1037
951 1038
951 1039
952 1040
952 1041
953 1041
954 1042
954 1043
955 1044
955 1045
956 1046
956 1047
957 1047
958 1048
958 1049
959 1050
959 1051
960 1052
960 1053
961 1053
962 1054
962 1055
963 1056
963 1057
964 1058
964 1059
965 1059
966 1060
966 1061
967 1062
967 1063
968 969
968 1064
968 1129
968 1130
969 1065
969 1129
969 1130
970 971
970 1066
970 1131
970 1132
971 1067
971 1131
971 1132
972 973
972 1067
972 1133
972 1134
973 1068
973 1133
973 1134
974 975
974 1068
974 1135
974 1136
975 1069
975 1135
975 1136
976 977
976 1070
976 1137
976 1138
977 1071
977 1137
977 1138
978 979
978 1071
978 1139
978 1140
979 1072
979 1139
979 1140
980 981
980 1072
980 1141
980 1142
981 1073
981 1141
981 1142
982 983
982 1074
982 1143
982 1144
983 1075
983 1143
983 1144
984 985
984 1075
984 1145
984 1146
985 1076
985 1145
985 1146
986 987
986 1076
986 1147
986 1148
987 1077
987 1147
987 1148
988 989
988 1078
988 1149
988 1150
989 1079
989 1149
989 1150
990 991
990 1079
990 1151
990 1152
991 1080
991 1151
991 1152
992 993
992 1080
992 1153
992 1154
993 1081
993 1153
993 1154
994 995
994 1082
994 1155
994 1156
995 1083
995 1155
995 1156
996 997
996 1083
996 1157
996 1158
997 1084
997 1157
997 1158
998 999
998 1084
998 1159
998 1160
999 1085
999 1159
999 1160
1000 1001
1000 1086
1000 1161
1000 1162
1001 1087
1001 1161
1001 1162
1002 1003
1002 1087
1002 1163
1002 1164
1003 1088
1003 1163
1003 1164
1004 1005
1004 1088
1004 1165
1004 1166
1005 1089
1005 1165
1005 1166
1006 1007
1006 1090
1006 1167
1006 1168
1007 1091
1007 1167
1007 1168
1008 1009
1008 1091
1008 1169
1008 1170
1009 1092
1009 1169
1009 1170
1010 1011
1010 1092
1010 1171
1010 1172
1011 1093
1011 1171
1011 1172
1012 1013
1012 1094
1012 1173
1012 1174
1013 1095
1013 1173
1013 1174
1014 1015
1014 1095
1014 1175
1014 1176
1015 1096
1015 1175
1015 1176
1016 1017
1016 1096
1016 1177
1016 1178
1017 1097
1017 1177
1017 1178
1018 1019
1018 1098
1018 1179
1018 1180
1019 1099
1019 1179
1019 1180
1020 1021
1020 1099
1020 1181
1020 1182
1021 1100
1021 1181
1021 1182
1022 1023
1022 1100
1022 1183
1022 1184
1023 1101
1023 1183
1023 1184
1024 1025
1024 1102
1024 1185
1024 1186
1025 1103
1025 1185
1025 1186
1026 1027
1026 1103
1026 1187
1026 1188
1027 1104
1027 1187
1027 1188
1028 1029
1028 1104
1028 1189
1028 1190
1029 1105
1029 1189
1029 1190
1030 1031
1030 1106
1030 1191
1030 1192
1031 1107
1031 1191
1031 1192
1032 1033
1032 1107
1032 1193
1032 1194
1033 1108
1033 1193
1033 1194
1034 1035
1034 1108
1034 1195
1034 1196
1035 1109
1035 1195
1035 1196
1036 1037
1036 1110
1036 1197
1036 1198
1037 1111
1037 1197
1037 1198
1038 1039
1038 1111
1038 1199
1038 1200
1039 1112
1039 1199
1039 1200
1040 1041
1040 1112
1040 1201
1040 1202
1041 1113
1041 1201
1041 1202
1042 1043
1042 1114
1042 1203
1042 1204
1043 1115
1043 1203
1043 1204
1044 1045
1044 1115
1044 1205
1044 1206
1045 1116
1045 1205
1045 1206
1046 1047
1046 1116
1046 1207
1046 1208
1047 1117
1047 1207
1047 1208
1048 1049
1048 1118
1048 1209
1048 1210
1049 1119
1049 1209
1049 1210
1050 1051
1050 1119
1050 1211
1050 1212
1051 1120
1051 1211
1051 1212
1052 1053
1052 1120
1052 1213
1052 1214
1053 1121
1053 1213
1053 1214
1054 1055
1054 1122
1054 1215
1054 1216
1055 1123
1055 1215
1055 1216
1056 1057
1056 1123
1056 1217
1056 1218
1057 1124
1057 1217
1057 1218
1058 1059
1058 1124
1058 1219
1058 1220
1059 1125
1059 1219
1059 1220
1060 1061
1060 1126
1060 1221
1060 1222
1061 1127
1061 1221
1061 1222
1062 1063
1062 1127
1063 1128
1064 1129
1065 1066
1065 1130
1066 1131
1067 1132
1067 1133
1068 1134
1068 1135
1069 1070
1069 1136
1070 1137
1071 1138
1071 1139
1072 1140
1072 1141
1073 1074
1073 1142
1074 1143
1075 1144
1075 1145
1076 1146
1076 1147
1077 1078
1077 1148
1078 1149
1079 1150
1079 1151
1080 1152
1080 1153
1081 1082
1081 1154
1082 1155
1083 1156
1083 1157
1084 1158
1084 1159
1085 1086
1085 1160
1086 1161
1087 1162
1087 1163
1088 1164
1088 1165
1089 1090
1089 1166
1090 1167
1091 1168
1091 1169
1092 1170
1092 1171
1093 1094
1093 1172
1094 1173
1095 1174
1095 1175
1096 1176
1096 1177
1097 1098
1097 1178
1098 1179
1099 1180
1099 1181
1100 1182
1100 1183
1101 1102
1101 1184
1102 1185
1103 1186
1103 1187
1104 1188
1104 1189
1105 1106
1105 1190
1106 1191
1107 1192
1107 1193
1108 1194
1108 1195
1109 1110
1109 1196
1110 1197
1111 1198
1111 1199
1112 1200
1112 1201
1113 1114
1113 1202
1114 1203
1115 1204
1115 1205
1116 1206
1116 1207
1117 1118
1117 1208
1118 1209
1119 1210
1119 1211
1120 1212
1120 1213
1121 1122
1121 1214
1122 1215
1123 1216
1123 1217
1124 1218
1124 1219
1125 1126
1125 1220
1126 1221
1127 1222
1129 1130
1129 1223
1130 1223
1131 1132
1131 1224
1132 1224
1133 1134
1133 1225
1134 1225
1135 1136
1135 1226
1136 1226
1137 1138
1137 1227
1138 1227
1139 1140
1139 1228
1140 1228
1141 1142
1141 1229
1142 1229
1143 1144
1143 1230
1144 1230
1145 1146
1145 1231
1146 1231
1147 1148
1147 1232
1148 1232
1149 1150
1149 1233
1150 1233
1151 1152
1151 1234
1152 1234
1153 1154
1153 1235
1154 1235
1155 1156
1155 1236
1156 1236
1157 1158
1157 1237
1158 1237
1159 1160
1159 1238
1160 1238
1161 1162
1161 1239
1162 1239
1163 1164
1163 1240
1164 1240
1165 1166
1165 1241
1166 1241
1167 1168
1167 1242
1168 1242
1169 1170
1169 1243
1170 1243
1171 1172
1171 1244
1172 1244
1173 1174
1173 1245
1174 1245
1175 1176
1175 1246
1176 1246
1177 1178
1177 1247
1178 1247
1179 1180
1179 1248
1180 1248
1181 1182
1181 1249
1182 1249
1183 1184
1183 1250
1184 1250
1185 1186
1185 1251
1186 1251
1187 1188
1187 1252
1188 1252
1189 1190
1189 1253
1190 1253
1191 1192
1191 1254
1192 1254
1193 1194
1193 1255
1194 1255
1195 1196
1195 1256
1196 1256
1197 1198
1197 1257
1198 1257
1199 1200
1199 1258
1200 1258
1201 1202
1201 1259
1202 1259
1203 1204
1203 1260
1204 1260
1205 1206
1205 1261
1206 1261
1207 1208
1207 1262
1208 1262
1209 1210
1209 1263
1210 1263
1211 1212
1211 1264
1212 1264
1213 1214
1213 1265
1214 1265
1215 1216
1215 1266
1216 1266
1217 1218
1217 1267
1218 1267
1219 1220
1219 1268
1220 1268
1221 1222
1221 1269
1222 1269
1223 1270
1223 1271
1224 1335
1224 1336
1225 1337
1226 1274
1226 1275
1227 1338
1227 1339
1228 1340
1229 1278
1229 1279
1230 1341
1230 1342
1231 1343
1232 1282
1232 1283
1233 1344
1233 1345
1234 1346
1235 1286
1235 1287
1236 1347
1236 1348
1237 1349
1238 1290
1238 1291
1239 1350
1239 1351
1240 1352
1241 1294
1241 1295
1242 1353
1242 1354
1243 1355
1244 1298
1244 1299
1245 1356
1245 1357
1246 1358
1247 1302
1247 1303
1248 1359
1248 1360
1249 1361
1250 1306
1250 1307
1251 1362
1251 1363
1252 1364
1253 1310
1253 1311
1254 1365
1254 1366
1255 1367
1256 1314
1256 1315
1257 1368
1257 1369
1258 1370
1259 1318
1259 1319
1260 1371
1260 1372
1261 1373
1262 1322
1262 1323
1263 1374
1263 1375
1264 1376
1265 1326
1265 1327
1266 1377
1266 1378
1267 1379
1268 1330
1268 1331
1269 1380
1269 1381
1270 1271
1270 1334
1270 1382
1270 1383
1271 1272
1271 1382
1271 1383
1272 1335
1272 1383
1272 1384
1273 1336
1273 1385
1273 1386
1274 1275
1274 1337
1274 1387
1274 1388
1275 1276
1275 1387
1275 1388
1276 1338
1276 1388
1276 1389
1277 1339
1277 1390
1277 1391
1278 1279
1278 1340
1278 1392
1278 1393
1279 1280
1279 1392
1279 1393
1280 1341
1280 1393
1280 1394
1281 1342
1281 1395
1281 1396
1282 1283
1282 1343
1282 1397
1282 1398
1283 1284
1283 1397
1283 1398
1284 1344
1284 1398
1284 1399
1285 1345
1285 1400
1285 1401
1286 1287
1286 1346
1286 1402
1286 1403
1287 1288
1287 1402
1287 1403
1288 1347
1288 1403
1288 1404
1289 1348
1289 1405
1289 1406
1290 1291
1290 1349
1290 1407
1290 1408
1291 1292
1291 1407
1291 1408
1292 1350
1292 1408
1292 1409
1293 1351
1293 1410
1293 1411
1294 1295
1294 1352
1294 1412
1294 1413
1295 1296
1295 1412
1295 1413
1296 1353
1296 1413
1296 1414
1297 1354
1297 1415
1297 1416
1298 1299
1298 1355
1298 1417
1298 1418
1299 1300
1299 1417
1299 1418
1300 1356
1300 1418
1300 1419
1301 1357
1301 1420
1301 1421
1302 1303
1302 1358
1302 1422
1302 1423
1303 1304
1303 1422
1303 1423
1304 1359
1304 1423
1304 1424
1305 1360
1305 1425
1305 1426
1306 1307
1306 1361
1306 1427
1306 1428
1307 1308
1307 1427
1307 1428
1308 1362
1308 1428
1308 1429
1309 1363
1309 1430
1309 1431
1310 1311
1310 1364
1310 1432
1310 1433
1311 1312
1311 1432
1311 1433
1312 1365
1312 1433
1312 1434
1313 1366
1313 1435
1313 1436
1314 1315
1314 1367
1314 1437
1314 1438
1315 1316
1315 1437
1315 1438
1316 1368
1316 1438
1316 1439
1317 1369
1317 1440
1317 1441
1318 1319
1318 1370
1318 1442
1318 1443
1319 1320
1319 1442
1319 1443
1320 1371
1320 1443
1320 1444
1321 1372
1321 1445
1321 1446
1322 1323
1322 1373
1322 1447
1322 1448
1323 1324
1323 1447
1323 1448
1324 1374
1324 1448
1324 1449
1325 1375
1325 1450
1325 1451
1326 1327
1326 1376
1326 1452
1326 1453
1327 1328
1327 1452
1327 1453
1328 1377
1328 1453
1328 1454
1329 1378
1329 1455
1329 1456
1330 1331
1330 1379
1330 1457
1330 1458
1331 1332
1331 1457
1331 1458
1332 1380
1332 1458
1332 1459
1333 1381
1333 1460
1333 1461
1334 1382
1335 1336
1335 1384
1335 1462
1335 1463
1336 1385
1336 1462
1336 1463
1337 1387
1338 1339
1338 1389
1338 1464
1338 1465
1339 1390
1339 1464
1339 1465
1340 1392
1341 1342
1341 1394
1341 1466
1341 1467
1342 1395
1342 1466
1342 1467
1343 1397
1344 1345
1344 1399
1344 1468
1344 1469
1345 1400
1345 1468
1345 1469
1346 1402
1347 1348
1347 1404
1347 1470
1347 1471
1348 1405
1348 1470
1348 1471
1349 1407
1350 1351
1350 1409
1350 1472
1350 1473
1351 1410
1351 1472
1351 1473
1352 1412
1353 1354
1353 1414
1353 1474
1353 1475
1354 1415
1354 1474
1354 1475
1355 1417
1356 1357
1356 1419
1356 1476
1356 1477
1357 1420
1357 1476
1357 1477
1358 1422
1359 1360
1359 1424
1359 1478
1359 1479
1360 1425
1360 1478
1360 1479
1361 1427
1362 1363
1362 1429
1362 1480
1362 1481
1363 1430
1363 1480
1363 1481
1364 1432
1365 1366
1365 1434
1365 1482
1365 1483
1366 1435
1366 1482
1366 1483
1367 1437
1368 1369
1368 1439
1368 1484
1368 1485
1369 1440
1369 1484
1369 1485
1370 1442
1371 1372
1371 1444
1371 1486
1371 1487
1372 1445
1372 1486
1372 1487
1373 1447
1374 1375
1374 1449
1374 1488
1374 1489
1375 1450
1375 1488
1375 1489
1376 1452
1377 1378
1377 1454
1377 1490
1377 1491
1378 1455
1378 1490
1378 1491
1379 1457
1380 1381
1380 1459
1380 1492
1380 1493
1381 1460
1381 1492
1381 1493
1382 1383
1382 1494
1383 1494
1384 1462
1384 1495
1385 1463
1385 1496
1386 1497
1387 1388
1387 1498
1388 1498
1389 1464
1389 1499
1390 1465
1390 1500
1391 1501
1392 1393
1392 1502
1393 1502
1394 1466
1394 1503
1395 1467
1395 1504
1396 1505
1397 1398
1397 1506
1398 1506
1399 1468
1399 1507
1400 1469
1400 1508
1401 1509
1402 1403
1402 1510
1403 1510
1404 1470
1404 1511
1405 1471
1405 1512
1406 1513
1407 1408
1407 1514
1408 1514
1409 1472
1409 1515
1410 1473
1410 1516
1411 1517
1412 1413
1412 1518
1413 1518
1414 1474
1414 1519
1415 1475
1415 1520
1416 1521
1417 1418
1417 1522
1418 1522
1419 1476
1419 1523
1420 1477
1420 1524
1421 1525
1422 1423
1422 1526
1423 1526
1424 1478
1424 1527
1425 1479
1425 1528
1426 1529
1427 1428
1427 1530
1428 1530
1429 1480
1429 1531
1430 1481
1430 1532
1431 1533
1432 1433
1432 1534
1433 1534
1434 1482
1434 1535
1435 1483
1435 1536
1436 1537
1437 1438
1437 1538
1438 1538
1439 1484
1439 1539
1440 1485
1440 1540
1441 1541
1442 1443
1442 1542
1443 1542
1444 1486
1444 1543
1445 1487
1445 1544
1446 1545
1447 1448
1447 1546
1448 1546
1449 1488
1449 1547
1450 1489
1450 1548
1451 1549
1452 1453
1452 1550
1453 1550
1454 1490
1454 1551
1455 1491
1455 1552
1456 1553
1457 1458
1457 1554
1458 1554
1459 1492
1459 1555
1460 1493
1460 1556
1461 1557
1462 1463
1462 1495
1463 1496
1464 1465
1464 1499
1465 1500
1466 1467
1466 1503
1467 1504
1468 1469
1468 1507
1469 1508
1470 1471
1470 1511
1471 1512
1472 1473
1472 1515
1473 1516
1474 1475
1474 1519
1475 1520
1476 1477
1476 1523
1477 1524
1478 1479
1478 1527
1479 1528
1480 1481
1480 1531
1481 1532
1482 1483
1482 1535
1483 1536
1484 1485
1484 1539
1485 1540
1486 1487
1486 1543
1487 1544
1488 1489
1488 1547
1489 1548
1490 1491
1490 1551
1491 1552
1492 1493
1492 1555
1493 1556
1494 1558
1494 1559
1495 1559
1496 1560
1496 1561
1497 1562
1497 1563
1498 1564
1498 1565
1499 1565
1500 1566
1500 1567
1501 1568
1501 1569
1502 1570
1502 1571
1503 1571
1504 1572
1504 1573
1505 1574
1505 1575
1506 1576
1506 1577
1507 1577
1508 1578
1508 1579
1509 1580
1509 1581
1510 1582
1510 1583
1511 1583
1512 1584
1512 1585
1513 1586
1513 1587
1514 1588
1514 1589
1515 1589
1516 1590
1516 1591
1517 1592
1517 1593
1518 1594
1518 1595
1519 1595
1520 1596
1520 1597
1521 1598
1521 1599
1522 1600
1522 1601
1523 1601
1524 1602
1524 1603
1525 1604
1525 1605
1526 1606
1526 1607
1527 1607
1528 1608
1528 1609
1529 1610
1529 1611
1530 1612
1530 1613
1531 1613
1532 1614
1532 1615
1533 1616
1533 1617
1534 1618
1534 1619
1535 1619
1536 1620
1536 1621
1537 1622
1537 1623
1538 1624
1538 1625
1539 1625
1540 1626
1540 1627
1541 1628
1541 1629
1542 1630
1542 1631
1543 1631
1544 1632
1544 1633
1545 1634
1545 1635
1546 1636
1546 1637
1547 1637
1548 1638
1548 1639
1549 1640
1549 1641
1550 1642
1550 1643
1551 1643
1552 1644
1552 1645
1553 1646
1553 1647
1554 1648
1554 1649
1555 1649
1556 1650
1556 1651
1557 1652
1557 1653
1558 1559
1558 1654
1558 1719
1558 1720
1559 1655
1559 1719
1559 1720
1560 1561
1560 1656
1560 1721
1560 1722
1561 1657
1561 1721
1561 1722
1562 1563
1562 1657
1562 1723
1562 1724
1563 1658
1563 1723
1563 1724
1564 1565
1564 1658
1564 1725
1564 1726
1565 1659
1565 1725
1565 1726
1566 1567
1566 1660
1566 1727
1566 1728
1567 1661
1567 1727
1567 1728
1568 1569
1568 1661
1568 1729
1568 1730
1569 1662
1569 1729
1569 1730
1570 1571
1570 1662
1570 1731
1570 1732
1571 1663
1571 1731
1571 1732
1572 1573
1572 1664
1572 1733
1572 1734
1573 1665
1573 1733
1573 1734
1574 1575
1574 1665
1574 1735
1574 1736
1575 1666
1575 1735
1575 1736
1576 1577
1576 1666
1576 1737
1576 1738
1577 1667
1577 1737
1577 1738
1578 1579
1578 1668
1578 1739
1578 1740
1579 1669
1579 1739
1579 1740
1580 1581
1580 1669
1580 1741
1580 1742
1581 1670
1581 1741
1581 1742
1582 1583
1582 1670
1582 1743
1582 1744
1583 1671
1583 1743
1583 1744
1584 1585
1584 1672
1584 1745
1584 1746
1585 1673
1585 1745
1585 1746
1586 1587
1586 1673
1586 1747
1586 1748
1587 1674
1587 1747
1587 1748
1588 1589
1588 1674
1588 1749
1588 1750
1589 1675
1589 1749
1589 1750
1590 1591
1590 1676
1590 1751
1590 1752
1591 1677
1591 1751
1591 1752
1592 1593
1592 1677
1592 1753
1592 1754
1593 1678
1593 1753
1593 1754
1594 1595
1594 1678
1594 1755
1594 1756
1595 1679
1595 1755
1595 1756
1596 1597
1596 1680
1596 1757
1596 1758
1597 1681
1597 1757
1597 1758
1598 1599
1598 1681
1598 1759
1598 1760
1599 1682
1599 1759
1599 1760
1600 1601
1600 1682
1600 1761
1600 1762
1601 1683
1601 1761
1601 1762
1602 1603
1602 1684
1602 1763
1602 1764
1603 1685
1603 1763
1603 1764
1604 1605
1604 1685
1604 1765
1604 1766
1605 1686
1605 1765
1605 1766
1606 1607
1606 1686
1606 1767
1606 1768
1607 1687
1607 1767
1607 1768
1608 1609
1608 1688
1608 1769
1608 1770
1609 1689
1609 1769
1609 1770
1610 1611
1610 1689
1610 1771
1610 1772
1611 1690
1611 1771
1611 1772
1612 1613
1612 1690
1612 1773
1612 1774
1613 1691
1613 1773
1613 1774
1614 1615
1614 1692
1614 1775
1614 1776
1615 1693
1615 1775
1615 1776
1616 1617
1616 1693
1616 1777
1616 1778
1617 1694
1617 1777
1617 1778
1618 1619
1618 1694
1618 1779
1618 1780
1619 1695
1619 1779
1619 1780
1620 1621
1620 1696
1620 1781
1620 1782
1621 1697
1621 1781
1621 1782
1622 1623
1622 1697
1622 1783
1622 1784
1623 1698
1623 1783
1623 1784
1624 1625
1624 1698
1624 1785
1624 1786
1625 1699
1625 1785
1625 1786
1626 1627
1626 1700
1626 1787
1626 1788
1627 1701
1627 1787
1627 1788
1628 1629
1628 1701
1628 1789
1628 1790
1629 1702
1629 1789
1629 1790
1630 1631
1630 1702
1630 1791
1630 1792
1631 1703
1631 1791
1631 1792
1632 1633
1632 1704
1632 1793
1632 1794
1633 1705
1633 1793
1633 1794
1634 1635
1634 1705
1634 1795
1634 1796
1635 1706
1635 1795
1635 1796
1636 1637
1636 1706
1636 1797
1636 1798
1637 1707
1637 1797
1637 1798
1638 1639
1638 1708
1638 1799
1638 1800
1639 1709
1639 1799
1639 1800
1640 1641
1640 1709
1640 1801
1640 1802
1641 1710
1641 1801
1641 1802
1642 1643
1642 1710
1642 1803
1642 1804
1643 1711
1643 1803
1643 1804
1644 1645
1644 1712
1644 1805
1644 1806
1645 1713
1645 1805
1645 1806
1646 1647
1646 1713
1646 1807
1646 1808
1647 1714
1647 1807
1647 1808
1648 1649
1648 1714
1648 1809
1648 1810
1649 1715
1649 1809
1649 1810
1650 1651
1650 1716
1650 1811
1650 1812
1651 1717
1651 1811
1651 1812
1652 1653
1652 1717
1653 1718
1654 1719
1655 1656
1655 1720
1656 1721
1657 1722
1657 1723
1658 1724
1658 1725
1659 1660
1659 1726
1660 1727
1661 1728
1661 1729
1662 1730
1662 1731
1663 1664
1663 1732
1664 1733
1665 1734
1665 1735
1666 1736
1666 1737
1667 1668
1667 1738
1668 1739
1669 1740
1669 1741
1670 1742
1670 1743
1671 1672
1671 1744
1672 1745
1673 1746
1673 1747
1674 1748
1674 1749
1675 1676
1675 1750
1676 1751
1677 1752
1677 1753
1678 1754
1678 1755
1679 1680
1679 1756
1680 1757
1681 1758
1681 1759
1682 1760
1682 1761
1683 1684
1683 1762
1684 1763
1685 1764
1685 1765
1686 1766
1686 1767
1687 1688
1687 1768
1688 1769
1689 1770
1689 1771
1690 1772
1690 1773
1691 1692
1691 1774
1692 1775
1693 1776
1693 1777
1694 1778
1694 1779
1695 1696
1695 1780
1696 1781
1697 1782
1697 1783
1698 1784
1698 1785
1699 1700
1699 1786
1700 1787
1701 1788
1701 1789
1702 1790
1702 1791
1703 1704
1703 1792
1704 1793
1705 1794
1705 1795
1706 1796
1706 1797
1707 1708
1707 1798
1708 1799
1709 1800
1709 1801
1710 1802
1710 1803
1711 1712
1711 1804
1712 1805
1713 1806
1713 1807
1714 1808
1714 1809
1715 1716
1715 1810
1716 1811
1717 1812
1719 1720
1719 1813
1720 1813
1721 1722
1721 1814
1722 1814
1723 1724
1723 1815
1724 1815
1725 1726
1725 1816
1726 1816
1727 1728
1727 1817
1728 1817
1729 1730
1729 1818
1730 1818
1731 1732
1731 1819
1732 1819
1733 1734
1733 1820
1734 1820
1735 1736
1735 1821
1736 1821
1737 1738
1737 1822
1738 1822
1739 1740
1739 1823
1740 1823
1741 1742
1741 1824
1742 1824
1743 1744
1743 1825
1744 1825
1745 1746
1745 1826
1746 1826
1747 1748
1747 1827
1748 1827
1749 1750
1749 1828
1750 1828
1751 1752
1751 1829
1752 1829
1753 1754
1753 1830
1754 1830
1755 1756
1755 1831
1756 1831
1757 1758
1757 1832
1758 1832
1759 1760
1759 1833
1760 1833
1761 1762
1761 1834
1762 1834
1763 1764
1763 1835
1764 1835
1765 1766
1765 1836
1766 1836
1767 1768
1767 1837
1768 1837
1769 1770
1769 1838
1770 1838
1771 1772
1771 1839
1772 1839
1773 1774
1773 1840
1774 1840
1775 1776
1775 1841
1776 1841
1777 1778
1777 1842
1778 1842
1779 1780
1779 1843
1780 1843
1781 1782
1781 1844
1782 1844
1783 1784
1783 1845
1784 1845
1785 1786
1785 1846
1786 1846
1787 1788
1787 1847
1788 1847
1789 1790
1789 1848
1790 1848
1791 1792
1791 1849
1792 1849
1793 1794
1793 1850
1794 1850
1795 1796
1795 1851
1796 1851
1797 1798
1797 1852
1798 1852
1799 1800
1799 1853
1800 1853
1801 1802
1801 1854
1802 1854
1803 1804
1803 1855
1804 1855
1805 1806
1805 1856
1806 1856
1807 1808
1807 1857
1808 1857
1809 1810
1809 1858
1810 1858
1811 1812
1811 1859
1812 1859
1813 1860
1813 1861
1814 1925
1814 1926
1815 1927
1816 1864
1816 1865
1817 1928
1817 1929
1818 1930
1819 1868
1819 1869
1820 1931
1820 1932
1821 1933
1822 1872
1822 1873
1823 1934
1823 1935
1824 1936
1825 1876
1825 1877
1826 1937
1826 1938
1827 1939
1828 1880
1828 1881
1829 1940
1829 1941
1830 1942
1831 1884
1831 1885
1832 1943
1832 1944
1833 1945
1834 1888
1834 1889
1835 1946
1835 1947
1836 1948
1837 1892
1837 1893
1838 1949
1838 1950
1839 1951
1840 1896
1840 1897
1841 1952
1841 1953
1842 1954
1843 1900
1843 1901
1844 1955
1844 1956
1845 1957
1846 1904
1846 1905
1847 1958
1847 1959
1848 1960
1849 1908
1849 1909
1850 1961
1850 1962
1851 1963
1852 1912
1852 1913
1853 1964
1853 1965
1854 1966
1855 1916
1855 1917
1856 1967
1856 1968
1857 1969
1858 1920
1858 1921
1859 1970
1859 1971
1860 1861
1860 1924
1860 1972
1860 1973
1861 1862
1861 1972
1861 1973
1862 1925
1862 1973
1862 1974
1863 1926
1863 1975
1863 1976
1864 1865
1864 1927
1864 1977
1864 1978
1865 1866
1865 1977
1865 1978
1866 1928
1866 1978
1866 1979
1867 1929
1867 1980
1867 1981
1868 1869
1868 1930
1868 1982
1868 1983
1869 1870
1869 1982
1869 1983
1870 1931
1870 1983
1870 1984
1871 1932
1871 1985
1871 1986
1872 1873
1872 1933
1872 1987
1872 1988
1873 1874
1873 1987
1873 1988
1874 1934
1874 1988
1874 1989
1875 1935
1875 1990
1875 1991
1876 1877
1876 1936
1876 1992
1876 1993
1877 1878
1877 1992
1877 1993
1878 1937
1878 1993
1878 1994
1879 1938
1879 1995
1879 1996
1880 1881
1880 1939
1880 1997
1880 1998
1881 1882
1881 1997
1881 1998
1882 1940
1882 1998
1882 1999
1883 1941
1883 2000
1883 2001
1884 1885
1884 1942
1884 2002
1884 2003
1885 1886
1885 2002
1885 2003
1886 1943
1886 2003
1886 2004
1887 1944
1887 2005
1887 2006
1888 1889
1888 1945
1888 2007
1888 2008
1889 1890
1889 2007
1889 2008
1890 1946
1890 2008
1890 2009
1891 1947
1891 2010
1891 2011
1892 1893
1892 1948
1892 2012
1892 2013
1893 1894
1893 2012
1893 2013
1894 1949
1894 2013
1894 2014
1895 1950
1895 2015
1895 2016
1896 1897
1896 1951
1896 2017
1896 2018
1897 1898
1897 2017
1897 2018
1898 1952
1898 2018
1898 2019
1899 1953
1899 2020
1899 2021
1900 1901
1900 1954
1900 2022
1900 2023
1901 1902
1901 2022
1901 2023
1902 1955
1902 2023
1902 2024
1903 1956
1903 2025
1903 2026
1904 1905
1904 1957
1904 2027
1904 2028
1905 1906
1905 2027
1905 2028
1906 1958
1906 2028
1906 2029
1907 1959
1907 2030
1907 2031
1908 1909
1908 1960
1908 2032
1908 2033
1909 1910
1909 2032
1909 2033
1910 1961
1910 2033
1910 2034
1911 1962
1911 2035
1911 2036
1912 1913
1912 1963
1912 2037
1912 2038
1913 1914
1913 2037
1913 2038
1914 1964
1914 2038
1914 2039
1915 1965
1915 2040
1915 2041
1916 1917
1916 1966
1916 2042
1916 2043
1917 1918
1917 2042
1917 2043
1918 1967
1918 2043
1918 2044
1919 1968
1919 2045
1919 2046
1920 1921
1920 1969
1920 2047
1920 2048
1921 1922
1921 2047
1921 2048
1922 1970
1922 2048
1922 2049
1923 1971
1923 2050
1923 2051
1924 1972
1925 1926
1925 1974
1925 2052
1925 2053
1926 1975
1926 2052
1926 2053
1927 1977
1928 1929
1928 1979
1928 2054
1928 2055
1929 1980
1929 2054
1929 2055
1930 1982
1931 1932
1931 1984
1931 2056
1931 2057
1932 1985
1932 2056
1932 2057
1933 1987
1934 1935
1934 1989
1934 2058
1934 2059
1935 1990
1935 2058
1935 2059
1936 1992
1937 1938
1937 1994
1937 2060
1937 2061
1938 1995
1938 2060
1938 2061
1939 1997
1940 1941
1940 1999
1940 2062
1940 2063
1941 2000
1941 2062
1941 2063
1942 2002
1943 1944
1943 2004
1943 2064
1943 2065
1944 2005
1944 2064
1944 2065
1945 2007
1946 1947
1946 2009
1946 2066
1946 2067
1947 2010
1947 2066
1947 2067
1948 2012
1949 1950
1949 2014
1949 2068
1949 2069
1950 2015
1950 2068
1950 2069
1951 2017
1952 1953
1952 2019
1952 2070
1952 2071
1953 2020
1953 2070
1953 2071
1954 2022
1955 1956
1955 2024
1955 2072
1955 2073
1956 2025
1956 2072
1956 2073
1957 2027
1958 1959
1958 2029
1958 2074
1958 2075
1959 2030
1959 2074
1959 2075
1960 2032
1961 1962
1961 2034
1961 2076
1961 2077
1962 2035
1962 2076
1962 2077
1963 2037
1964 1965
1964 2039
1964 2078
1964 2079
1965 2040
1965 2078
1965 2079
1966 2042
1967 1968
1967 2044
1967 2080
1967 2081
1968 2045
1968 2080
1968 2081
1969 2047
1970 1971
1970 2049
1970 2082
1970 2083
1971 2050
1971 2082
1971 2083
1972 1973
1972 2084
1973 2084
1974 2052
1974 2085
1975 2053
1975 2086
1976 2087
1977 1978
1977 2088
1978 2088
1979 2054
1979 2089
1980 2055
1980 2090
1981 2091
1982 1983
1982 2092
1983 2092
1984 2056
1984 2093
1985 2057
1985 2094
1986 2095
1987 1988
1987 2096
1988 2096
1989 2058
1989 2097
1990 2059
1990 2098
1991 2099
1992 1993
1992 2100
1993 2100
1994 2060
1994 2101
1995 2061
1995 2102
1996 2103
1997 1998
1997 2104
1998 2104
1999 2062
1999 2105
2000 2063
2000 2106
2001 2107
2002 2003
2002 2108
2003 2108
2004 2064
2004 2109
2005 2065
2005 2110
2006 2111
2007 2008
2007 2112
2008 2112
2009 2066
2009 2113
2010 2067
2010 2114
2011 2115
2012 2013
2012 2116
2013 2116
2014 2068
2014 2117
2015 2069
2015 2118
2016 2119
2017 2018
2017 2120
2018 2120
2019 2070
2019 2121
2020 2071
2020 2122
2021 2123
2022 2023
2022 2124
2023 2124
2024 2072
2024 2125
2025 2073
2025 2126
2026 2127
2027 2028
2027 2128
2028 2128
2029 2074
2029 2129
2030 2075
2030 2130
2031 2131
2032 2033
2032 2132
2033 2132
2034 2076
2034 2133
2035 2077
2035 2134
2036 2135
2037 2038
2037 2136
2038 2136
2039 2078
2039 2137
2040 2079
2040 2138
2041 2139
2042 2043
2042 2140
2043 2140
2044 2080
2044 2141
2045 2081
2045 2142
2046 2143
2047 2048
2047 2144
2048 2144
2049 2082
2049 2145
2050 2083
2050 2146
2051 2147
2052 2053
2052 2085
2053 2086
2054 2055
2054 2089
2055 2090
2056 2057
2056 2093
2057 2094
2058 2059
2058 2097
2059 2098
2060 2061
2060 2101
2061 2102
2062 2063
2062 2105
2063 2106
2064 2065
2064 2109
2065 2110
2066 2067
2066 2113
2067 2114
2068 2069
2068 2117
2069 2118
2070 2071
2070 2121
2071 2122
2072 2073
2072 2125
2073 2126
2074 2075
2074 2129
2075 2130
2076 2077
2076 2133
2077 2134
2078 2079
2078 2137
2079 2138
2080 2081
2080 2141
2081 2142
2082 2083
2082 2145
2083 2146
2084 2148
2084 2149
2085 2149
2086 2150
2086 2151
2087 2152
2087 2153
2088 2154
2088 2155
2089 2155
2090 2156
2090 2157
2091 2158
2091 2159
2092 2160
2092 2161
2093 2161
2094 2162
2094 2163
2095 2164
2095 2165
2096 2166
2096 2167
2097 2167
2098 2168
2098 2169
2099 2170
2099 2171
2100 2172
2100 2173
2101 2173
2102 2174
2102 2175
2103 2176
2103 2177
2104 2178
2104 2179
2105 2179
2106 2180
2106 2181
2107 2182
2107 2183
2108 2184
2108 2185
2109 2185
2110 2186
2110 2187
2111 2188
2111 2189
2112 2190
2112 2191
2113 2191
2114 2192
2114 2193
2115 2194
2115 2195
2116 2196
2116 2197
2117 2197
2118 2198
2118 2199
2119 2200
2119 2201
2120 2202
2120 2203
2121 2203
2122 2204
2122 2205
2123 2206
2123 2207
2124 2208
2124 2209
2125 2209
2126 2210
2126 2211
2127 2212
2127 2213
2128 2214
2128 2215
2129 2215
2130 2216
2130 2217
2131 2218
2131 2219
2132 2220
2132 2221
2133 2221
2134 2222
2134 2223
2135 2224
2135 2225
2136 2226
2136 2227
2137 2227
2138 2228
2138 2229
2139 2230
2139 2231
2140 2232
2140 2233
2141 2233
2142 2234
2142 2235
2143 2236
2143 2237
2144 2238
2144 2239
2145 2239
2146 2240
2146 2241
2147 2242
2147 2243
2148 2149
2148 2244
2148 2309
2148 2310
2149 2245
2149 2309
2149 2310
2150 2151
2150 2246
2150 2311
2150 2312
2151 2247
2151 2311
2151 2312
2152 2153
2152 2247
2152 2313
2152 2314
2153 2248
2153 2313
2153 2314
2154 2155
2154 2248
2154 2315
2154 2316
2155 2249
2155 2315
2155 2316
2156 2157
2156 2250
2156 2317
2156 2318
2157 2251
2157 2317
2157 2318
2158 2159
2158 2251
2158 2319
2158 2320
2159 2252
2159 2319
2159 2320
2160 2161
2160 2252
2160 2321
2160 2322
2161 2253
2161 2321
2161 2322
2162 2163
2162 2254
2162 2323
2162 2324
2163 2255
2163 2323
2163 2324
2164 2165
2164 2255
2164 2325
2164 2326
2165 2256
2165 2325
2165 2326
2166 2167
2166 2256
2166 2327
2166 2328
2167 2257
2167 2327
2167 2328
2168 2169
2168 2258
2168 2329
2168 2330
2169 2259
2169 2329
2169 2330
2170 2171
2170 2259
2170 2331
2170 2332
2171 2260
2171 2331
2171 2332
2172 2173
2172 2260
2172 2333
2172 2334
2173 2261
2173 2333
2173 2334
2174 2175
2174 2262
2174 2335
2174 2336
2175 2263
2175 2335
2175 2336
2176 2177
2176 2263
2176 2337
2176 2338
2177 2264
2177 2337
2177 2338
2178 2179
2178 2264
2178 2339
2178 2340
2179 2265
2179 2339
2179 2340
2180 2181
2180 2266
2180 2341
2180 2342
2181 2267
2181 2341
2181 2342
2182 2183
2182 2267
2182 2343
2182 2344
2183 2268
2183 2343
2183 2344
2184 2185
2184 2268
2184 2345
2184 2346
2185 2269
2185 2345
2185 2346
2186 2187
2186 2270
2186 2347
2186 2348
2187 2271
2187 2347
2187 2348
2188 2189
2188 2271
2188 2349
2188 2350
2189 2272
2189 2349
2189 2350
2190 2191
2190 2272
2190 2351
2190 2352
2191 2273
2191 2351
2191 2352
2192 2193
2192 2274
2192 2353
2192 2354
2193 2275
2193 2353
2193 2354
2194 2195
2194 2275
2194 2355
2194 2356
2195 2276
2195 2355
2195 2356
2196 2197
2196 2276
2196 2357
2196 2358
2197 2277
2197 2357
2197 2358
2198 2199
2198 2278
2198 2359
2198 2360
2199 2279
2199 2359
2199 2360
2200 2201
2200 2279
2200 2361
2200 2362
2201 2280
2201 2361
2201 2362
2202 2203
2202 2280
2202 2363
2202 2364
2203 2281
2203 2363
2203 2364
2204 2205
2204 2282
2204 2365
2204 2366
2205 2283
2205 2365
2205 2366
2206 2207
2206 2283
2206 2367
2206 2368
2207 2284
2207 2367
2207 2368
2208 2209
2208 2284
2208 2369
2208 2370
2209 2285
2209 2369
2209 2370
2210 2211
2210 2286
2210 2371
2210 2372
2211 2287
2211 2371
2211 2372
2212 2213
2212 2287
2212 2373
2212 2374
2213 2288
2213 2373
2213 2374
2214 2215
2214 2288
2214 2375
2214 2376
2215 2289
2215 2375
2215 2376
2216 2217
2216 2290
2216 2377
2216 2378
2217 2291
2217 2377
2217 2378
2218 2219
2218 2291
2218 2379
2218 2380
2219 2292
2219 2379
2219 2380
2220 2221
2220 2292
2220 2381
2220 2382
2221 2293
2221 2381
2221 2382
2222 2223
2222 2294
2222 2383
2222 2384
2223 2295
2223 2383
2223 2384
2224 2225
2224 2295
2224 2385
2224 2386
2225 2296
2225 2385
2225 2386
2226 2227
2226 2296
2226 2387
2226 2388
2227 2297
2227 2387
2227 2388
2228 2229
2228 2298
2228 2389
2228 2390
2229 2299
2229 2389
2229 2390
2230 2231
2230 2299
2230 2391
2230 2392
2231 2300
2231 2391
2231 2392
2232 2233
2232 2300
2232 2393
2232 2394
2233 2301
2233 2393
2233 2394
2234 2235
2234 2302
2234 2395
2234 2396
2235 2303
2235 2395
2235 2396
2236 2237
2236 2303
2236 2397
2236 2398
2237 2304
2237 2397
2237 2398
2238 2239
2238 2304
2238 2399
2238 2400
2239 2305
2239 2399
2239 2400
2240 2241
2240 2306
2240 2401
2240 2402
2241 2307
2241 2401
2241 2402
2242 2243
2242 2307
2242 2403
2242 2404
2243 2308
2243 2403
2243 2404
2244 2309
2245 2246
2245 2310
2246 2311
2247 2312
2247 2313
2248 2314
2248 2315
2249 2250
2249 2316
2250 2317
2251 2318
2251 2319
2252 2320
2252 2321
2253 2254
2253 2322
2254 2323
2255 2324
2255 2325
2256 2326
2256 2327
2257 2258
2257 2328
2258 2329
2259 2330
2259 2331
2260 2332
2260 2333
2261 2262
2261 2334
2262 2335
2263 2336
2263 2337
2264 2338
2264 2339
2265 2266
2265 2340
2266 2341
2267 2342
2267 2343
2268 2344
2268 2345
2269 2270
2269 2346
2270 2347
2271 2348
2271 2349
2272 2350
2272 2351
2273 2274
2273 2352
2274 2353
2275 2354
2275 2355
2276 2356
2276 2357
2277 2278
2277 2358
2278 2359
2279 2360
2279 2361
2280 2362
2280 2363
2281 2282
2281 2364
2282 2365
2283 2366
2283 2367
2284 2368
2284 2369
2285 2286
2285 2370
2286 2371
2287 2372
2287 2373
2288 2374
2288 2375
2289 2290
2289 2376
2290 2377
2291 2378
2291 2379
2292 2380
2292 2381
2293 2294
2293 2382
2294 2383
2295 2384
2295 2385
2296 2386
2296 2387
2297 2298
2297 2388
2298 2389
2299 2390
2299 2391
2300 2392
2300 2393
2301 2302
2301 2394
2302 2395
2303 2396
2303 2397
2304 2398
2304 2399
2305 2306
2305 2400
2306 2401
2307 2402
2307 2403
2308 2404
2309 2310
2309 2405
2310 2405
2311 2312
2311 2406
2312 2406
2313 2314
2313 2407
2314 2407
2315 2316
2315 2408
2316 2408
2317 2318
2317 2409
2318 2409
2319 2320
2319 2410
2320 2410
2321 2322
2321 2411
2322 2411
2323 2324
2323 2412
2324 2412
2325 2326
2325 2413
2326 2413
2327 2328
2327 2414
2328 2414
2329 2330
2329 2415
2330 2415
2331 2332
2331 2416
2332 2416
2333 2334
2333 2417
2334 2417
2335 2336
2335 2418
2336 2418
2337 2338
2337 2419
2338 2419
2339 2340
2339 2420
2340 2420
2341 2342
2341 2421
2342 2421
2343 2344
2343 2422
2344 2422
2345 2346
2345 2423
2346 2423
2347 2348
2347 2424
2348 2424
2349 2350
2349 2425
2350 2425
2351 2352
2351 2426
2352 2426
2353 2354
2353 2427
2354 2427
2355 2356
2355 2428
2356 2428
2357 2358
2357 2429
2358 2429
2359 2360
2359 2430
2360 2430
2361 2362
2361 2431
2362 2431
2363 2364
2363 2432
2364 2432
2365 2366
2365 2433
2366 2433
2367 2368
2367 2434
2368 2434
2369 2370
2369 2435
2370 2435
2371 2372
2371 2436
2372 2436
2373 2374
2373 2437
2374 2437
2375 2376
2375 2438
2376 2438
2377 2378
2377 2439
2378 2439
2379 2380
2379 2440
2380 2440
2381 2382
2381 2441
2382 2441
2383 2384
2383 2442
2384 2442
2385 2386
2385 2443
2386 2443
2387 2388
2387 2444
2388 2444
2389 2390
2389 2445
2390 2445
2391 2392
2391 2446
2392 2446
2393 2394
2393 2447
2394 2447
2395 2396
2395 2448
2396 2448
2397 2398
2397 2449
2398 2449
2399 2400
2399 2450
2400 2450
2401 2402
2401 2451
2402 2451
2403 2404
2405 2452
2405 2453
2406 2517
2406 2518
2407 2519
2408 2456
2408 2457
2409 2520
2409 2521
2410 2522
2411 2460
2411 2461
2412 2523
2412 2524
2413 2525
2414 2464
2414 2465
2415 2526
2415 2527
2416 2528
2417 2468
2417 2469
2418 2529
2418 2530
2419 2531
2420 2472
2420 2473
2421 2532
2421 2533
2422 2534
2423 2476
2423 2477
2424 2535
2424 2536
2425 2537
2426 2480
2426 2481
2427 2538
2427 2539
2428 2540
2429 2484
2429 2485
2430 2541
2430 2542
2431 2543
2432 2488
2432 2489
2433 2544
2433 2545
2434 2546
2435 2492
2435 2493
2436 2547
2436 2548
2437 2549
2438 2496
2438 2497
2439 2550
2439 2551
2440 2552
2441 2500
2441 2501
2442 2553
2442 2554
2443 2555
2444 2504
2444 2505
2445 2556
2445 2557
2446 2558
2447 2508
2447 2509
2448 2559
2448 2560
2449 2561
2450 2512
2450 2513
2451 2562
2451 2563
2452 2453
2452 2516
2452 2564
2452 2565
2453 2454
2453 2564
2453 2565
2454 2517
2454 2565
2454 2566
2455 2518
2455 2567
2455 2568
2456 2457
2456 2519
2456 2569
2456 2570
2457 2458
2457 2569
2457 2570
2458 2520
2458 2570
2458 2571
2459 2521
2459 2572
2459 2573
2460 2461
2460 2522
2460 2574
2460 2575
2461 2462
2461 2574
2461 2575
2462 2523
2462 2575
2462 2576
2463 2524
2463 2577
2463 2578
2464 2465
2464 2525
2464 2579
2464 2580
2465 2466
2465 2579
2465 2580
2466 2526
2466 2580
2466 2581
2467 2527
2467 2582
2467 2583
2468 2469
2468 2528
2468 2584
2468 2585
2469 2470
2469 2584
2469 2585
2470 2529
2470 2585
2470 2586
2471 2530
2471 2587
2471 2588
2472 2473
2472 2531
2472 2589
2472 2590
2473 2474
2473 2589
2473 2590
2474 2532
2474 2590
2474 2591
2475 2533
2475 2592
2475 2593
2476 2477
2476 2534
2476 2594
2476 2595
2477 2478
2477 2594
2477 2595
2478 2535
2478 2595
2478 2596
2479 2536
2479 2597
2479 2598
2480 2481
2480 2537
2480 2599
2480 2600
2481 2482
2481 2599
2481 2600
2482 2538
2482 2600
2482 2601
2483 2539
2483 2602
2483 2603
2484 2485
2484 2540
2484 2604
2484 2605
2485 2486
2485 2604
2485 2605
2486 2541
2486 2605
2486 2606
2487 2542
2487 2607
2487 2608
2488 2489
2488 2543
2488 2609
2488 2610
2489 2490
2489 2609
2489 2610
2490 2544
2490 2610
2490 2611
2491 2545
2491 2612
2491 2613
2492 2493
2492 2546
2492 2614
2492 2615
2493 2494
2493 2614
2493 2615
2494 2547
2494 2615
2494 2616
2495 2548
2495 2617
2495 2618
2496 2497
2496 2549
2496 2619
2496 2620
2497 2498
2497 2619
2497 2620
2498 2550
2498 2620
2498 2621
2499 2551
2499 2622
2499 2623
2500 2501
2500 2552
2500 2624
2500 2625
2501 2502
2501 2624
2501 2625
2502 2553
2502 2625
2502 2626
2503 2554
2503 2627
2503 2628
2504 2505
2504 2555
2504 2629
2504 2630
2505 2506
2505 2629
2505 2630
2506 2556
2506 2630
2506 2631
2507 2557
2507 2632
2507 2633
2508 2509
2508 2558
2508 2634
2508 2635
2509 2510
2509 2634
2509 2635
2510 2559
2510 2635
2510 2636
2511 2560
2511 2637
2511 2638
2512 2513
2512 2561
2512 2639
2512 2640
2513 2514
2513 2639
2513 2640
2514 2562
2514 2640
2514 2641
2515 2563
2515 2642
2515 2643
2516 2564
2517 2518
2517 2566
2517 2644
2517 2645
2518 2567
2518 2644
2518 2645
2519 2569
2520 2521
2520 2571
2520 2646
2520 2647
2521 2572
2521 2646
2521 2647
2522 2574
2523 2524
2523 2576
2523 2648
2523 2649
2524 2577
2524 2648
2524 2649
2525 2579
2526 2527
2526 2581
2526 2650
2526 2651
2527 2582
2527 2650
2527 2651
2528 2584
2529 2530
2529 2586
2529 2652
2529 2653
2530 2587
2530 2652
2530 2653
2531 2589
2532 2533
2532 2591
2532 2654
2532 2655
2533 2592
2533 2654
2533 2655
2534 2594
2535 2536
2535 2596
2535 2656
2535 2657
2536 2597
2536 2656
2536 2657
2537 2599
2538 2539
2538 2601
2538 2658
2538 2659
2539 2602
2539 2658
2539 2659
2540 2604
2541 2542
2541 2606
2541 2660
2541 2661
2542 2607
2542 2660
2542 2661
2543 2609
2544 2545
2544 2611
2544 2662
2544 2663
2545 2612
2545 2662
2545 2663
2546 2614
2547 2548
2547 2616
2547 2664
2547 2665
2548 2617
2548 2664
2548 2665
2549 2619
2550 2551
2550 2621
2550 2666
2550 2667
2551 2622
2551 2666
2551 2667
2552 2624
2553 2554
2553 2626
2553 2668
2553 2669
2554 2627
2554 2668
2554 2669
2555 2629
2556 2557
2556 2631
2556 2670
2556 2671
2557 2632
2557 2670
2557 2671
2558 2634
2559 2560
2559 2636
2559 2672
2559 2673
2560 2637
2560 2672
2560 2673
2561 2639
2562 2563
2562 2641
2562 2674
2562 2675
2563 2642
2563 2674
2563 2675
2564 2565
2564 2676
2565 2676
2566 2644
2566 2677
2567 2645
2567 2678
2568 2679
2569 2570
2569 2680
2570 2680
2571 2646
2571 2681
2572 2647
2572 2682
2573 2683
2574 2575
2574 2684
2575 2684
2576 2648
2576 2685
2577 2649
2577 2686
2578 2687
2579 2580
2579 2688
2580 2688
2581 2650
2581 2689
2582 2651
2582 2690
2583 2691
2584 2585
2584 2692
2585 2692
2586 2652
2586 2693
2587 2653
2587 2694
2588 2695
2589 2590
2589 2696
2590 2696
2591 2654
2591 2697
2592 2655
2592 2698
2593 2699
2594 2595
2594 2700
2595 2700
2596 2656
2596 2701
2597 2657
2597 2702
2598 2703
2599 2600
2599 2704
2600 2704
2601 2658
2601 2705
2602 2659
2602 2706
2603 2707
2604 2605
2604 2708
2605 2708
2606 2660
2606 2709
2607 2661
2607 2710
2608 2711
2609 2610
2609 2712
2610 2712
2611 2662
2611 2713
2612 2663
2612 2714
2613 2715
2614 2615
2614 2716
2615 2716
2616 2664
2616 2717
2617 2665
2617 2718
2618 2719
2619 2620
2619 2720
2620 2720
2621 2666
2621 2721
2622 2667
2622 2722
2623 2723
2624 2625
2624 2724
2625 2724
2626 2668
2626 2725
2627 2669
2627 2726
2628 2727
2629 2630
2629 2728
2630 2728
2631 2670
2631 2729
2632 2671
2632 2730
2633 2731
2634 2635
2634 2732
2635 2732
2636 2672
2636 2733
2637 2673
2637 2734
2638 2735
2639 2640
2639 2736
2640 2736
2641 2674
2641 2737
2642 2675
2642 2738
2643 2739
2644 2645
2644 2677
2645 2678
2646 2647
2646 2681
2647 2682
2648 2649
2648 2685
2649 2686
2650 2651
2650 2689
2651 2690
2652 2653
2652 2693
2653 2694
2654 2655
2654 2697
2655 2698
2656 2657
2656 2701
2657 2702
2658 2659
2658 2705
2659 2706
2660 2661
2660 2709
2661 2710
2662 2663
2662 2713
2663 2714
2664 2665
2664 2717
2665 2718
2666 2667
2666 2721
2667 2722
2668 2669
2668 2725
2669 2726
2670 2671
2670 2729
2671 2730
2672 2673
2672 2733
2673 2734
2674 2675
2674 2737
2675 2738
2676 2740
2676 2741
2677 2741
2678 2742
2678 2743
2679 2744
2679 2745
2680 2746
2680 2747
2681 2747
2682 2748
2682 2749
2683 2750
2683 2751
2684 2752
2684 2753
2685 2753
2686 2754
2686 2755
2687 2756
2687 2757
2688 2758
2688 2759
2689 2759
2690 2760
2690 2761
2691 2762
2691 2763
2692 2764
2692 2765
2693 2765
2694 2766
2694 2767
2695 2768
2695 2769
2696 2770
2696 2771
2697 2771
2698 2772
2698 2773
2699 2774
2699 2775
2700 2776
2700 2777
2701 2777
2702 2778
2702 2779
2703 2780
2703 2781
2704 2782
2704 2783
2705 2783
2706 2784
2706 2785
2707 2786
2707 2787
2708 2788
2708 2789
2709 2789
2710 2790
2710 2791
2711 2792
2711 2793
2712 2794
2712 2795
2713 2795
2714 2796
2714 2797
2715 2798
2715 2799
2716 2800
2716 2801
2717 2801
2718 2802
2718 2803
2719 2804
2719 2805
2720 2806
2720 2807
2721 2807
2722 2808
2722 2809
2723 2810
2723 2811
2724 2812
2724 2813
2725 2813
2726 2814
2726 2815
2727 2816
2727 2817
2728 2818
2728 2819
2729 2819
2730 2820
2730 2821
2731 2822
2731 2823
2732 2824
2732 2825
2733 2825
2734 2826
2734 2827
2735 2828
2735 2829
2736 2830
2736 2831
2737 2831
2738 2832
2738 2833
2739 2834
2739 2835
2740 2741
2740 2836
2740 2901
2740 2902
2741 2837
2741 2901
2741 2902
2742 2743
2742 2838
2742 2903
2742 2904
2743 2839
2743 2903
2743 2904
2744 2745
2744 2839
2744 2905
2744 2906
2745 2840
2745 2905
2745 2906
2746 2747
2746 2840
2746 2907
2746 2908
2747 2841
2747 2907
2747 2908
2748 2749
2748 2842
2748 2909
2748 2910
2749 2843
2749 2909
2749 2910
2750 2751
2750 2843
2750 2911
2750 2912
2751 2844
2751 2911
2751 2912
2752 2753
2752 2844
2752 2913
2752 2914
2753 2845
2753 2913
2753 2914
2754 2755
2754 2846
2754 2915
2754 2916
2755 2847
2755 2915
2755 2916
2756 2757
2756 2847
2756 2917
2756 2918
2757 2848
2757 2917
2757 2918
2758 2759
2758 2848
2758 2919
2758 2920
2759 2849
2759 2919
2759 2920
2760 2761
2760 2850
2760 2921
2760 2922
2761 2851
2761 2921
2761 2922
2762 2763
2762 2851
2762 2923
2762 2924
2763 2852
2763 2923
2763 2924
2764 2765
2764 2852
2764 2925
2764 2926
2765 2853
2765 2925
2765 2926
2766 2767
2766 2854
2766 2927
2766 2928
2767 2855
2767 2927
2767 2928
2768 2769
2768 2855
2768 2929
2768 2930
2769 2856
2769 2929
2769 2930
2770 2771
2770 2856
2770 2931
2770 2932
2771 2857
2771 2931
2771 2932
2772 2773
2772 2858
2772 2933
2772 2934
2773 2859
2773 2933
2773 2934
2774 2775
2774 2859
2774 2935
2774 2936
2775 2860
2775 2935
2775 2936
2776 2777
2776 2860
2776 2937
2776 2938
2777 2861
2777 2937
2777 2938
2778 2779
2778 2862
2778 2939
2778 2940
2779 2863
2779 2939
2779 2940
2780 2781
2780 2863
2780 2941
2780 2942
2781 2864
2781 2941
2781 2942
2782 2783
2782 2864
2782 2943
2782 2944
2783 2865
2783 2943
2783 2944
2784 2785
2784 2866
2784 2945
2784 2946
2785 2867
2785 2945
2785 2946
2786 2787
2786 2867
2786 2947
2786 2948
2787 2868
2787 2947
2787 2948
2788 2789
2788 2868
2788 2949
2788 2950
2789 2869
2789 2949
2789 2950
2790 2791
2790 2870
2790 2951
2790 2952
2791 2871
2791 2951
2791 2952
2792 2793
2792 2871
2792 2953
2792 2954
2793 2872
2793 2953
2793 2954
2794 2795
2794 2872
2794 2955
2794 2956
2795 2873
2795 2955
2795 2956
2796 2797
2796 2874
2796 2957
2796 2958
2797 2875
2797 2957
2797 2958
2798 2799
2798 2875
2798 2959
2798 2960
2799 2876
2799 2959
2799 2960
2800 2801
2800 2876
2800 2961
2800 2962
2801 2877
2801 2961
2801 2962
2802 2803
2802 2878
2802 2963
2802 2964
2803 2879
2803 2963
2803 2964
2804 2805
2804 2879
2804 2965
2804 2966
2805 2880
2805 2965
2805 2966
2806 2807
2806 2880
2806 2967
2806 2968
2807 2881
2807 2967
2807 2968
2808 2809
2808 2882
2808 2969
2808 2970
2809 2883
2809 2969
2809 2970
2810 2811
2810 2883
2810 2971
2810 2972
2811 2884
2811 2971
2811 2972
2812 2813
2812 2884
2812 2973
2812 2974
2813 2885
2813 2973
2813 2974
2814 2815
2814 2886
2814 2975
2814 2976
2815 2887
2815 2975
2815 2976
2816 2817
2816 2887
2816 2977
2816 2978
2817 2888
2817 2977
2817 2978
2818 2819
2818 2888
2818 2979
2818 2980
2819 2889
2819 2979
2819 2980
2820 2821
2820 2890
2820 2981
2820 2982
2821 2891
2821 2981
2821 2982
2822 2823
2822 2891
2822 2983
2822 2984
2823 2892
2823 2983
2823 2984
2824 2825
2824 2892
2824 2985
2824 2986
2825 2893
2825 2985
2825 2986
2826 2827
2826 2894
2826 2987
2826 2988
2827 2895
2827 2987
2827 2988
2828 2829
2828 2895
2828 2989
2828 2990
2829 2896
2829 2989
2829 2990
2830 2831
2830 2896
2830 2991
2830 2992
2831 2897
2831 2991
2831 2992
2832 2833
2832 2898
2832 2993
2832 2994
2833 2899
2833 2993
2833 2994
2834 2835
2834 2899
2834 2995
2834 2996
2835 2900
2835 2995
2835 2996
2836 2901
2837 2838
2837 2902
2838 2903
2839 2904
2839 2905
2840 2906
2840 2907
2841 2842
2841 2908
2842 2909
2843 2910
2843 2911
2844 2912
2844 2913
2845 2846
2845 2914
2846 2915
2847 2916
2847 2917
2848 2918
2848 2919
2849 2850
2849 2920
2850 2921
2851 2922
2851 2923
2852 2924
2852 2925
2853 2854
2853 2926
2854 2927
2855 2928
2855 2929
2856 2930
2856 2931
2857 2858
2857 2932
2858 2933
2859 2934
2859 2935
2860 2936
2860 2937
2861 2862
2861 2938
2862 2939
2863 2940
2863 2941
2864 2942
2864 2943
2865 2866
2865 2944
2866 2945
2867 2946
2867 2947
2868 2948
2868 2949
2869 2870
2869 2950
2870 2951
2871 2952
2871 2953
2872 2954
2872 2955
2873 2874
2873 2956
2874 2957
2875 2958
2875 2959
2876 2960
2876 2961
2877 2878
2877 2962
2878 2963
2879 2964
2879 2965
2880 2966
2880 2967
2881 2882
2881 2968
2882 2969
2883 2970
2883 2971
2884 2972
2884 2973
2885 2886
2885 2974
2886 2975
2887 2976
2887 2977
2888 2978
2888 2979
2889 2890
2889 2980
2890 2981
2891 2982
2891 2983
2892 2984
2892 2985
2893 2894
2893 2986
2894 2987
2895 2988
2895 2989
2896 2990
2896 2991
2897 2898
2897 2992
2898 2993
2899 2994
2899 2995
2900 2996
2901 2902
2901 2997
2902 2997
2903 2904
2903 2998
2904 2998
2905 2906
2905 2999
2906 2999
2907 2908
2907 3000
2908 3000
2909 2910
2909 3001
2910 3001
2911 2912
2911 3002
2912 3002
2913 2914
2913 3003
2914 3003
2915 2916
2915 3004
2916 3004
2917 2918
2917 3005
2918 3005
2919 2920
2919 3006
2920 3006
2921 2922
2921 3007
2922 3007
2923 2924
2923 3008
2924 3008
2925 2926
2925 3009
2926 3009
2927 2928
2927 3010
2928 3010
2929 2930
2929 3011
2930 3011
2931 2932
2931 3012
2932 3012
2933 2934
2933 3013
2934 3013
2935 2936
2935 3014
2936 3014
2937 2938
2937 3015
2938 3015
2939 2940
2939 3016
2940 3016
2941 2942
2941 3017
2942 3017
2943 2944
2943 3018
2944 3018
2945 2946
2945 3019
2946 3019
2947 2948
2947 3020
2948 3020
2949 2950
2949 3021
2950 3021
2951 2952
2951 3022
2952 3022
2953 2954
2953 3023
2954 3023
2955 2956
2955 3024
2956 3024
2957 2958
2957 3025
2958 3025
2959 2960
2959 3026
2960 3026
2961 2962
2961 3027
2962 3027
2963 2964
2963 3028
2964 3028
2965 2966
2965 3029
2966 3029
2967 2968
2967 3030
2968 3030
2969 2970
2969 3031
2970 3031
2971 2972
2971 3032
2972 3032
2973 2974
2973 3033
2974 3033
2975 2976
2975 3034
2976 3034
2977 2978
2977 3035
2978 3035
2979 2980
2979 3036
2980 3036
2981 2982
2981 3037
2982 3037
2983 2984
2983 3038
2984 3038
2985 2986
2985 3039
2986 3039
2987 2988
2987 3040
2988 3040
2989 2990
2989 3041
2990 3041
2991 2992
2991 3042
2992 3042
2993 2994
2993 3043
2994 3043
2995 2996
2997 3044
2997 3045
2998 3109
2998 3110
2999 3111
3000 3048
3000 3049
3001 3112
3001 3113
3002 3114
3003 3052
3003 3053
3004 3115
3004 3116
3005 3117
3006 3056
3006 3057
3007 3118
3007 3119
3008 3120
3009 3060
3009 3061
3010 3121
3010 3122
3011 3123
3012 3064
3012 3065
3013 3124
3013 3125
3014 3126
3015 3068
3015 3069
3016 3127
3016 3128
3017 3129
3018 3072
3018 3073
3019 3130
3019 3131
3020 3132
3021 3076
3021 3077
3022 3133
3022 3134
3023 3135
3024 3080
3024 3081
3025 3136
3025 3137
3026 3138
3027 3084
3027 3085
3028 3139
3028 3140
3029 3141
3030 3088
3030 3089
3031 3142
3031 3143
3032 3144
3033 3092
3033 3093
3034 3145
3034 3146
3035 3147
3036 3096
3036 3097
3037 3148
3037 3149
3038 3150
3039 3100
3039 3101
3040 3151
3040 3152
3041 3153
3042 3104
3042 3105
3043 3154
3043 3155
3044 3045
3044 3108
3044 3156
3044 3157
3045 3046
3045 3156
3045 3157
3046 3109
3046 3157
3046 3158
3047 3110
3047 3159
3047 3160
3048 3049
3048 3111
3048 3161
3048 3162
3049 3050
3049 3161
3049 3162
3050 3112
3050 3162
3050 3163
3051 3113
3051 3164
3051 3165
3052 3053
3052 3114
3052 3166
3052 3167
3053 3054
3053 3166
3053 3167
3054 3115
3054 3167
3054 3168
3055 3116
3055 3169
3055 3170
3056 3057
3056 3117
3056 3171
3056 3172
3057 3058
3057 3171
3057 3172
3058 3118
3058 3172
3058 3173
3059 3119
3059 3174
3059 3175
3060 3061
3060 3120
3060 3176
3060 3177
3061 3062
3061 3176
3061 3177
3062 3121
3062 3177
3062 3178
3063 3122
3063 3179
3063 3180
3064 3065
3064 3123
3064 3181
3064 3182
3065 3066
3065 3181
3065 3182
3066 3124
3066 3182
3066 3183
3067 3125
3067 3184
3067 3185
3068 3069
3068 3126
3068 3186
3068 3187
3069 3070
3069 3186
3069 3187
3070 3127
3070 3187
3070 3188
3071 3128
3071 3189
3071 3190
3072 3073
3072 3129
3072 3191
3072 3192
3073 3074
3073 3191
3073 3192
3074 3130
3074 3192
3074 3193
3075 3131
3075 3194
3075 3195
3076 3077
3076 3132
3076 3196
3076 3197
3077 3078
3077 3196
3077 3197
3078 3133
3078 3197
3078 3198
3079 3134
3079 3199
3079 3200
3080 3081
3080 3135
3080 3201
3080 3202
3081 3082
3081 3201
3081 3202
3082 3136
3082 3202
3082 3203
3083 3137
3083 3204
3083 3205
3084 3085
3084 3138
3084 3206
3084 3207
3085 3086
3085 3206
3085 3207
3086 3139
3086 3207
3086 3208
3087 3140
3087 3209
3087 3210
3088 3089
3088 3141
3088 3211
3088 3212
3089 3090
3089 3211
3089 3212
3090 3142
3090 3212
3090 3213
3091 3143
3091 3214
3091 3215
3092 3093
3092 3144
3092 3216
3092 3217
3093 3094
3093 3216
3093 3217
3094 3145
3094 3217
3094 3218
3095 3146
3095 3219
3095 3220
3096 3097
3096 3147
3096 3221
3096 3222
3097 3098
3097 3221
3097 3222
3098 3148
3098 3222
3098 3223
3099 3149
3099 3224
3099 3225
3100 3101
3100 3150
3100 3226
3100 3227
3101 3102
3101 3226
3101 3227
3102 3151
3102 3227
3102 3228
3103 3152
3103 3229
3103 3230
3104 3105
3104 3153
3104 3231
3104 3232
3105 3106
3105 3231
3105 3232
3106 3154
3106 3232
3106 3233
3107 3155
3107 3234
3107 3235
3108 3156
3109 3110
3109 3158
3109 3236
3109 3237
3110 3159
3110 3236
3110 3237
3111 3161
3112 3113
3112 3163
3112 3238
3112 3239
3113 3164
3113 3238
3113 3239
3114 3166
3115 3116
3115 3168
3115 3240
3115 3241
3116 3169
3116 3240
3116 3241
3117 3171
3118 3119
3118 3173
3118 3242
3118 3243
3119 3174
3119 3242
3119 3243
3120 3176
3121 3122
3121 3178
3121 3244
3121 3245
3122 3179
3122 3244
3122 3245
3123 3181
3124 3125
3124 3183
3124 3246
3124 3247
3125 3184
3125 3246
3125 3247
3126 3186
3127 3128
3127 3188
3127 3248
3127 3249
3128 3189
3128 3248
3128 3249
3129 3191
3130 3131
3130 3193
3130 3250
3130 3251
3131 3194
3131 3250
3131 3251
3132 3196
3133 3134
3133 3198
3133 3252
3133 3253
3134 3199
3134 3252
3134 3253
3135 3201
3136 3137
3136 3203
3136 3254
3136 3255
3137 3204
3137 3254
3137 3255
3138 3206
3139 3140
3139 3208
3139 3256
3139 3257
3140 3209
3140 3256
3140 3257
3141 3211
3142 3143
3142 3213
3142 3258
3142 3259
3143 3214
3143 3258
3143 3259
3144 3216
3145 3146
3145 3218
3145 3260
3145 3261
3146 3219
3146 3260
3146 3261
3147 3221
3148 3149
3148 3223
3148 3262
3148 3263
3149 3224
3149 3262
3149 3263
3150 3226
3151 3152
3151 3228
3151 3264
3151 3265
3152 3229
3152 3264
3152 3265
3153 3231
3154 3155
3154 3233
3154 3266
3154 3267
3155 3234
3155 3266
3155 3267
3156 3157
3156 3268
3157 3268
3158 3236
3158 3269
3159 3237
3159 3270
3160 3271
3161 3162
3161 3272
3162 3272
3163 3238
3163 3273
3164 3239
3164 3274
3165 3275
3166 3167
3166 3276
3167 3276
3168 3240
3168 3277
3169 3241
3169 3278
3170 3279
3171 3172
3171 3280
3172 3280
3173 3242
3173 3281
3174 3243
3174 3282
3175 3283
3176 3177
3176 3284
3177 3284
3178 3244
3178 3285
3179 3245
3179 3286
3180 3287
3181 3182
3181 3288
3182 3288
3183 3246
3183 3289
3184 3247
3184 3290
3185 3291
3186 3187
3186 3292
3187 3292
3188 3248
3188 3293
3189 3249
3189 3294
3190 3295
3191 3192
3191 3296
3192 3296
3193 3250
3193 3297
3194 3251
3194 3298
3195 3299
3196 3197
3196 3300
3197 3300
3198 3252
3198 3301
3199 3253
3199 3302
3200 3303
3201 3202
3201 3304
3202 3304
3203 3254
3203 3305
3204 3255
3204 3306
3205 3307
3206 3207
3206 3308
3207 3308
3208 3256
3208 3309
3209 3257
3209 3310
3210 3311
3211 3212
3211 3312
3212 3312
3213 3258
3213 3313
3214 3259
3214 3314
3215 3315
3216 3217
3216 3316
3217 3316
3218 3260
3218 3317
3219 3261
3219 3318
3220 3319
3221 3222
3221 3320
3222 3320
3223 3262
3223 3321
3224 3263
3224 3322
3225 3323
3226 3227
3226 3324
3227 3324
3228 3264
3228 3325
3229 3265
3229 3326
3230 3327
3231 3232
3231 3328
3232 3328
3233 3266
3233 3329
3234 3267
3234 3330
3235 3331
3236 3237
3236 3269
3237 3270
3238 3239
3238 3273
3239 3274
3240 3241
3240 3277
3241 3278
3242 3243
3242 3281
3243 3282
3244 3245
3244 3285
3245 3286
3246 3247
3246 3289
3247 3290
3248 3249
3248 3293
3249 3294
3250 3251
3250 3297
3251 3298
3252 3253
3252 3301
3253 3302
3254 3255
3254 3305
3255 3306
3256 3257
3256 3309
3257 3310
3258 3259
3258 3313
3259 3314
3260 3261
3260 3317
3261 3318
3262 3263
3262 3321
3263 3322
3264 3265
3264 3325
3265 3326
3266 3267
3266 3329
3267 3330
3268 3332
3268 3333
3269 3333
3270 3334
3270 3335
3271 3336
3271 3337
3272 3338
3272 3339
3273 3339
3274 3340
3274 3341
3275 3342
3275 3343
3276 3344
3276 3345
3277 3345
3278 3346
3278 3347
3279 3348
3279 3349
3280 3350
3280 3351
3281 3351
3282 3352
3282 3353
3283 3354
3283 3355
3284 3356
3284 3357
3285 3357
3286 3358
3286 3359
3287 3360
3287 3361
3288 3362
3288 3363
3289 3363
3290 3364
3290 3365
3291 3366
3291 3367
3292 3368
3292 3369
3293 3369
3294 3370
3294 3371
3295 3372
3295 3373
3296 3374
3296 3375
3297 3375
3298 3376
3298 3377
3299 3378
3299 3379
3300 3380
3300 3381
3301 3381
3302 3382
3302 3383
3303 3384
3303 3385
3304 3386
3304 3387
3305 3387
3306 3388
3306 3389
3307 3390
3307 3391
3308 3392
3308 3393
3309 3393
3310 3394
3310 3395
3311 3396
3311 3397
3312 3398
3312 3399
3313 3399
3314 3400
3314 3401
3315 3402
3315 3403
3316 3404
3316 3405
3317 3405
3318 3406
3318 3407
3319 3408
3319 3409
3320 3410
3320 3411
3321 3411
3322 3412
3322 3413
3323 3414
3323 3415
3324 3416
3324 3417
3325 3417
3326 3418
3326 3419
3327 3420
3327 3421
3328 3422
3328 3423
3329 3423
3330 3424
3330 3425
3331 3426
3331 3427
3332 3333
3332 3428
3332 3493
3332 3494
3333 3429
3333 3493
3333 3494
3334 3335
3334 3430
3334 3495
3334 3496
3335 3431
3335 3495
3335 3496
3336 3337
3336 3431
3336 3497
3336 3498
3337 3432
3337 3497
3337 3498
3338 3339
3338 3432
3338 3499
3338 3500
3339 3433
3339 3499
3339 3500
3340 3341
3340 3434
3340 3501
3340 3502
3341 3435
3341 3501
3341 3502
3342 3343
3342 3435
3342 3503
3342 3504
3343 3436
3343 3503
3343 3504
3344 3345
3344 3436
3344 3505
3344 3506
3345 3437
3345 3505
3345 3506
3346 3347
3346 3438
3346 3507
3346 3508
3347 3439
3347 3507
3347 3508
3348 3349
3348 3439
3348 3509
3348 3510
3349 3440
3349 3509
3349 3510
3350 3351
3350 3440
3350 3511
3350 3512
3351 3441
3351 3511
3351 3512
3352 3353
3352 3442
3352 3513
3352 3514
3353 3443
3353 3513
3353 3514
3354 3355
3354 3443
3354 3515
3354 3516
3355 3444
3355 3515
3355 3516
3356 3357
3356 3444
3356 3517
3356 3518
3357 3445
3357 3517
3357 3518
3358 3359
3358 3446
3358 3519
3358 3520
3359 3447
3359 3519
3359 3520
3360 3361
3360 3447
3360 3521
3360 3522
3361 3448
3361 3521
3361 3522
3362 3363
3362 3448
3362 3523
3362 3524
3363 3449
3363 3523
3363 3524
3364 3365
3364 3450
3364 3525
3364 3526
3365 3451
3365 3525
3365 3526
3366 3367
3366 3451
3366 3527
3366 3528
3367 3452
3367 3527
3367 3528
3368 3369
3368 3452
3368 3529
3368 3530
3369 3453
3369 3529
3369 3530
3370 3371
3370 3454
3370 3531
3370 3532
3371 3455
3371 3531
3371 3532
3372 3373
3372 3455
3372 3533
3372 3534
3373 3456
3373 3533
3373 3534
3374 3375
3374 3456
3374 3535
3374 3536
3375 3457
3375 3535
3375 3536
3376 3377
3376 3458
3376 3537
3376 3538
3377 3459
3377 3537
3377 3538
3378 3379
3378 3459
3378 3539
3378 3540
3379 3460
3379 3539
3379 3540
3380 3381
3380 3460
3380 3541
3380 3542
3381 3461
3381 3541
3381 3542
3382 3383
3382 3462
3382 3543
3382 3544
3383 3463
3383 3543
3383 3544
3384 3385
3384 3463
3384 3545
3384 3546
3385 3464
3385 3545
3385 3546
3386 3387
3386 3464
3386 3547
3386 3548
3387 3465
3387 3547
3387 3548
3388 3389
3388 3466
3388 3549
3388 3550
3389 3467
3389 3549
3389 3550
3390 3391
3390 3467
3390 3551
3390 3552
3391 3468
3391 3551
3391 3552
3392 3393
3392 3468
3392 3553
3392 3554
3393 3469
3393 3553
3393 3554
3394 3395
3394 3470
3394 3555
3394 3556
3395 3471
3395 3555
3395 3556
3396 3397
3396 3471
3396 3557
3396 3558
3397 3472
3397 3557
3397 3558
3398 3399
3398 3472
3398 3559
3398 3560
3399 3473
3399 3559
3399 3560
3400 3401
3400 3474
3400 3561
3400 3562
3401 3475
3401 3561
3401 3562
3402 3403
3402 3475
3402 3563
3402 3564
3403 3476
3403 3563
3403 3564
3404 3405
3404 3476
3404 3565
3404 3566
3405 3477
3405 3565
3405 3566
3406 3407
3406 3478
3406 3567
3406 3568
3407 3479
3407 3567
3407 3568
3408 3409
3408 3479
3408 3569
3408 3570
3409 3480
3409 3569
3409 3570
3410 3411
3410 3480
3410 3571
3410 3572
3411 3481
3411 3571
3411 3572
3412 3413
3412 3482
3412 3573
3412 3574
3413 3483
3413 3573
3413 3574
3414 3415
3414 3483
3414 3575
3414 3576
3415 3484
3415 3575
3415 3576
3416 3417
3416 3484
3416 3577
3416 3578
3417 3485
3417 3577
3417 3578
3418 3419
3418 3486
3418 3579
3418 3580
3419 3487
3419 3579
3419 3580
3420 3421
3420 3487
3420 3581
3420 3582
3421 3488
3421 3581
3421 3582
3422 3423
3422 3488
3422 3583
3422 3584
3423 3489
3423 3583
3423 3584
3424 3425
3424 3490
3424 3585
3424 3586
3425 3491
3425 3585
3425 3586
3426 3427
3426 3491
3427 3492
3428 3493
3429 3430
3429 3494
3430 3495
3431 3496
3431 3497
3432 3498
3432 3499
3433 3434
3433 3500
3434 3501
3435 3502
3435 3503
3436 3504
3436 3505
3437 3438
3437 3506
3438 3507
3439 3508
3439 3509
3440 3510
3440 3511
3441 3442
3441 3512
3442 3513
3443 3514
3443 3515
3444 3516
3444 3517
3445 3446
3445 3518
3446 3519
3447 3520
3447 3521
3448 3522
3448 3523
3449 3450
3449 3524
3450 3525
3451 3526
3451 3527
3452 3528
3452 3529
3453 3454
3453 3530
3454 3531
3455 3532
3455 3533
3456 3534
3456 3535
3457 3458
3457 3536
3458 3537
3459 3538
3459 3539
3460 3540
3460 3541
3461 3462
3461 3542
3462 3543
3463 3544
3463 3545
3464 3546
3464 3547
3465 3466
3465 3548
3466 3549
3467 3550
3467 3551
3468 3552
3468 3553
3469 3470
3469 3554
3470 3555
3471 3556
3471 3557
3472 3558
3472 3559
3473 3474
3473 3560
3474 3561
3475 3562
3475 3563
3476 3564
3476 3565
3477 3478
3477 3566
3478 3567
3479 3568
3479 3569
3480 3570
3480 3571
3481 3482
3481 3572
3482 3573
3483 3574
3483 3575
3484 3576
3484 3577
3485 3486
3485 3578
3486 3579
3487 3580
3487 3581
3488 3582
3488 3583
3489 3490
3489 3584
3490 3585
3491 3586
3493 3494
3493 3587
3494 3587
3495 3496
3495 3588
3496 3588
3497 3498
3497 3589
3498 3589
3499 3500
3499 3590
3500 3590
3501 3502
3501 3591
3502 3591
3503 3504
3503 3592
3504 3592
3505 3506
3505 3593
3506 3593
3507 3508
3507 3594
3508 3594
3509 3510
3509 3595
3510 3595
3511 3512
3511 3596
3512 3596
3513 3514
3513 3597
3514 3597
3515 3516
3515 3598
3516 3598
3517 3518
3517 3599
3518 3599
3519 3520
3519 3600
3520 3600
3521 3522
3521 3601
3522 3601
3523 3524
3523 3602
3524 3602
3525 3526
3525 3603
3526 3603
3527 3528
3527 3604
3528 3604
3529 3530
3529 3605
3530 3605
3531 3532
3531 3606
3532 3606
3533 3534
3533 3607
3534 3607
3535 3536
3535 3608
3536 3608
3537 3538
3537 3609
3538 3609
3539 3540
3539 3610
3540 3610
3541 3542
3541 3611
3542 3611
3543 3544
3543 3612
3544 3612
3545 3546
3545 3613
3546 3613
3547 3548
3547 3614
3548 3614
3549 3550
3549 3615
3550 3615
3551 3552
3551 3616
3552 3616
3553 3554
3553 3617
3554 3617
3555 3556
3555 3618
3556 3618
3557 3558
3557 3619
3558 3619
3559 3560
3559 3620
3560 3620
3561 3562
3561 3621
3562 3621
3563 3564
3563 3622
3564 3622
3565 3566
3565 3623
3566 3623
3567 3568
3567 3624
3568 3624
3569 3570
3569 3625
3570 3625
3571 3572
3571 3626
3572 3626
3573 3574
3573 3627
3574 3627
3575 3576
3575 3628
3576 3628
3577 3578
3577 3629
3578 3629
3579 3580
3579 3630
3580 3630
3581 3582
3581 3631
3582 3631
3583 3584
3583 3632
3584 3632
3585 3586
3585 3633
3586 3633
3587 3634
3587 3635
3588 3699
3588 3700
3589 3701
3590 3638
3590 3639
3591 3702
3591 3703
3592 3704
3593 3642
3593 3643
3594 3705
3594 3706
3595 3707
3596 3646
3596 3647
3597 3708
3597 3709
3598 3710
3599 3650
3599 3651
3600 3711
3600 3712
3601 3713
3602 3654
3602 3655
3603 3714
3603 3715
3604 3716
3605 3658
3605 3659
3606 3717
3606 3718
3607 3719
3608 3662
3608 3663
3609 3720
3609 3721
3610 3722
3611 3666
3611 3667
3612 3723
3612 3724
3613 3725
3614 3670
3614 3671
3615 3726
3615 3727
3616 3728
3617 3674
3617 3675
3618 3729
3618 3730
3619 3731
3620 3678
3620 3679
3621 3732
3621 3733
3622 3734
3623 3682
3623 3683
3624 3735
3624 3736
3625 3737
3626 3686
3626 3687
3627 3738
3627 3739
3628 3740
3629 3690
3629 3691
3630 3741
3630 3742
3631 3743
3632 3694
3632 3695
3633 3744
3633 3745
3634 3635
3634 3698
3634 3746
3634 3747
3635 3636
3635 3746
3635 3747
3636 3699
3636 3747
3636 3748
3637 3700
3637 3749
3637 3750
3638 3639
3638 3701
3638 3751
3638 3752
3639 3640
3639 3751
3639 3752
3640 3702
3640 3752
3640 3753
3641 3703
3641 3754
3641 3755
3642 3643
3642 3704
3642 3756
3642 3757
3643 3644
3643 3756
3643 3757
3644 3705
3644 3757
3644 3758
3645 3706
3645 3759
3645 3760
3646 3647
3646 3707
3646 3761
3646 3762
3647 3648
3647 3761
3647 3762
3648 3708
3648 3762
3648 3763
3649 3709
3649 3764
3649 3765
3650 3651
3650 3710
3650 3766
3650 3767
3651 3652
3651 3766
3651 3767
3652 3711
3652 3767
3652 3768
3653 3712
3653 3769
3653 3770
3654 3655
3654 3713
3654 3771
3654 3772
3655 3656
3655 3771
3655 3772
3656 3714
3656 3772
3656 3773
3657 3715
3657 3774
3657 3775
3658 3659
3658 3716
3658 3776
3658 3777
3659 3660
3659 3776
3659 3777
3660 3717
3660 3777
3660 3778
3661 3718
3661 3779
3661 3780
3662 3663
3662 3719
3662 3781
3662 3782
3663 3664
3663 3781
3663 3782
3664 3720
3664 3782
3664 3783
3665 3721
3665 3784
3665 3785
3666 3667
3666 3722
3666 3786
3666 3787
3667 3668
3667 3786
3667 3787
3668 3723
3668 3787
3668 3788
3669 3724
3669 3789
3669 3790
3670 3671
3670 3725
3670 3791
3670 3792
3671 3672
3671 3791
3671 3792
3672 3726
3672 3792
3672 3793
3673 3727
3673 3794
3673 3795
3674 3675
3674 3728
3674 3796
3674 3797
3675 3676
3675 3796
3675 3797
3676 3729
3676 3797
3676 3798
3677 3730
3677 3799
3677 3800
3678 3679
3678 3731
3678 3801
3678 3802
3679 3680
3679 3801
3679 3802
3680 3732
3680 3802
3680 3803
3681 3733
3681 3804
3681 3805
3682 3683
3682 3734
3682 3806
3682 3807
3683 3684
3683 3806
3683 3807
3684 3735
3684 3807
3684 3808
3685 3736
3685 3809
3685 3810
3686 3687
3686 3737
3686 3811
3686 3812
3687 3688
3687 3811
3687 3812
3688 3738
3688 3812
3688 3813
3689 3739
3689 3814
3689 3815
3690 3691
3690 3740
3690 3816
3690 3817
3691 3692
3691 3816
3691 3817
3692 3741
3692 3817
3692 3818
3693 3742
3693 3819
3693 3820
3694 3695
3694 3743
3694 3821
3694 3822
3695 3696
3695 3821
3695 3822
3696 3744
3696 3822
3696 3823
3697 3745
3697 3824
3697 3825
3698 3746
3699 3700
3699 3748
3699 3826
3699 3827
3700 3749
3700 3826
3700 3827
3701 3751
3702 3703
3702 3753
3702 3828
3702 3829
3703 3754
3703 3828
3703 3829
3704 3756
3705 3706
3705 3758
3705 3830
3705 3831
3706 3759
3706 3830
3706 3831
3707 3761
3708 3709
3708 3763
3708 3832
3708 3833
3709 3764
3709 3832
3709 3833
3710 3766
3711 3712
3711 3768
3711 3834
3711 3835
3712 3769
3712 3834
3712 3835
3713 3771
3714 3715
3714 3773
3714 3836
3714 3837
3715 3774
3715 3836
3715 3837
3716 3776
3717 3718
3717 3778
3717 3838
3717 3839
3718 3779
3718 3838
3718 3839
3719 3781
3720 3721
3720 3783
3720 3840
3720 3841
3721 3784
3721 3840
3721 3841
3722 3786
3723 3724
3723 3788
3723 3842
3723 3843
3724 3789
3724 3842
3724 3843
3725 3791
3726 3727
3726 3793
3726 3844
3726 3845
3727 3794
3727 3844
3727 3845
3728 3796
3729 3730
3729 3798
3729 3846
3729 3847
3730 3799
3730 3846
3730 3847
3731 3801
3732 3733
3732 3803
3732 3848
3732 3849
3733 3804
3733 3848
3733 3849
3734 3806
3735 3736
3735 3808
3735 3850
3735 3851
3736 3809
3736 3850
3736 3851
3737 3811
3738 3739
3738 3813
3738 3852
3738 3853
3739 3814
3739 3852
3739 3853
3740 3816
3741 3742
3741 3818
3741 3854
3741 3855
3742 3819
3742 3854
3742 3855
3743 3821
3744 3745
3744 3823
3744 3856
3744 3857
3745 3824
3745 3856
3745 3857
3746 3747
3746 3858
3747 3858
3748 3826
3748 3859
3749 3827
3749 3860
3750 3861
3751 3752
3751 3862
3752 3862
3753 3828
3753 3863
3754 3829
3754 3864
3755 3865
3756 3757
3756 3866
3757 3866
3758 3830
3758 3867
3759 3831
3759 3868
3760 3869
3761 3762
3761 3870
3762 3870
3763 3832
3763 3871
3764 3833
3764 3872
3765 3873
3766 3767
3766 3874
3767 3874
3768 3834
3768 3875
3769 3835
3769 3876
3770 3877
3771 3772
3771 3878
3772 3878
3773 3836
3773 3879
3774 3837
3774 3880
3775 3881
3776 3777
3776 3882
3777 3882
3778 3838
3778 3883
3779 3839
3779 3884
3780 3885
3781 3782
3781 3886
3782 3886
3783 3840
3783 3887
3784 3841
3784 3888
3785 3889
3786 3787
3786 3890
3787 3890
3788 3842
3788 3891
3789 3843
3789 3892
3790 3893
3791 3792
3791 3894
3792 3894
3793 3844
3793 3895
3794 3845
3794 3896
3795 3897
3796 3797
3796 3898
3797 3898
3798 3846
3798 3899
3799 3847
3799 3900
3800 3901
3801 3802
3801 3902
3802 3902
3803 3848
3803 3903
3804 3849
3804 3904
3805 3905
3806 3807
3806 3906
3807 3906
3808 3850
3808 3907
3809 3851
3809 3908
3810 3909
3811 3812
3811 3910
3812 3910
3813 3852
3813 3911
3814 3853
3814 3912
3815 3913
3816 3817
3816 3914
3817 3914
3818 3854
3818 3915
3819 3855
3819 3916
3820 3917
3821 3822
3821 3918
3822 3918
3823 3856
3823 3919
3824 3857
3824 3920
3825 3921
3826 3827
3826 3859
3827 3860
3828 3829
3828 3863
3829 3864
3830 3831
3830 3867
3831 3868
3832 3833
3832 3871
3833 3872
3834 3835
3834 3875
3835 3876
3836 3837
3836 3879
3837 3880
3838 3839
3838 3883
3839 3884
3840 3841
3840 3887
3841 3888
3842 3843
3842 3891
3843 3892
3844 3845
3844 3895
3845 3896
3846 3847
3846 3899
3847 3900
3848 3849
3848 3903
3849 3904
3850 3851
3850 3907
3851 3908
3852 3853
3852 3911
3853 3912
3854 3855
3854 3915
3855 3916
3856 3857
3856 3919
3857 3920
3858 3922
3858 3923
3859 3923
3860 3924
3860 3925
3861 3926
3861 3927
3862 3928
3862 3929
3863 3929
3864 3930
3864 3931
3865 3932
3865 3933
3866 3934
3866 3935
3867 3935
3868 3936
3868 3937
3869 3938
3869 3939
3870 3940
3870 3941
3871 3941
3872 3942
3872 3943
3873 3944
3873 3945
3874 3946
3874 3947
3875 3947
3876 3948
3876 3949
3877 3950
3877 3951
3878 3952
3878 3953
3879 3953
3880 3954
3880 3955
3881 3956
3881 3957
3882 3958
3882 3959
3883 3959
3884 3960
3884 3961
3885 3962
3885 3963
3886 3964
3886 3965
3887 3965
3888 3966
3888 3967
3889 3968
3889 3969
3890 3970
3890 3971
3891 3971
3892 3972
3892 3973
3893 3974
3893 3975
3894 3976
3894 3977
3895 3977
3896 3978
3896 3979
3897 3980
3897 3981
3898 3982
3898 3983
3899 3983
3900 3984
3900 3985
3901 3986
3901 3987
3902 3988
3902 3989
3903 3989
3904 3990
3904 3991
3905 3992
3905 3993
3906 3994
3906 3995
3907 3995
3908 3996
3908 3997
3909 3998
3909 3999
3910 4000
3910 4001
3911 4001
3912 4002
3912 4003
3913 4004
3913 4005
3914 4006
3914 4007
3915 4007
3916 4008
3916 4009
3917 4010
3917 4011
3918 4012
3918 4013
3919 4013
3920 4014
3920 4015
3921 4016
3921 4017
3922 3923
3922 4018
3922 4083
3922 4084
3923 4019
3923 4083
3923 4084
3924 3925
3924 4020
3924 4085
3924 4086
3925 4021
3925 4085
3925 4086
3926 3927
3926 4021
3926 4087
3926 4088
3927 4022
3927 4087
3927 4088
3928 3929
3928 4022
3928 4089
3928 4090
3929 4023
3929 4089
3929 4090
3930 3931
3930 4024
3930 4091
3930 4092
3931 4025
3931 4091
3931 4092
3932 3933
3932 4025
3932 4093
3932 4094
3933 4026
3933 4093
3933 4094
3934 3935
3934 4026
3934 4095
3934 4096
3935 4027
3935 4095
3935 4096
3936 3937
3936 4028
3936 4097
3936 4098
3937 4029
3937 4097
3937 4098
3938 3939
3938 4029
3938 4099
3938 4100
3939 4030
3939 4099
3939 4100
3940 3941
3940 4030
3940 4101
3940 4102
3941 4031
3941 4101
3941 4102
3942 3943
3942 4032
3942 4103
3942 4104
3943 4033
3943 4103
3943 4104
3944 3945
3944 4033
3944 4105
3944 4106
3945 4034
3945 4105
3945 4106
3946 3947
3946 4034
3946 4107
3946 4108
3947 4035
3947 4107
3947 4108
3948 3949
3948 4036
3948 4109
3948 4110
3949 4037
3949 4109
3949 4110
3950 3951
3950 4037
3950 4111
3950 4112
3951 4038
3951 4111
3951 4112
3952 3953
3952 4038
3952 4113
3952 4114
3953 4039
3953 4113
3953 4114
3954 3955
3954 4040
3954 4115
3954 4116
3955 4041
3955 4115
3955 4116
3956 3957
3956 4041
3956 4117
3956 4118
3957 4042
3957 4117
3957 4118
3958 3959
3958 4042
3958 4119
3958 4120
3959 4043
3959 4119
3959 4120
3960 3961
3960 4044
3960 4121
3960 4122
3961 4045
3961 4121
3961 4122
3962 3963
3962 4045
3962 4123
3962 4124
3963 4046
3963 4123
3963 4124
3964 3965
3964 4046
3964 4125
3964 4126
3965 4047
3965 4125
3965 4126
3966 3967
3966 4048
3966 4127
3966 4128
3967 4049
3967 4127
3967 4128
3968 3969
3968 4049
3968 4129
3968 4130
3969 4050
3969 4129
3969 4130
3970 3971
3970 4050
3970 4131
3970 4132
3971 4051
3971 4131
3971 4132
3972 3973
3972 4052
3972 4133
3972 4134
3973 4053
3973 4133
3973 4134
3974 3975
3974 4053
3974 4135
3974 4136
3975 4054
3975 4135
3975 4136
3976 3977
3976 4054
3976 4137
3976 4138
3977 4055
3977 4137
3977 4138
3978 3979
3978 4056
3978 4139
3978 4140
3979 4057
3979 4139
3979 4140
3980 3981
3980 4057
3980 4141
3980 4142
3981 4058
3981 4141
3981 4142
3982 3983
3982 4058
3982 4143
3982 4144
3983 4059
3983 4143
3983 4144
3984 3985
3984 4060
3984 4145
3984 4146
3985 4061
3985 4145
3985 4146
3986 3987
3986 4061
3986 4147
3986 4148
3987 4062
3987 4147
3987 4148
3988 3989
3988 4062
3988 4149
3988 4150
3989 4063
3989 4149
3989 4150
3990 3991
3990 4064
3990 4151
3990 4152
3991 4065
3991 4151
3991 4152
3992 3993
3992 4065
3992 4153
3992 4154
3993 4066
3993 4153
3993 4154
3994 3995
3994 4066
3994 4155
3994 4156
3995 4067
3995 4155
3995 4156
3996 3997
3996 4068
3996 4157
3996 4158
3997 4069
3997 4157
3997 4158
3998 3999
3998 4069
3998 4159
3998 4160
3999 4070
3999 4159
3999 4160
4000 4001
4000 4070
4000 4161
4000 4162
4001 4071
4001 4161
4001 4162
4002 4003
4002 4072
4002 4163
4002 4164
4003 4073
4003 4163
4003 4164
4004 4005
4004 4073
4004 4165
4004 4166
4005 4074
4005 4165
4005 4166
4006 4007
4006 4074
4006 4167
4006 4168
4007 4075
4007 4167
4007 4168
4008 4009
4008 4076
4008 4169
4008 4170
4009 4077
4009 4169
4009 4170
4010 4011
4010 4077
4010 4171
4010 4172
4011 4078
4011 4171
4011 4172
4012 4013
4012 4078
4012 4173
4012 4174
4013 4079
4013 4173
4013 4174
4014 4015
4014 4080
4014 4175
4014 4176
4015 4081
4015 4175
4015 4176
4016 4017
4016 4081
4016 4177
4016 4178
4017 4082
4017 4177
4017 4178
4018 4083
4019 4020
4019 4084
4020 4085
4021 4086
4021 4087
4022 4088
4022 4089
4023 4024
4023 4090
4024 4091
4025 4092
4025 4093
4026 4094
4026 4095
4027 4028
4027 4096
4028 4097
4029 4098
4029 4099
4030 4100
4030 4101
4031 4032
4031 4102
4032 4103
4033 4104
4033 4105
4034 4106
4034 4107
4035 4036
4035 4108
4036 4109
4037 4110
4037 4111
4038 4112
4038 4113
4039 4040
4039 4114
4040 4115
4041 4116
4041 4117
4042 4118
4042 4119
4043 4044
4043 4120
4044 4121
4045 4122
4045 4123
4046 4124
4046 4125
4047 4048
4047 4126
4048 4127
4049 4128
4049 4129
4050 4130
4050 4131
4051 4052
4051 4132
4052 4133
4053 4134
4053 4135
4054 4136
4054 4137
4055 4056
4055 4138
4056 4139
4057 4140
4057 4141
4058 4142
4058 4143
4059 4060
4059 4144
4060 4145
4061 4146
4061 4147
4062 4148
4062 4149
4063 4064
4063 4150
4064 4151
4065 4152
4065 4153
4066 4154
4066 4155
4067 4068
4067 4156
4068 4157
4069 4158
4069 4159
4070 4160
4070 4161
4071 4072
4071 4162
4072 4163
4073 4164
4073 4165
4074 4166
4074 4167
4075 4076
4075 4168
4076 4169
4077 4170
4077 4171
4078 4172
4078 4173
4079 4080
4079 4174
4080 4175
4081 4176
4081 4177
4082 4178
4083 4084
4083 4179
4084 4179
4085 4086
4085 4180
4086 4180
4087 4088
4087 4181
4088 4181
4089 4090
4089 4182
4090 4182
4091 4092
4091 4183
4092 4183
4093 4094
4093 4184
4094 4184
4095 4096
4095 4185
4096 4185
4097 4098
4097 4186
4098 4186
4099 4100
4099 4187
4100 4187
4101 4102
4101 4188
4102 4188
4103 4104
4103 4189
4104 4189
4105 4106
4105 4190
4106 4190
4107 4108
4107 4191
4108 4191
4109 4110
4109 4192
4110 4192
4111 4112
4111 4193
4112 4193
4113 4114
4113 4194
4114 4194
4115 4116
4115 4195
4116 4195
4117 4118
4117 4196
4118 4196
4119 4120
4119 4197
4120 4197
4121 4122
4121 4198
4122 4198
4123 4124
4123 4199
4124 4199
4125 4126
4125 4200
4126 4200
4127 4128
4127 4201
4128 4201
4129 4130
4129 4202
4130 4202
4131 4132
4131 4203
4132 4203
4133 4134
4133 4204
4134 4204
4135 4136
4135 4205
4136 4205
4137 4138
4137 4206
4138 4206
4139 4140
4139 4207
4140 4207
4141 4142
4141 4208
4142 4208
4143 4144
4143 4209
4144 4209
4145 4146
4145 4210
4146 4210
4147 4148
4147 4211
4148 4211
4149 4150
4149 4212
4150 4212
4151 4152
4151 4213
4152 4213
4153 4154
4153 4214
4154 4214
4155 4156
4155 4215
4156 4215
4157 4158
4157 4216
4158 4216
4159 4160
4159 4217
4160 4217
4161 4162
4161 4218
4162 4218
4163 4164
4163 4219
4164 4219
4165 4166
4165 4220
4166 4220
4167 4168
4167 4221
4168 4221
4169 4170
4169 4222
4170 4222
4171 4172
4171 4223
4172 4223
4173 4174
4173 4224
4174 4224
4175 4176
4175 4225
4176 4225
4177 4178
4179 4226
4179 4227
4180 4291
4180 4292
4181 4293
4182 4230
4182 4231
4183 4294
4183 4295
4184 4296
4185 4234
4185 4235
4186 4297
4186 4298
4187 4299
4188 4238
4188 4239
4189 4300
4189 4301
4190 4302
4191 4242
4191 4243
4192 4303
4192 4304
4193 4305
4194 4246
4194 4247
4195 4306
4195 4307
4196 4308
4197 4250
4197 4251
4198 4309
4198 4310
4199 4311
4200 4254
4200 4255
4201 4312
4201 4313
4202 4314
4203 4258
4203 4259
4204 4315
4204 4316
4205 4317
4206 4262
4206 4263
4207 4318
4207 4319
4208 4320
4209 4266
4209 4267
4210 4321
4210 4322
4211 4323
4212 4270
4212 4271
4213 4324
4213 4325
4214 4326
4215 4274
4215 4275
4216 4327
4216 4328
4217 4329
4218 4278
4218 4279
4219 4330
4219 4331
4220 4332
4221 4282
4221 4283
4222 4333
4222 4334
4223 4335
4224 4286
4224 4287
4225 4336
4225 4337
4226 4227
4226 4290
4226 4338
4226 4339
4227 4228
4227 4338
4227 4339
4228 4291
4228 4339
4228 4340
4229 4292
4229 4341
4229 4342
4230 4231
4230 4293
4230 4343
4230 4344
4231 4232
4231 4343
4231 4344
4232 4294
4232 4344
4232 4345
4233 4295
4233 4346
4233 4347
4234 4235
4234 4296
4234 4348
4234 4349
4235 4236
4235 4348
4235 4349
4236 4297
4236 4349
4236 4350
4237 4298
4237 4351
4237 4352
4238 4239
4238 4299
4238 4353
4238 4354
4239 4240
4239 4353
4239 4354
4240 4300
4240 4354
4240 4355
4241 4301
4241 4356
4241 4357
4242 4243
4242 4302
4242 4358
4242 4359
4243 4244
4243 4358
4243 4359
4244 4303
4244 4359
4244 4360
4245 4304
4245 4361
4245 4362
4246 4247
4246 4305
4246 4363
4246 4364
4247 4248
4247 4363
4247 4364
4248 4306
4248 4364
4248 4365
4249 4307
4249 4366
4249 4367
4250 4251
4250 4308
4250 4368
4250 4369
4251 4252
4251 4368
4251 4369
4252 4309
4252 4369
4252 4370
4253 4310
4253 4371
4253 4372
4254 4255
4254 4311
4254 4373
4254 4374
4255 4256
4255 4373
4255 4374
4256 4312
4256 4374
4256 4375
4257 4313
4257 4376
4257 4377
4258 4259
4258 4314
4258 4378
4258 4379
4259 4260
4259 4378
4259 4379
4260 4315
4260 4379
4260 4380
4261 4316
4261 4381
4261 4382
4262 4263
4262 4317
4262 4383
4262 4384
4263 4264
4263 4383
4263 4384
4264 4318
4264 4384
4264 4385
4265 4319
4265 4386
4265 4387
4266 4267
4266 4320
4266 4388
4266 4389
4267 4268
4267 4388
4267 4389
4268 4321
4268 4389
4268 4390
4269 4322
4269 4391
4269 4392
4270 4271
4270 4323
4270 4393
4270 4394
4271 4272
4271 4393
4271 4394
4272 4324
4272 4394
4272 4395
4273 4325
4273 4396
4273 4397
4274 4275
4274 4326
4274 4398
4274 4399
4275 4276
4275 4398
4275 4399
4276 4327
4276 4399
4276 4400
4277 4328
4277 4401
4277 4402
4278 4279
4278 4329
4278 4403
4278 4404
4279 4280
4279 4403
4279 4404
4280 4330
4280 4404
4280 4405
4281 4331
4281 4406
4281 4407
4282 4283
4282 4332
4282 4408
4282 4409
4283 4284
4283 4408
4283 4409
4284 4333
4284 4409
4284 4410
4285 4334
4285 4411
4285 4412
4286 4287
4286 4335
4286 4413
4286 4414
4287 4288
4287 4413
4287 4414
4288 4336
4288 4414
4288 4415
4289 4337
4289 4416
4289 4417
4290 4338
4291 4292
4291 4340
4291 4418
4291 4419
4292 4341
4292 4418
4292 4419
4293 4343
4294 4295
4294 4345
4294 4420
4294 4421
4295 4346
4295 4420
4295 4421
4296 4348
4297 4298
4297 4350
4297 4422
4297 4423
4298 4351
4298 4422
4298 4423
4299 4353
4300 4301
4300 4355
4300 4424
4300 4425
4301 4356
4301 4424
4301 4425
4302 4358
4303 4304
4303 4360
4303 4426
4303 4427
4304 4361
4304 4426
4304 4427
4305 4363
4306 4307
4306 4365
4306 4428
4306 4429
4307 4366
4307 4428
4307 4429
4308 4368
4309 4310
4309 4370
4309 4430
4309 4431
4310 4371
4310 4430
4310 4431
4311 4373
4312 4313
4312 4375
4312 4432
4312 4433
4313 4376
4313 4432
4313 4433
4314 4378
4315 4316
4315 4380
4315 4434
4315 4435
4316 4381
4316 4434
4316 4435
4317 4383
4318 4319
4318 4385
4318 4436
4318 4437
4319 4386
4319 4436
4319 4437
4320 4388
4321 4322
4321 4390
4321 4438
4321 4439
4322 4391
4322 4438
4322 4439
4323 4393
4324 4325
4324 4395
4324 4440
4324 4441
4325 4396
4325 4440
4325 4441
4326 4398
4327 4328
4327 4400
4327 4442
4327 4443
4328 4401
4328 4442
4328 4443
4329 4403
4330 4331
4330 4405
4330 4444
4330 4445
4331 4406
4331 4444
4331 4445
4332 4408
4333 4334
4333 4410
4333 4446
4333 4447
4334 4411
4334 4446
4334 4447
4335 4413
4336 4337
4336 4415
4336 4448
4336 4449
4337 4416
4337 4448
4337 4449
4338 4339
4338 4450
4339 4450
4340 4418
4340 4451
4341 4419
4341 4452
4342 4453
4343 4344
4343 4454
4344 4454
4345 4420
4345 4455
4346 4421
4346 4456
4347 4457
4348 4349
4348 4458
4349 4458
4350 4422
4350 4459
4351 4423
4351 4460
4352 4461
4353 4354
4353 4462
4354 4462
4355 4424
4355 4463
4356 4425
4356 4464
4357 4465
4358 4359
4358 4466
4359 4466
4360 4426
4360 4467
4361 4427
4361 4468
4362 4469
4363 4364
4363 4470
4364 4470
4365 4428
4365 4471
4366 4429
4366 4472
4367 4473
4368 4369
4368 4474
4369 4474
4370 4430
4370 4475
4371 4431
4371 4476
4372 4477
4373 4374
4373 4478
4374 4478
4375 4432
4375 4479
4376 4433
4376 4480
4377 4481
4378 4379
4378 4482
4379 4482
4380 4434
4380 4483
4381 4435
4381 4484
4382 4485
4383 4384
4383 4486
4384 4486
4385 4436
4385 4487
4386 4437
4386 4488
4387 4489
4388 4389
4388 4490
4389 4490
4390 4438
4390 4491
4391 4439
4391 4492
4392 4493
4393 4394
4393 4494
4394 4494
4395 4440
4395 4495
4396 4441
4396 4496
4397 4497
4398 4399
4398 4498
4399 4498
4400 4442
4400 4499
4401 4443
4401 4500
4402 4501
4403 4404
4403 4502
4404 4502
4405 4444
4405 4503
4406 4445
4406 4504
4407 4505
4408 4409
4408 4506
4409 4506
4410 4446
4410 4507
4411 4447
4411 4508
4412 4509
4413 4414
4413 4510
4414 4510
4415 4448
4415 4511
4416 4449
4416 4512
4417 4513
4418 4419
4418 4451
4419 4452
4420 4421
4420 4455
4421 4456
4422 4423
4422 4459
4423 4460
4424 4425
4424 4463
4425 4464
4426 4427
4426 4467
4427 4468
4428 4429
4428 4471
4429 4472
4430 4431
4430 4475
4431 4476
4432 4433
4432 4479
4433 4480
4434 4435
4434 4483
4435 4484
4436 4437
4436 4487
4437 4488
4438 4439
4438 4491
4439 4492
4440 4441
4440 4495
4441 4496
4442 4443
4442 4499
4443 4500
4444 4445
4444 4503
4445 4504
4446 4447
4446 4507
4447 4508
4448 4449
4448 4511
4449 4512
4450 4514
4450 4515
4451 4515
4452 4516
4452 4517
4453 4518
4453 4519
4454 4520
4454 4521
4455 4521
4456 4522
4456 4523
4457 4524
4457 4525
4458 4526
4458 4527
4459 4527
4460 4528
4460 4529
4461 4530
4461 4531
4462 4532
4462 4533
4463 4533
4464 4534
4464 4535
4465 4536
4465 4537
4466 4538
4466 4539
4467 4539
4468 4540
4468 4541
4469 4542
4469 4543
4470 4544
4470 4545
4471 4545
4472 4546
4472 4547
4473 4548
4473 4549
4474 4550
4474 4551
4475 4551
4476 4552
4476 4553
4477 4554
4477 4555
4478 4556
4478 4557
4479 4557
4480 4558
4480 4559
4481 4560
4481 4561
4482 4562
4482 4563
4483 4563
4484 4564
4484 4565
4485 4566
4485 4567
4486 4568
4486 4569
4487 4569
4488 4570
4488 4571
4489 4572
4489 4573
4490 4574
4490 4575
4491 4575
4492 4576
4492 4577
4493 4578
4493 4579
4494 4580
4494 4581
4495 4581
4496 4582
4496 4583
4497 4584
4497 4585
4498 4586
4498 4587
4499 4587
4500 4588
4500 4589
4501 4590
4501 4591
4502 4592
4502 4593
4503 4593
4504 4594
4504 4595
4505 4596
4505 4597
4506 4598
4506 4599
4507 4599
4508 4600
4508 4601
4509 4602
4509 4603
4510 4604
4510 4605
4511 4605
4512 4606
4512 4607
4513 4608
4513 4609
4514 4515
4514 4610
4514 4675
4514 4676
4515 4611
4515 4675
4515 4676
4516 4517
4516 4612
4516 4677
4516 4678
4517 4613
4517 4677
4517 4678
4518 4519
4518 4613
4518 4679
4518 4680
4519 4614
4519 4679
4519 4680
4520 4521
4520 4614
4520 4681
4520 4682
4521 4615
4521 4681
4521 4682
4522 4523
4522 4616
4522 4683
4522 4684
4523 4617
4523 4683
4523 4684
4524 4525
4524 4617
4524 4685
4524 4686
4525 4618
4525 4685
4525 4686
4526 4527
4526 4618
4526 4687
4526 4688
4527 4619
4527 4687
4527 4688
4528 4529
4528 4620
4528 4689
4528 4690
4529 4621
4529 4689
4529 4690
4530 4531
4530 4621
4530 4691
4530 4692
4531 4622
4531 4691
4531 4692
4532 4533
4532 4622
4532 4693
4532 4694
4533 4623
4533 4693
4533 4694
4534 4535
4534 4624
4534 4695
4534 4696
4535 4625
4535 4695
4535 4696
4536 4537
4536 4625
4536 4697
4536 4698
4537 4626
4537 4697
4537 4698
4538 4539
4538 4626
4538 4699
4538 4700
4539 4627
4539 4699
4539 4700
4540 4541
4540 4628
4540 4701
4540 4702
4541 4629
4541 4701
4541 4702
4542 4543
4542 4629
4542 4703
4542 4704
4543 4630
4543 4703
4543 4704
4544 4545
4544 4630
4544 4705
4544 4706
4545 4631
4545 4705
4545 4706
4546 4547
4546 4632
4546 4707
4546 4708
4547 4633
4547 4707
4547 4708
4548 4549
4548 4633
4548 4709
4548 4710
4549 4634
4549 4709
4549 4710
4550 4551
4550 4634
4550 4711
4550 4712
4551 4635
4551 4711
4551 4712
4552 4553
4552 4636
4552 4713
4552 4714
4553 4637
4553 4713
4553 4714
4554 4555
4554 4637
4554 4715
4554 4716
4555 4638
4555 4715
4555 4716
4556 4557
4556 4638
4556 4717
4556 4718
4557 4639
4557 4717
4557 4718
4558 4559
4558 4640
4558 4719
4558 4720
4559 4641
4559 4719
4559 4720
4560 4561
4560 4641
4560 4721
4560 4722
4561 4642
4561 4721
4561 4722
4562 4563
4562 4642
4562 4723
4562 4724
4563 4643
4563 4723
4563 4724
4564 4565
4564 4644
4564 4725
4564 4726
4565 4645
4565 4725
4565 4726
4566 4567
4566 4645
4566 4727
4566 4728
4567 4646
4567 4727
4567 4728
4568 4569
4568 4646
4568 4729
4568 4730
4569 4647
4569 4729
4569 4730
4570 4571
4570 4648
4570 4731
4570 4732
4571 4649
4571 4731
4571 4732
4572 4573
4572 4649
4572 4733
4572 4734
4573 4650
4573 4733
4573 4734
4574 4575
4574 4650
4574 4735
4574 4736
4575 4651
4575 4735
4575 4736
4576 4577
4576 4652
4576 4737
4576 4738
4577 4653
4577 4737
4577 4738
4578 4579
4578 4653
4578 4739
4578 4740
4579 4654
4579 4739
4579 4740
4580 4581
4580 4654
4580 4741
4580 4742
4581 4655
4581 4741
4581 4742
4582 4583
4582 4656
4582 4743
4582 4744
4583 4657
4583 4743
4583 4744
4584 4585
4584 4657
4584 4745
4584 4746
4585 4658
4585 4745
4585 4746
4586 4587
4586 4658
4586 4747
4586 4748
4587 4659
4587 4747
4587 4748
4588 4589
4588 4660
4588 4749
4588 4750
4589 4661
4589 4749
4589 4750
4590 4591
4590 4661
4590 4751
4590 4752
4591 4662
4591 4751
4591 4752
4592 4593
4592 4662
4592 4753
4592 4754
4593 4663
4593 4753
4593 4754
4594 4595
4594 4664
4594 4755
4594 4756
4595 4665
4595 4755
4595 4756
4596 4597
4596 4665
4596 4757
4596 4758
4597 4666
4597 4757
4597 4758
4598 4599
4598 4666
4598 4759
4598 4760
4599 4667
4599 4759
4599 4760
4600 4601
4600 4668
4600 4761
4600 4762
4601 4669
4601 4761
4601 4762
4602 4603
4602 4669
4602 4763
4602 4764
4603 4670
4603 4763
4603 4764
4604 4605
4604 4670
4604 4765
4604 4766
4605 4671
4605 4765
4605 4766
4606 4607
4606 4672
4606 4767
4606 4768
4607 4673
4607 4767
4607 4768
4608 4609
4608 4673
4609 4674
4610 4675
4611 4612
4611 4676
4612 4677
4613 4678
4613 4679
4614 4680
4614 4681
4615 4616
4615 4682
4616 4683
4617 4684
4617 4685
4618 4686
4618 4687
4619 4620
4619 4688
4620 4689
4621 4690
4621 4691
4622 4692
4622 4693
4623 4624
4623 4694
4624 4695
4625 4696
4625 4697
4626 4698
4626 4699
4627 4628
4627 4700
4628 4701
4629 4702
4629 4703
4630 4704
4630 4705
4631 4632
4631 4706
4632 4707
4633 4708
4633 4709
4634 4710
4634 4711
4635 4636
4635 4712
4636 4713
4637 4714
4637 4715
4638 4716
4638 4717
4639 4640
4639 4718
4640 4719
4641 4720
4641 4721
4642 4722
4642 4723
4643 4644
4643 4724
4644 4725
4645 4726
4645 4727
4646 4728
4646 4729
4647 4648
4647 4730
4648 4731
4649 4732
4649 4733
4650 4734
4650 4735
4651 4652
4651 4736
4652 4737
4653 4738
4653 4739
4654 4740
4654 4741
4655 4656
4655 4742
4656 4743
4657 4744
4657 4745
4658 4746
4658 4747
4659 4660
4659 4748
4660 4749
4661 4750
4661 4751
4662 4752
4662 4753
4663 4664
4663 4754
4664 4755
4665 4756
4665 4757
4666 4758
4666 4759
4667 4668
4667 4760
4668 4761
4669 4762
4669 4763
4670 4764
4670 4765
4671 4672
4671 4766
4672 4767
4673 4768
4675 4676
4675 4769
4676 4769
4677 4678
4677 4770
4678 4770
4679 4680
4679 4771
4680 4771
4681 4682
4681 4772
4682 4772
4683 4684
4683 4773
4684 4773
4685 4686
4685 4774
4686 4774
4687 4688
4687 4775
4688 4775
4689 4690
4689 4776
4690 4776
4691 4692
4691 4777
4692 4777
4693 4694
4693 4778
4694 4778
4695 4696
4695 4779
4696 4779
4697 4698
4697 4780
4698 4780
4699 4700
4699 4781
4700 4781
4701 4702
4701 4782
4702 4782
4703 4704
4703 4783
4704 4783
4705 4706
4705 4784
4706 4784
4707 4708
4707 4785
4708 4785
4709 4710
4709 4786
4710 4786
4711 4712
4711 4787
4712 4787
4713 4714
4713 4788
4714 4788
4715 4716
4715 4789
4716 4789
4717 4718
4717 4790
4718 4790
4719 4720
4719 4791
4720 4791
4721 4722
4721 4792
4722 4792
4723 4724
4723 4793
4724 4793
4725 4726
4725 4794
4726 4794
4727 4728
4727 4795
4728 4795
4729 4730
4729 4796
4730 4796
4731 4732
4731 4797
4732 4797
4733 4734
4733 4798
4734 4798
4735 4736
4735 4799
4736 4799
4737 4738
4737 4800
4738 4800
4739 4740
4739 4801
4740 4801
4741 4742
4741 4802
4742 4802
4743 4744
4743 4803
4744 4803
4745 4746
4745 4804
4746 4804
4747 4748
4747 4805
4748 4805
4749 4750
4749 4806
4750 4806
4751 4752
4751 4807
4752 4807
4753 4754
4753 4808
4754 4808
4755 4756
4755 4809
4756 4809
4757 4758
4757 4810
4758 4810
4759 4760
4759 4811
4760 4811
4761 4762
4761 4812
4762 4812
4763 4764
4763 4813
4764 4813
4765 4766
4765 4814
4766 4814
4767 4768
4767 4815
4768 4815
4769 4816
4769 4817
4770 4881
4770 4882
4771 4883
4772 4820
4772 4821
4773 4884
4773 4885
4774 4886
4775 4824
4775 4825
4776 4887
4776 4888
4777 4889
4778 4828
4778 4829
4779 4890
4779 4891
4780 4892
4781 4832
4781 4833
4782 4893
4782 4894
4783 4895
4784 4836
4784 4837
4785 4896
4785 4897
4786 4898
4787 4840
4787 4841
4788 4899
4788 4900
4789 4901
4790 4844
4790 4845
4791 4902
4791 4903
4792 4904
4793 4848
4793 4849
4794 4905
4794 4906
4795 4907
4796 4852
4796 4853
4797 4908
4797 4909
4798 4910
4799 4856
4799 4857
4800 4911
4800 4912
4801 4913
4802 4860
4802 4861
4803 4914
4803 4915
4804 4916
4805 4864
4805 4865
4806 4917
4806 4918
4807 4919
4808 4868
4808 4869
4809 4920
4809 4921
4810 4922
4811 4872
4811 4873
4812 4923
4812 4924
4813 4925
4814 4876
4814 4877
4815 4926
4815 4927
4816 4817
4816 4880
4816 4928
4816 4929
4817 4818
4817 4928
4817 4929
4818 4881
4818 4929
4818 4930
4819 4882
4819 4931
4819 4932
4820 4821
4820 4883
4820 4933
4820 4934
4821 4822
4821 4933
4821 4934
4822 4884
4822 4934
4822 4935
4823 4885
4823 4936
4823 4937
4824 4825
4824 4886
4824 4938
4824 4939
4825 4826
4825 4938
4825 4939
4826 4887
4826 4939
4826 4940
4827 4888
4827 4941
4827 4942
4828 4829
4828 4889
4828 4943
4828 4944
4829 4830
4829 4943
4829 4944
4830 4890
4830 4944
4830 4945
4831 4891
4831 4946
4831 4947
4832 4833
4832 4892
4832 4948
4832 4949
4833 4834
4833 4948
4833 4949
4834 4893
4834 4949
4834 4950
4835 4894
4835 4951
4835 4952
4836 4837
4836 4895
4836 4953
4836 4954
4837 4838
4837 4953
4837 4954
4838 4896
4838 4954
4838 4955
4839 4897
4839 4956
4839 4957
4840 4841
4840 4898
4840 4958
4840 4959
4841 4842
4841 4958
4841 4959
4842 4899
4842 4959
4842 4960
4843 4900
4843 4961
4843 4962
4844 4845
4844 4901
4844 4963
4844 4964
4845 4846
4845 4963
4845 4964
4846 4902
4846 4964
4846 4965
4847 4903
4847 4966
4847 4967
4848 4849
4848 4904
4848 4968
4848 4969
4849 4850
4849 4968
4849 4969
4850 4905
4850 4969
4850 4970
4851 4906
4851 4971
4851 4972
4852 4853
4852 4907
4852 4973
4852 4974
4853 4854
4853 4973
4853 4974
4854 4908
4854 4974
4854 4975
4855 4909
4855 4976
4855 4977
4856 4857
4856 4910
4856 4978
4856 4979
4857 4858
4857 4978
4857 4979
4858 4911
4858 4979
4858 4980
4859 4912
4859 4981
4859 4982
4860 4861
4860 4913
4860 4983
4860 4984
4861 4862
4861 4983
4861 4984
4862 4914
4862 4984
4862 4985
4863 4915
4863 4986
4863 4987
4864 4865
4864 4916
4864 4988
4864 4989
4865 4866
4865 4988
4865 4989
4866 4917
4866 4989
4866 4990
4867 4918
4867 4991
4867 4992
4868 4869
4868 4919
4868 4993
4868 4994
4869 4870
4869 4993
4869 4994
4870 4920
4870 4994
4870 4995
4871 4921
4871 4996
4871 4997
4872 4873
4872 4922
4872 4998
4872 4999
4873 4874
4873 4998
4873 4999
4874 4923
4874 4999
4874 5000
4875 4924
4875 5001
4875 5002
4876 4877
4876 4925
4876 5003
4876 5004
4877 4878
4877 5003
4877 5004
4878 4926
4878 5004
4878 5005
4879 4927
4879 5006
4879 5007
4880 4928
4881 4882
4881 4930
4881 5008
4881 5009
4882 4931
4882 5008
4882 5009
4883 4933
4884 4885
4884 4935
4884 5010
4884 5011
4885 4936
4885 5010
4885 5011
4886 4938
4887 4888
4887 4940
4887 5012
4887 5013
4888 4941
4888 5012
4888 5013
4889 4943
4890 4891
4890 4945
4890 5014
4890 5015
4891 4946
4891 5014
4891 5015
4892 4948
4893 4894
4893 4950
4893 5016
4893 5017
4894 4951
4894 5016
4894 5017
4895 4953
4896 4897
4896 4955
4896 5018
4896 5019
4897 4956
4897 5018
4897 5019
4898 4958
4899 4900
4899 4960
4899 5020
4899 5021
4900 4961
4900 5020
4900 5021
4901 4963
4902 4903
4902 4965
4902 5022
4902 5023
4903 4966
4903 5022
4903 5023
4904 4968
4905 4906
4905 4970
4905 5024
4905 5025
4906 4971
4906 5024
4906 5025
4907 4973
4908 4909
4908 4975
4908 5026
4908 5027
4909 4976
4909 5026
4909 5027
4910 4978
4911 4912
4911 4980
4911 5028
4911 5029
4912 4981
4912 5028
4912 5029
4913 4983
4914 4915
4914 4985
4914 5030
4914 5031
4915 4986
4915 5030
4915 5031
4916 4988
4917 4918
4917 4990
4917 5032
4917 5033
4918 4991
4918 5032
4918 5033
4919 4993
4920 4921
4920 4995
4920 5034
4920 5035
4921 4996
4921 5034
4921 5035
4922 4998
4923 4924
4923 5000
4923 5036
4923 5037
4924 5001
4924 5036
4924 5037
4925 5003
4926 4927
4926 5005
4926 5038
4926 5039
4927 5006
4927 5038
4927 5039
4928 4929
4928 5040
4929 5040
4930 5008
4930 5041
4931 5009
4931 5042
4932 5043
4933 4934
4933 5044
4934 5044
4935 5010
4935 5045
4936 5011
4936 5046
4937 5047
4938 4939
4938 5048
4939 5048
4940 5012
4940 5049
4941 5013
4941 5050
4942 5051
4943 4944
4943 5052
4944 5052
4945 5014
4945 5053
4946 5015
4946 5054
4947 5055
4948 4949
4948 5056
4949 5056
4950 5016
4950 5057
4951 5017
4951 5058
4952 5059
4953 4954
4953 5060
4954 5060
4955 5018
4955 5061
4956 5019
4956 5062
4957 5063
4958 4959
4958 5064
4959 5064
4960 5020
4960 5065
4961 5021
4961 5066
4962 5067
4963 4964
4963 5068
4964 5068
4965 5022
4965 5069
4966 5023
4966 5070
4967 5071
4968 4969
4968 5072
4969 5072
4970 5024
4970 5073
4971 5025
4971 5074
4972 5075
4973 4974
4973 5076
4974 5076
4975 5026
4975 5077
4976 5027
4976 5078
4977 5079
4978 4979
4978 5080
4979 5080
4980 5028
4980 5081
4981 5029
4981 5082
4982 5083
4983 4984
4983 5084
4984 5084
4985 5030
4985 5085
4986 5031
4986 5086
4987 5087
4988 4989
4988 5088
4989 5088
4990 5032
4990 5089
4991 5033
4991 5090
4992 5091
4993 4994
4993 5092
4994 5092
4995 5034
4995 5093
4996 5035
4996 5094
4997 5095
4998 4999
4998 5096
4999 5096
5000 5036
5000 5097
5001 5037
5001 5098
5002 5099
5003 5004
5003 5100
5004 5100
5005 5038
5005 5101
5006 5039
5006 5102
5007 5103
5008 5009
5008 5041
5009 5042
5010 5011
5010 5045
5011 5046
5012 5013
5012 5049
5013 5050
5014 5015
5014 5053
5015 5054
5016 5017
5016 5057
5017 5058
5018 5019
5018 5061
5019 5062
5020 5021
5020 5065
5021 5066
5022 5023
5022 5069
5023 5070
5024 5025
5024 5073
5025 5074
5026 5027
5026 5077
5027 5078
5028 5029
5028 5081
5029 5082
5030 5031
5030 5085
5031 5086
5032 5033
5032 5089
5033 5090
5034 5035
5034 5093
5035 5094
5036 5037
5036 5097
5037 5098
5038 5039
5038 5101
5039 5102
5040 5104
5040 5105
5041 5105
5042 5106
5042 5107
5043 5108
5043 5109
5044 5110
5044 5111
5045 5111
5046 5112
5046 5113
5047 5114
5047 5115
5048 5116
5048 5117
5049 5117
5050 5118
5050 5119
5051 5120
5051 5121
5052 5122
5052 5123
5053 5123
5054 5124
5054 5125
5055 5126
5055 5127
5056 5128
5056 5129
5057 5129
5058 5130
5058 5131
5059 5132
5059 5133
5060 5134
5060 5135
5061 5135
5062 5136
5062 5137
5063 5138
5063 5139
5064 5140
5064 5141
5065 5141
5066 5142
5066 5143
5067 5144
5067 5145
5068 5146
5068 5147
5069 5147
5070 5148
5070 5149
5071 5150
5071 5151
5072 5152
5072 5153
5073 5153
5074 5154
5074 5155
5075 5156
5075 5157
5076 5158
5076 5159
5077 5159
5078 5160
5078 5161
5079 5162
5079 5163
5080 5164
5080 5165
5081 5165
5082 5166
5082 5167
5083 5168
5083 5169
5084 5170
5084 5171
5085 5171
5086 5172
5086 5173
5087 5174
5087 5175
5088 5176
5088 5177
5089 5177
5090 5178
5090 5179
5091 5180
5091 5181
5092 5182
5092 5183
5093 5183
5094 5184
5094 5185
5095 5186
5095 5187
5096 5188
5096 5189
5097 5189
5098 5190
5098 5191
5099 5192
5099 5193
5100 5194
5100 5195
5101 5195
5102 5196
5102 5197
5103 5198
5103 5199
5104 5105
5104 5200
5104 5265
5104 5266
5105 5201
5105 5265
5105 5266
5106 5107
5106 5202
5106 5267
5106 5268
5107 5203
5107 5267
5107 5268
5108 5109
5108 5203
5108 5269
5108 5270
5109 5204
5109 5269
5109 5270
5110 5111
5110 5204
5110 5271
5110 5272
5111 5205
5111 5271
5111 5272
5112 5113
5112 5206
5112 5273
5112 5274
5113 5207
5113 5273
5113 5274
5114 5115
5114 5207
5114 5275
5114 5276
5115 5208
5115 5275
5115 5276
5116 5117
5116 5208
5116 5277
5116 5278
5117 5209
5117 5277
5117 5278
5118 5119
5118 5210
5118 5279
5118 5280
5119 5211
5119 5279
5119 5280
5120 5121
5120 5211
5120 5281
5120 5282
5121 5212
5121 5281
5121 5282
5122 5123
5122 5212
5122 5283
5122 5284
5123 5213
5123 5283
5123 5284
5124 5125
5124 5214
5124 5285
5124 5286
5125 5215
5125 5285
5125 5286
5126 5127
5126 5215
5126 5287
5126 5288
5127 5216
5127 5287
5127 5288
5128 5129
5128 5216
5128 5289
5128 5290
5129 5217
5129 5289
5129 5290
5130 5131
5130 5218
5130 5291
5130 5292
5131 5219
5131 5291
5131 5292
5132 5133
5132 5219
5132 5293
5132 5294
5133 5220
5133 5293
5133 5294
5134 5135
5134 5220
5134 5295
5134 5296
5135 5221
5135 5295
5135 5296
5136 5137
5136 5222
5136 5297
5136 5298
5137 5223
5137 5297
5137 5298
5138 5139
5138 5223
5138 5299
5138 5300
5139 5224
5139 5299
5139 5300
5140 5141
5140 5224
5140 5301
5140 5302
5141 5225
5141 5301
5141 5302
5142 5143
5142 5226
5142 5303
5142 5304
5143 5227
5143 5303
5143 5304
5144 5145
5144 5227
5144 5305
5144 5306
5145 5228
5145 5305
5145 5306
5146 5147
5146 5228
5146 5307
5146 5308
5147 5229
5147 5307
5147 5308
5148 5149
5148 5230
5148 5309
5148 5310
5149 5231
5149 5309
5149 5310
5150 5151
5150 5231
5150 5311
5150 5312
5151 5232
5151 5311
5151 5312
5152 5153
5152 5232
5152 5313
5152 5314
5153 5233
5153 5313
5153 5314
5154 5155
5154 5234
5154 5315
5154 5316
5155 5235
5155 5315
5155 5316
5156 5157
5156 5235
5156 5317
5156 5318
5157 5236
5157 5317
5157 5318
5158 5159
5158 5236
5158 5319
5158 5320
5159 5237
5159 5319
5159 5320
5160 5161
5160 5238
5160 5321
5160 5322
5161 5239
5161 5321
5161 5322
5162 5163
5162 5239
5162 5323
5162 5324
5163 5240
5163 5323
5163 5324
5164 5165
5164 5240
5164 5325
5164 5326
5165 5241
5165 5325
5165 5326
5166 5167
5166 5242
5166 5327
5166 5328
5167 5243
5167 5327
5167 5328
5168 5169
5168 5243
5168 5329
5168 5330
5169 5244
5169 5329
5169 5330
5170 5171
5170 5244
5170 5331
5170 5332
5171 5245
5171 5331
5171 5332
5172 5173
5172 5246
5172 5333
5172 5334
5173 5247
5173 5333
5173 5334
5174 5175
5174 5247
5174 5335
5174 5336
5175 5248
5175 5335
5175 5336
5176 5177
5176 5248
5176 5337
5176 5338
5177 5249
5177 5337
5177 5338
5178 5179
5178 5250
5178 5339
5178 5340
5179 5251
5179 5339
5179 5340
5180 5181
5180 5251
5180 5341
5180 5342
5181 5252
5181 5341
5181 5342
5182 5183
5182 5252
5182 5343
5182 5344
5183 5253
5183 5343
5183 5344
5184 5185
5184 5254
5184 5345
5184 5346
5185 5255
5185 5345
5185 5346
5186 5187
5186 5255
5186 5347
5186 5348
5187 5256
5187 5347
5187 5348
5188 5189
5188 5256
5188 5349
5188 5350
5189 5257
5189 5349
5189 5350
5190 5191
5190 5258
5190 5351
5190 5352
5191 5259
5191 5351
5191 5352
5192 5193
5192 5259
5192 5353
5192 5354
5193 5260
5193 5353
5193 5354
5194 5195
5194 5260
5194 5355
5194 5356
5195 5261
5195 5355
5195 5356
5196 5197
5196 5262
5196 5357
5196 5358
5197 5263
5197 5357
5197 5358
5198 5199
5198 5263
5199 5264
5200 5265
5201 5202
5201 5266
5202 5267
5203 5268
5203 5269
5204 5270
5204 5271
5205 5206
5205 5272
5206 5273
5207 5274
5207 5275
5208 5276
5208 5277
5209 5210
5209 5278
5210 5279
5211 5280
5211 5281
5212 5282
5212 5283
5213 5214
5213 5284
5214 5285
5215 5286
5215 5287
5216 5288
5216 5289
5217 5218
5217 5290
5218 5291
5219 5292
5219 5293
5220 5294
5220 5295
5221 5222
5221 5296
5222 5297
5223 5298
5223 5299
5224 5300
5224 5301
5225 5226
5225 5302
5226 5303
5227 5304
5227 5305
5228 5306
5228 5307
5229 5230
5229 5308
5230 5309
5231 5310
5231 5311
5232 5312
5232 5313
5233 5234
5233 5314
5234 5315
5235 5316
5235 5317
5236 5318
5236 5319
5237 5238
5237 5320
5238 5321
5239 5322
5239 5323
5240 5324
5240 5325
5241 5242
5241 5326
5242 5327
5243 5328
5243 5329
5244 5330
5244 5331
5245 5246
5245 5332
5246 5333
5247 5334
5247 5335
5248 5336
5248 5337
5249 5250
5249 5338
5250 5339
5251 5340
5251 5341
5252 5342
5252 5343
5253 5254
5253 5344
5254 5345
5255 5346
5255 5347
5256 5348
5256 5349
5257 5258
5257 5350
5258 5351
5259 5352
5259 5353
5260 5354
5260 5355
5261 5262
5261 5356
5262 5357
5263 5358
5265 5266
5265 5359
5266 5359
5267 5268
5267 5360
5268 5360
5269 5270
5269 5361
5270 5361
5271 5272
5271 5362
5272 5362
5273 5274
5273 5363
5274 5363
5275 5276
5275 5364
5276 5364
5277 5278
5277 5365
5278 5365
5279 5280
5279 5366
5280 5366
5281 5282
5281 5367
5282 5367
5283 5284
5283 5368
5284 5368
5285 5286
5285 5369
5286 5369
5287 5288
5287 5370
5288 5370
5289 5290
5289 5371
5290 5371
5291 5292
5291 5372
5292 5372
5293 5294
5293 5373
5294 5373
5295 5296
5295 5374
5296 5374
5297 5298
5297 5375
5298 5375
5299 5300
5299 5376
5300 5376
5301 5302
5301 5377
5302 5377
5303 5304
5303 5378
5304 5378
5305 5306
5305 5379
5306 5379
5307 5308
5307 5380
5308 5380
5309 5310
5309 5381
5310 5381
5311 5312
5311 5382
5312 5382
5313 5314
5313 5383
5314 5383
5315 5316
5315 5384
5316 5384
5317 5318
5317 5385
5318 5385
5319 5320
5319 5386
5320 5386
5321 5322
5321 5387
5322 5387
5323 5324
5323 5388
5324 5388
5325 5326
5325 5389
5326 5389
5327 5328
5327 5390
5328 5390
5329 5330
5329 5391
5330 5391
5331 5332
5331 5392
5332 5392
5333 5334
5333 5393
5334 5393
5335 5336
5335 5394
5336 5394
5337 5338
5337 5395
5338 5395
5339 5340
5339 5396
5340 5396
5341 5342
5341 5397
5342 5397
5343 5344
5343 5398
5344 5398
5345 5346
5345 5399
5346 5399
5347 5348
5347 5400
5348 5400
5349 5350
5349 5401
5350 5401
5351 5352
5351 5402
5352 5402
5353 5354
5353 5403
5354 5403
5355 5356
5355 5404
5356 5404
5357 5358
5357 5405
5358 5405
5359 5406
5359 5407
5360 5471
5360 5472
5361 5473
5362 5410
5362 5411
5363 5474
5363 5475
5364 5476
5365 5414
5365 5415
5366 5477
5366 5478
5367 5479
5368 5418
5368 5419
5369 5480
5369 5481
5370 5482
5371 5422
5371 5423
5372 5483
5372 5484
5373 5485
5374 5426
5374 5427
5375 5486
5375 5487
5376 5488
5377 5430
5377 5431
5378 5489
5378 5490
5379 5491
5380 5434
5380 5435
5381 5492
5381 5493
5382 5494
5383 5438
5383 5439
5384 5495
5384 5496
5385 5497
5386 5442
5386 5443
5387 5498
5387 5499
5388 5500
5389 5446
5389 5447
5390 5501
5390 5502
5391 5503
5392 5450
5392 5451
5393 5504
5393 5505
5394 5506
5395 5454
5395 5455
5396 5507
5396 5508
5397 5509
5398 5458
5398 5459
5399 5510
5399 5511
5400 5512
5401 5462
5401 5463
5402 5513
5402 5514
5403 5515
5404 5466
5404 5467
5405 5516
5405 5517
5406 5407
5406 5470
5406 5518
5406 5519
5407 5408
5407 5518
5407 5519
5408 5471
5408 5519
5408 5520
5409 5472
5409 5521
5409 5522
5410 5411
5410 5473
5410 5523
5410 5524
5411 5412
5411 5523
5411 5524
5412 5474
5412 5524
5412 5525
5413 5475
5413 5526
5413 5527
5414 5415
5414 5476
5414 5528
5414 5529
5415 5416
5415 5528
5415 5529
5416 5477
5416 5529
5416 5530
5417 5478
5417 5531
5417 5532
5418 5419
5418 5479
5418 5533
5418 5534
5419 5420
5419 5533
5419 5534
5420 5480
5420 5534
5420 5535
5421 5481
5421 5536
5421 5537
5422 5423
5422 5482
5422 5538
5422 5539
5423 5424
5423 5538
5423 5539
5424 5483
5424 5539
5424 5540
5425 5484
5425 5541
5425 5542
5426 5427
5426 5485
5426 5543
5426 5544
5427 5428
5427 5543
5427 5544
5428 5486
5428 5544
5428 5545
5429 5487
5429 5546
5429 5547
5430 5431
5430 5488
5430 5548
5430 5549
5431 5432
5431 5548
5431 5549
5432 5489
5432 5549
5432 5550
5433 5490
5433 5551
5433 5552
5434 5435
5434 5491
5434 5553
5434 5554
5435 5436
5435 5553
5435 5554
5436 5492
5436 5554
5436 5555
5437 5493
5437 5556
5437 5557
5438 5439
5438 5494
5438 5558
5438 5559
5439 5440
5439 5558
5439 5559
5440 5495
5440 5559
5440 5560
5441 5496
5441 5561
5441 5562
5442 5443
5442 5497
5442 5563
5442 5564
5443 5444
5443 5563
5443 5564
5444 5498
5444 5564
5444 5565
5445 5499
5445 5566
5445 5567
5446 5447
5446 5500
5446 5568
5446 5569
5447 5448
5447 5568
5447 5569
5448 5501
5448 5569
5448 5570
5449 5502
5449 5571
5449 5572
5450 5451
5450 5503
5450 5573
5450 5574
5451 5452
5451 5573
5451 5574
5452 5504
5452 5574
5452 5575
5453 5505
5453 5576
5453 5577
5454 5455
5454 5506
5454 5578
5454 5579
5455 5456
5455 5578
5455 5579
5456 5507
5456 5579
5456 5580
5457 5508
5457 5581
5457 5582
5458 5459
5458 5509
5458 5583
5458 5584
5459 5460
5459 5583
5459 5584
5460 5510
5460 5584
5460 5585
5461 5511
5461 5586
5461 5587
5462 5463
5462 5512
5462 5588
5462 5589
5463 5464
5463 5588
5463 5589
5464 5513
5464 5589
5464 5590
5465 5514
5465 5591
5465 5592
5466 5467
5466 5515
5466 5593
5466 5594
5467 5468
5467 5593
5467 5594
5468 5516
5468 5594
5468 5595
5469 5517
5469 5596
5469 5597
5470 5518
5471 5472
5471 5520
5471 5598
5471 5599
5472 5521
5472 5598
5472 5599
5473 5523
5474 5475
5474 5525
5474 5600
5474 5601
5475 5526
5475 5600
5475 5601
5476 5528
5477 5478
5477 5530
5477 5602
5477 5603
5478 5531
5478 5602
5478 5603
5479 5533
5480 5481
5480 5535
5480 5604
5480 5605
5481 5536
5481 5604
5481 5605
5482 5538
5483 5484
5483 5540
5483 5606
5483 5607
5484 5541
5484 5606
5484 5607
5485 5543
5486 5487
5486 5545
5486 5608
5486 5609
5487 5546
5487 5608
5487 5609
5488 5548
5489 5490
5489 5550
5489 5610
5489 5611
5490 5551
5490 5610
5490 5611
5491 5553
5492 5493
5492 5555
5492 5612
5492 5613
5493 5556
5493 5612
5493 5613
5494 5558
5495 5496
5495 5560
5495 5614
5495 5615
5496 5561
5496 5614
5496 5615
5497 5563
5498 5499
5498 5565
5498 5616
5498 5617
5499 5566
5499 5616
5499 5617
5500 5568
5501 5502
5501 5570
5501 5618
5501 5619
5502 5571
5502 5618
5502 5619
5503 5573
5504 5505
5504 5575
5504 5620
5504 5621
5505 5576
5505 5620
5505 5621
5506 5578
5507 5508
5507 5580
5507 5622
5507 5623
5508 5581
5508 5622
5508 5623
5509 5583
5510 5511
5510 5585
5510 5624
5510 5625
5511 5586
5511 5624
5511 5625
5512 5588
5513 5514
5513 5590
5513 5626
5513 5627
5514 5591
5514 5626
5514 5627
5515 5593
5516 5517
5516 5595
5516 5628
5516 5629
5517 5596
5517 5628
5517 5629
5518 5519
5518 5630
5519 5630
5520 5598
5520 5631
5521 5599
5521 5632
5522 5633
5523 5524
5523 5634
5524 5634
5525 5600
5525 5635
5526 5601
5526 5636
5527 5637
5528 5529
5528 5638
5529 5638
5530 5602
5530 5639
5531 5603
5531 5640
5532 5641
5533 5534
5533 5642
5534 5642
5535 5604
5535 5643
5536 5605
5536 5644
5537 5645
5538 5539
5538 5646
5539 5646
5540 5606
5540 5647
5541 5607
5541 5648
5542 5649
5543 5544
5543 5650
5544 5650
5545 5608
5545 5651
5546 5609
5546 5652
5547 5653
5548 5549
5548 5654
5549 5654
5550 5610
5550 5655
5551 5611
5551 5656
5552 5657
5553 5554
5553 5658
5554 5658
5555 5612
5555 5659
5556 5613
5556 5660
5557 5661
5558 5559
5558 5662
5559 5662
5560 5614
5560 5663
5561 5615
5561 5664
5562 5665
5563 5564
5563 5666
5564 5666
5565 5616
5565 5667
5566 5617
5566 5668
5567 5669
5568 5569
5568 5670
5569 5670
5570 5618
5570 5671
5571 5619
5571 5672
5572 5673
5573 5574
5573 5674
5574 5674
5575 5620
5575 5675
5576 5621
5576 5676
5577 5677
5578 5579
5578 5678
5579 5678
5580 5622
5580 5679
5581 5623
5581 5680
5582 5681
5583 5584
5583 5682
5584 5682
5585 5624
5585 5683
5586 5625
5586 5684
5587 5685
5588 5589
5588 5686
5589 5686
5590 5626
5590 5687
5591 5627
5591 5688
5592 5689
5593 5594
5593 5690
5594 5690
5595 5628
5595 5691
5596 5629
5596 5692
5597 5693
5598 5599
5598 5631
5599 5632
5600 5601
5600 5635
5601 5636
5602 5603
5602 5639
5603 5640
5604 5605
5604 5643
5605 5644
5606 5607
5606 5647
5607 5648
5608 5609
5608 5651
5609 5652
5610 5611
5610 5655
5611 5656
5612 5613
5612 5659
5613 5660
5614 5615
5614 5663
5615 5664
5616 5617
5616 5667
5617 5668
5618 5619
5618 5671
5619 5672
5620 5621
5620 5675
5621 5676
5622 5623
5622 5679
5623 5680
5624 5625
5624 5683
5625 5684
5626 5627
5626 5687
5627 5688
5628 5629
5628 5691
5629 5692
5630 5694
5630 5695
5631 5695
5632 5696
5632 5697
5633 5698
5633 5699
5634 5700
5634 5701
5635 5701
5636 5702
5636 5703
5637 5704
5637 5705
5638 5706
5638 5707
5639 5707
5640 5708
5640 5709
5641 5710
5641 5711
5642 5712
5642 5713
5643 5713
5644 5714
5644 5715
5645 5716
5645 5717
5646 5718
5646 5719
5647 5719
5648 5720
5648 5721
5649 5722
5649 5723
5650 5724
5650 5725
5651 5725
5652 5726
5652 5727
5653 5728
5653 5729
5654 5730
5654 5731
5655 5731
5656 5732
5656 5733
5657 5734
5657 5735
5658 5736
5658 5737
5659 5737
5660 5738
5660 5739
5661 5740
5661 5741
5662 5742
5662 5743
5663 5743
5664 5744
5664 5745
5665 5746
5665 5747
5666 5748
5666 5749
5667 5749
5668 5750
5668 5751
5669 5752
5669 5753
5670 5754
5670 5755
5671 5755
5672 5756
5672 5757
5673 5758
5673 5759
5674 5760
5674 5761
5675 5761
5676 5762
5676 5763
5677 5764
5677 5765
5678 5766
5678 5767
5679 5767
5680 5768
5680 5769
5681 5770
5681 5771
5682 5772
5682 5773
5683 5773
5684 5774
5684 5775
5685 5776
5685 5777
5686 5778
5686 5779
5687 5779
5688 5780
5688 5781
5689 5782
5689 5783
5690 5784
5690 5785
5691 5785
5692 5786
5692 5787
5693 5788
5693 5789
5694 5695
5694 5790
5694 5855
5694 5856
5695 5791
5695 5855
5695 5856
5696 5697
5696 5792
5696 5857
5696 5858
5697 5793
5697 5857
5697 5858
5698 5699
5698 5793
5698 5859
5698 5860
5699 5794
5699 5859
5699 5860
5700 5701
5700 5794
5700 5861
5700 5862
5701 5795
5701 5861
5701 5862
5702 5703
5702 5796
5702 5863
5702 5864
5703 5797
5703 5863
5703 5864
5704 5705
5704 5797
5704 5865
5704 5866
5705 5798
5705 5865
5705 5866
5706 5707
5706 5798
5706 5867
5706 5868
5707 5799
5707 5867
5707 5868
5708 5709
5708 5800
5708 5869
5708 5870
5709 5801
5709 5869
5709 5870
5710 5711
5710 5801
5710 5871
5710 5872
5711 5802
5711 5871
5711 5872
5712 5713
5712 5802
5712 5873
5712 5874
5713 5803
5713 5873
5713 5874
5714 5715
5714 5804
5714 5875
5714 5876
5715 5805
5715 5875
5715 5876
5716 5717
5716 5805
5716 5877
5716 5878
5717 5806
5717 5877
5717 5878
5718 5719
5718 5806
5718 5879
5718 5880
5719 5807
5719 5879
5719 5880
5720 5721
5720 5808
5720 5881
5720 5882
5721 5809
5721 5881
5721 5882
5722 5723
5722 5809
5722 5883
5722 5884
5723 5810
5723 5883
5723 5884
5724 5725
5724 5810
5724 5885
5724 5886
5725 5811
5725 5885
5725 5886
5726 5727
5726 5812
5726 5887
5726 5888
5727 5813
5727 5887
5727 5888
5728 5729
5728 5813
5728 5889
5728 5890
5729 5814
5729 5889
5729 5890
5730 5731
5730 5814
5730 5891
5730 5892
5731 5815
5731 5891
5731 5892
5732 5733
5732 5816
5732 5893
5732 5894
5733 5817
5733 5893
5733 5894
5734 5735
5734 5817
5734 5895
5734 5896
5735 5818
5735 5895
5735 5896
5736 5737
5736 5818
5736 5897
5736 5898
5737 5819
5737 5897
5737 5898
5738 5739
5738 5820
5738 5899
5738 5900
5739 5821
5739 5899
5739 5900
5740 5741
5740 5821
5740 5901
5740 5902
5741 5822
5741 5901
5741 5902
5742 5743
5742 5822
5742 5903
5742 5904
5743 5823
5743 5903
5743 5904
5744 5745
5744 5824
5744 5905
5744 5906
5745 5825
5745 5905
5745 5906
5746 5747
5746 5825
5746 5907
5746 5908
5747 5826
5747 5907
5747 5908
5748 5749
5748 5826
5748 5909
5748 5910
5749 5827
5749 5909
5749 5910
5750 5751
5750 5828
5750 5911
5750 5912
5751 5829
5751 5911
5751 5912
5752 5753
5752 5829
5752 5913
5752 5914
5753 5830
5753 5913
5753 5914
5754 5755
5754 5830
5754 5915
5754 5916
5755 5831
5755 5915
5755 5916
5756 5757
5756 5832
5756 5917
5756 5918
5757 5833
5757 5917
5757 5918
5758 5759
5758 5833
5758 5919
5758 5920
5759 5834
5759 5919
5759 5920
5760 5761
5760 5834
5760 5921
5760 5922
5761 5835
5761 5921
5761 5922
5762 5763
5762 5836
5762 5923
5762 5924
5763 5837
5763 5923
5763 5924
5764 5765
5764 5837
5764 5925
5764 5926
5765 5838
5765 5925
5765 5926
5766 5767
5766 5838
5766 5927
5766 5928
5767 5839
5767 5927
5767 5928
5768 5769
5768 5840
5768 5929
5768 5930
5769 5841
5769 5929
5769 5930
5770 5771
5770 5841
5770 5931
5770 5932
5771 5842
5771 5931
5771 5932
5772 5773
5772 5842
5772 5933
5772 5934
5773 5843
5773 5933
5773 5934
5774 5775
5774 5844
5774 5935
5774 5936
5775 5845
5775 5935
5775 5936
5776 5777
5776 5845
5776 5937
5776 5938
5777 5846
5777 5937
5777 5938
5778 5779
5778 5846
5778 5939
5778 5940
5779 5847
5779 5939
5779 5940
5780 5781
5780 5848
5780 5941
5780 5942
5781 5849
5781 5941
5781 5942
5782 5783
5782 5849
5782 5943
5782 5944
5783 5850
5783 5943
5783 5944
5784 5785
5784 5850
5784 5945
5784 5946
5785 5851
5785 5945
5785 5946
5786 5787
5786 5852
5786 5947
5786 5948
5787 5853
5787 5947
5787 5948
5788 5789
5788 5853
5789 5854
5790 5855
5791 5792
5791 5856
5792 5857
5793 5858
5793 5859
5794 5860
5794 5861
5795 5796
5795 5862
5796 5863
5797 5864
5797 5865
5798 5866
5798 5867
5799 5800
5799 5868
5800 5869
5801 5870
5801 5871
5802 5872
5802 5873
5803 5804
5803 5874
5804 5875
5805 5876
5805 5877
5806 5878
5806 5879
5807 5808
5807 5880
5808 5881
5809 5882
5809 5883
5810 5884
5810 5885
5811 5812
5811 5886
5812 5887
5813 5888
5813 5889
5814 5890
5814 5891
5815 5816
5815 5892
5816 5893
5817 5894
5817 5895
5818 5896
5818 5897
5819 5820
5819 5898
5820 5899
5821 5900
5821 5901
5822 5902
5822 5903
5823 5824
5823 5904
5824 5905
5825 5906
5825 5907
5826 5908
5826 5909
5827 5828
5827 5910
5828 5911
5829 5912
5829 5913
5830 5914
5830 5915
5831 5832
5831 5916
5832 5917
5833 5918
5833 5919
5834 5920
5834 5921
5835 5836
5835 5922
5836 5923
5837 5924
5837 5925
5838 5926
5838 5927
5839 5840
5839 5928
5840 5929
5841 5930
5841 5931
5842 5932
5842 5933
5843 5844
5843 5934
5844 5935
5845 5936
5845 5937
5846 5938
5846 5939
5847 5848
5847 5940
5848 5941
5849 5942
5849 5943
5850 5944
5850 5945
5851 5852
5851 5946
5852 5947
5853 5948
5855 5856
5855 5949
5856 5949
5857 5858
5857 5950
5858 5950
5859 5860
5859 5951
5860 5951
5861 5862
5861 5952
5862 5952
5863 5864
5863 5953
5864 5953
5865 5866
5865 5954
5866 5954
5867 5868
5867 5955
5868 5955
5869 5870
5869 5956
5870 5956
5871 5872
5871 5957
5872 5957
5873 5874
5873 5958
5874 5958
5875 5876
5875 5959
5876 5959
5877 5878
5877 5960
5878 5960
5879 5880
5879 5961
5880 5961
5881 5882
5881 5962
5882 5962
5883 5884
5883 5963
5884 5963
5885 5886
5885 5964
5886 5964
5887 5888
5887 5965
5888 5965
5889 5890
5889 5966
5890 5966
5891 5892
5891 5967
5892 5967
5893 5894
5893 5968
5894 5968
5895 5896
5895 5969
5896 5969
5897 5898
5897 5970
5898 5970
5899 5900
5899 5971
5900 5971
5901 5902
5901 5972
5902 5972
5903 5904
5903 5973
5904 5973
5905 5906
5905 5974
5906 5974
5907 5908
5907 5975
5908 5975
5909 5910
5909 5976
5910 5976
5911 5912
5911 5977
5912 5977
5913 5914
5913 5978
5914 5978
5915 5916
5915 5979
5916 5979
5917 5918
5917 5980
5918 5980
5919 5920
5919 5981
5920 5981
5921 5922
5921 5982
5922 5982
5923 5924
5923 5983
5924 5983
5925 5926
5925 5984
5926 5984
5927 5928
5927 5985
5928 5985
5929 5930
5929 5986
5930 5986
5931 5932
5931 5987
5932 5987
5933 5934
5933 5988
5934 5988
5935 5936
5935 5989
5936 5989
5937 5938
5937 5990
5938 5990
5939 5940
5939 5991
5940 5991
5941 5942
5941 5992
5942 5992
5943 5944
5943 5993
5944 5993
5945 5946
5945 5994
5946 5994
5947 5948
5947 5995
5948 5995
5949 5996
5949 5997
5950 6061
5950 6062
5951 6063
5952 6000
5952 6001
5953 6064
5953 6065
5954 6066
5955 6004
5955 6005
5956 6067
5956 6068
5957 6069
5958 6008
5958 6009
5959 6070
5959 6071
5960 6072
5961 6012
5961 6013
5962 6073
5962 6074
5963 6075
5964 6016
5964 6017
5965 6076
5965 6077
5966 6078
5967 6020
5967 6021
5968 6079
5968 6080
5969 6081
5970 6024
5970 6025
5971 6082
5971 6083
5972 6084
5973 6028
5973 6029
5974 6085
5974 6086
5975 6087
5976 6032
5976 6033
5977 6088
5977 6089
5978 6090
5979 6036
5979 6037
5980 6091
5980 6092
5981 6093
5982 6040
5982 6041
5983 6094
5983 6095
5984 6096
5985 6044
5985 6045
5986 6097
5986 6098
5987 6099
5988 6048
5988 6049
5989 6100
5989 6101
5990 6102
5991 6052
5991 6053
5992 6103
5992 6104
5993 6105
5994 6056
5994 6057
5995 6106
5995 6107
5996 5997
5996 6060
5996 6108
5996 6109
5997 5998
5997 6108
5997 6109
5998 6061
5998 6109
5998 6110
5999 6062
5999 6111
5999 6112
6000 6001
6000 6063
6000 6113
6000 6114
6001 6002
6001 6113
6001 6114
6002 6064
6002 6114
6002 6115
6003 6065
6003 6116
6003 6117
6004 6005
6004 6066
6004 6118
6004 6119
6005 6006
6005 6118
6005 6119
6006 6067
6006 6119
6006 6120
6007 6068
6007 6121
6007 6122
6008 6009
6008 6069
6008 6123
6008 6124
6009 6010
6009 6123
6009 6124
6010 6070
6010 6124
6010 6125
6011 6071
6011 6126
6011 6127
6012 6013
6012 6072
6012 6128
6012 6129
6013 6014
6013 6128
6013 6129
6014 6073
6014 6129
6014 6130
6015 6074
6015 6131
6015 6132
6016 6017
6016 6075
6016 6133
6016 6134
6017 6018
6017 6133
6017 6134
6018 6076
6018 6134
6018 6135
6019 6077
6019 6136
6019 6137
6020 6021
6020 6078
6020 6138
6020 6139
6021 6022
6021 6138
6021 6139
6022 6079
6022 6139
6022 6140
6023 6080
6023 6141
6023 6142
6024 6025
6024 6081
6024 6143
6024 6144
6025 6026
6025 6143
6025 6144
6026 6082
6026 6144
6026 6145
6027 6083
6027 6146
6027 6147
6028 6029
6028 6084
6028 6148
6028 6149
6029 6030
6029 6148
6029 6149
6030 6085
6030 6149
6030 6150
6031 6086
6031 6151
6031 6152
6032 6033
6032 6087
6032 6153
6032 6154
6033 6034
6033 6153
6033 6154
6034 6088
6034 6154
6034 6155
6035 6089
6035 6156
6035 6157
6036 6037
6036 6090
6036 6158
6036 6159
6037 6038
6037 6158
6037 6159
6038 6091
6038 6159
6038 6160
6039 6092
6039 6161
6039 6162
6040 6041
6040 6093
6040 6163
6040 6164
6041 6042
6041 6163
6041 6164
6042 6094
6042 6164
6042 6165
6043 6095
6043 6166
6043 6167
6044 6045
6044 6096
6044 6168
6044 6169
6045 6046
6045 6168
6045 6169
6046 6097
6046 6169
6046 6170
6047 6098
6047 6171
6047 6172
6048 6049
6048 6099
6048 6173
6048 6174
6049 6050
6049 6173
6049 6174
6050 6100
6050 6174
6050 6175
6051 6101
6051 6176
6051 6177
6052 6053
6052 6102
6052 6178
6052 6179
6053 6054
6053 6178
6053 6179
6054 6103
6054 6179
6054 6180
6055 6104
6055 6181
6055 6182
6056 6057
6056 6105
6056 6183
6056 6184
6057 6058
6057 6183
6057 6184
6058 6106
6058 6184
6058 6185
6059 6107
6059 6186
6059 6187
6060 6108
6061 6062
6061 6110
6061 6188
6061 6189
6062 6111
6062 6188
6062 6189
6063 6113
6064 6065
6064 6115
6064 6190
6064 6191
6065 6116
6065 6190
6065 6191
6066 6118
6067 6068
6067 6120
6067 6192
6067 6193
6068 6121
6068 6192
6068 6193
6069 6123
6070 6071
6070 6125
6070 6194
6070 6195
6071 6126
6071 6194
6071 6195
6072 6128
6073 6074
6073 6130
6073 6196
6073 6197
6074 6131
6074 6196
6074 6197
6075 6133
6076 6077
6076 6135
6076 6198
6076 6199
6077 6136
6077 6198
6077 6199
6078 6138
6079 6080
6079 6140
6079 6200
6079 6201
6080 6141
6080 6200
6080 6201
6081 6143
6082 6083
6082 6145
6082 6202
6082 6203
6083 6146
6083 6202
6083 6203
6084 6148
6085 6086
6085 6150
6085 6204
6085 6205
6086 6151
6086 6204
6086 6205
6087 6153
6088 6089
6088 6155
6088 6206
6088 6207
6089 6156
6089 6206
6089 6207
6090 6158
6091 6092
6091 6160
6091 6208
6091 6209
6092 6161
6092 6208
6092 6209
6093 6163
6094 6095
6094 6165
6094 6210
6094 6211
6095 6166
6095 6210
6095 6211
6096 6168
6097 6098
6097 6170
6097 6212
6097 6213
6098 6171
6098 6212
6098 6213
6099 6173
6100 6101
6100 6175
6100 6214
6100 6215
6101 6176
6101 6214
6101 6215
6102 6178
6103 6104
6103 6180
6103 6216
6103 6217
6104 6181
6104 6216
6104 6217
6105 6183
6106 6107
6106 6185
6106 6218
6106 6219
6107 6186
6107 6218
6107 6219
6108 6109
6108 6220
6109 6220
6110 6188
6110 6221
6111 6189
6111 6222
6112 6223
6113 6114
6113 6224
6114 6224
6115 6190
6115 6225
6116 6191
6116 6226
6117 6227
6118 6119
6118 6228
6119 6228
6120 6192
6120 6229
6121 6193
6121 6230
6122 6231
6123 6124
6123 6232
6124 6232
6125 6194
6125 6233
6126 6195
6126 6234
6127 6235
6128 6129
6128 6236
6129 6236
6130 6196
6130 6237
6131 6197
6131 6238
6132 6239
6133 6134
6133 6240
6134 6240
6135 6198
6135 6241
6136 6199
6136 6242
6137 6243
6138 6139
6138 6244
6139 6244
6140 6200
6140 6245
6141 6201
6141 6246
6142 6247
6143 6144
6143 6248
6144 6248
6145 6202
6145 6249
6146 6203
6146 6250
6147 6251
6148 6149
6148 6252
6149 6252
6150 6204
6150 6253
6151 6205
6151 6254
6152 6255
6153 6154
6153 6256
6154 6256
6155 6206
6155 6257
6156 6207
6156 6258
6157 6259
6158 6159
6158 6260
6159 6260
6160 6208
6160 6261
6161 6209
6161 6262
6162 6263
6163 6164
6163 6264
6164 6264
6165 6210
6165 6265
6166 6211
6166 6266
6167 6267
6168 6169
6168 6268
6169 6268
6170 6212
6170 6269
6171 6213
6171 6270
6172 6271
6173 6174
6173 6272
6174 6272
6175 6214
6175 6273
6176 6215
6176 6274
6177 6275
6178 6179
6178 6276
6179 6276
6180 6216
6180 6277
6181 6217
6181 6278
6182 6279
6183 6184
6183 6280
6184 6280
6185 6218
6185 6281
6186 6219
6186 6282
6187 6283
6188 6189
6188 6221
6189 6222
6190 6191
6190 6225
6191 6226
6192 6193
6192 6229
6193 6230
6194 6195
6194 6233
6195 6234
6196 6197
6196 6237
6197 6238
6198 6199
6198 6241
6199 6242
6200 6201
6200 6245
6201 6246
6202 6203
6202 6249
6203 6250
6204 6205
6204 6253
6205 6254
6206 6207
6206 6257
6207 6258
6208 6209
6208 6261
6209 6262
6210 6211
6210 6265
6211 6266
6212 6213
6212 6269
6213 6270
6214 6215
6214 6273
6215 6274
6216 6217
6216 6277
6217 6278
6218 6219
6218 6281
6219 6282
6220 6284
6220 6285
6221 6285
6222 6286
6222 6287
6223 6288
6223 6289
6224 6290
6224 6291
6225 6291
6226 6292
6226 6293
6227 6294
6227 6295
6228 6296
6228 6297
6229 6297
6230 6298
6230 6299
6231 6300
6231 6301
6232 6302
6232 6303
6233 6303
6234 6304
6234 6305
6235 6306
6235 6307
6236 6308
6236 6309
6237 6309
6238 6310
6238 6311
6239 6312
6239 6313
6240 6314
6240 6315
6241 6315
6242 6316
6242 6317
6243 6318
6243 6319
6244 6320
6244 6321
6245 6321
6246 6322
6246 6323
6247 6324
6247 6325
6248 6326
6248 6327
6249 6327
6250 6328
6250 6329
6251 6330
6251 6331
6252 6332
6252 6333
6253 6333
6254 6334
6254 6335
6255 6336
6255 6337
6256 6338
6256 6339
6257 6339
6258 6340
6258 6341
6259 6342
6259 6343
6260 6344
6260 6345
6261 6345
6262 6346
6262 6347
6263 6348
6263 6349
6264 6350
6264 6351
6265 6351
6266 6352
6266 6353
6267 6354
6267 6355
6268 6356
6268 6357
6269 6357
6270 6358
6270 6359
6271 6360
6271 6361
6272 6362
6272 6363
6273 6363
6274 6364
6274 6365
6275 6366
6275 6367
6276 6368
6276 6369
6277 6369
6278 6370
6278 6371
6279 6372
6279 6373
6280 6374
6280 6375
6281 6375
6282 6376
6282 6377
6283 6378
6283 6379
6284 6285
6284 6380
6284 6445
6284 6446
6285 6381
6285 6445
6285 6446
6286 6287
6286 6382
6286 6447
6286 6448
6287 6383
6287 6447
6287 6448
6288 6289
6288 6383
6288 6449
6288 6450
6289 6384
6289 6449
6289 6450
6290 6291
6290 6384
6290 6451
6290 6452
6291 6385
6291 6451
6291 6452
6292 6293
6292 6386
6292 6453
6292 6454
6293 6387
6293 6453
6293 6454
6294 6295
6294 6387
6294 6455
6294 6456
6295 6388
6295 6455
6295 6456
6296 6297
6296 6388
6296 6457
6296 6458
6297 6389
6297 6457
6297 6458
6298 6299
6298 6390
6298 6459
6298 6460
6299 6391
6299 6459
6299 6460
6300 6301
6300 6391
6300 6461
6300 6462
6301 6392
6301 6461
6301 6462
6302 6303
6302 6392
6302 6463
6302 6464
6303 6393
6303 6463
6303 6464
6304 6305
6304 6394
6304 6465
6304 6466
6305 6395
6305 6465
6305 6466
6306 6307
6306 6395
6306 6467
6306 6468
6307 6396
6307 6467
6307 6468
6308 6309
6308 6396
6308 6469
6308 6470
6309 6397
6309 6469
6309 6470
6310 6311
6310 6398
6310 6471
6310 6472
6311 6399
6311 6471
6311 6472
6312 6313
6312 6399
6312 6473
6312 6474
6313 6400
6313 6473
6313 6474
6314 6315
6314 6400
6314 6475
6314 6476
6315 6401
6315 6475
6315 6476
6316 6317
6316 6402
6316 6477
6316 6478
6317 6403
6317 6477
6317 6478
6318 6319
6318 6403
6318 6479
6318 6480
6319 6404
6319 6479
6319 6480
6320 6321
6320 6404
6320 6481
6320 6482
6321 6405
6321 6481
6321 6482
6322 6323
6322 6406
6322 6483
6322 6484
6323 6407
6323 6483
6323 6484
6324 6325
6324 6407
6324 6485
6324 6486
6325 6408
6325 6485
6325 6486
6326 6327
6326 6408
6326 6487
6326 6488
6327 6409
6327 6487
6327 6488
6328 6329
6328 6410
6328 6489
6328 6490
6329 6411
6329 6489
6329 6490
6330 6331
6330 6411
6330 6491
6330 6492
6331 6412
6331 6491
6331 6492
6332 6333
6332 6412
6332 6493
6332 6494
6333 6413
6333 6493
6333 6494
6334 6335
6334 6414
6334 6495
6334 6496
6335 6415
6335 6495
6335 6496
6336 6337
6336 6415
6336 6497
6336 6498
6337 6416
6337 6497
6337 6498
6338 6339
6338 6416
6338 6499
6338 6500
6339 6417
6339 6499
6339 6500
6340 6341
6340 6418
6340 6501
6340 6502
6341 6419
6341 6501
6341 6502
6342 6343
6342 6419
6342 6503
6342 6504
6343 6420
6343 6503
6343 6504
6344 6345
6344 6420
6344 6505
6344 6506
6345 6421
6345 6505
6345 6506
6346 6347
6346 6422
6346 6507
6346 6508
6347 6423
6347 6507
6347 6508
6348 6349
6348 6423
6348 6509
6348 6510
6349 6424
6349 6509
6349 6510
6350 6351
6350 6424
6350 6511
6350 6512
6351 6425
6351 6511
6351 6512
6352 6353
6352 6426
6352 6513
6352 6514
6353 6427
6353 6513
6353 6514
6354 6355
6354 6427
6354 6515
6354 6516
6355 6428
6355 6515
6355 6516
6356 6357
6356 6428
6356 6517
6356 6518
6357 6429
6357 6517
6357 6518
6358 6359
6358 6430
6358 6519
6358 6520
6359 6431
6359 6519
6359 6520
6360 6361
6360 6431
6360 6521
6360 6522
6361 6432
6361 6521
6361 6522
6362 6363
6362 6432
6362 6523
6362 6524
6363 6433
6363 6523
6363 6524
6364 6365
6364 6434
6364 6525
6364 6526
6365 6435
6365 6525
6365 6526
6366 6367
6366 6435
6366 6527
6366 6528
6367 6436
6367 6527
6367 6528
6368 6369
6368 6436
6368 6529
6368 6530
6369 6437
6369 6529
6369 6530
6370 6371
6370 6438
6370 6531
6370 6532
6371 6439
6371 6531
6371 6532
6372 6373
6372 6439
6372 6533
6372 6534
6373 6440
6373 6533
6373 6534
6374 6375
6374 6440
6374 6535
6374 6536
6375 6441
6375 6535
6375 6536
6376 6377
6376 6442
6376 6537
6376 6538
6377 6443
6377 6537
6377 6538
6378 6379
6378 6443
6378 6539
6378 6540
6379 6444
6379 6539
6379 6540
6380 6445
6381 6382
6381 6446
6382 6447
6383 6448
6383 6449
6384 6450
6384 6451
6385 6386
6385 6452
6386 6453
6387 6454
6387 6455
6388 6456
6388 6457
6389 6390
6389 6458
6390 6459
6391 6460
6391 6461
6392 6462
6392 6463
6393 6394
6393 6464
6394 6465
6395 6466
6395 6467
6396 6468
6396 6469
6397 6398
6397 6470
6398 6471
6399 6472
6399 6473
6400 6474
6400 6475
6401 6402
6401 6476
6402 6477
6403 6478
6403 6479
6404 6480
6404 6481
6405 6406
6405 6482
6406 6483
6407 6484
6407 6485
6408 6486
6408 6487
6409 6410
6409 6488
6410 6489
6411 6490
6411 6491
6412 6492
6412 6493
6413 6414
6413 6494
6414 6495
6415 6496
6415 6497
6416 6498
6416 6499
6417 6418
6417 6500
6418 6501
6419 6502
6419 6503
6420 6504
6420 6505
6421 6422
6421 6506
6422 6507
6423 6508
6423 6509
6424 6510
6424 6511
6425 6426
6425 6512
6426 6513
6427 6514
6427 6515
6428 6516
6428 6517
6429 6430
6429 6518
6430 6519
6431 6520
6431 6521
6432 6522
6432 6523
6433 6434
6433 6524
6434 6525
6435 6526
6435 6527
6436 6528
6436 6529
6437 6438
6437 6530
6438 6531
6439 6532
6439 6533
6440 6534
6440 6535
6441 6442
6441 6536
6442 6537
6443 6538
6443 6539
6444 6540
6445 6446
6445 6541
6446 6541
6447 6448
6447 6542
6448 6542
6449 6450
6449 6543
6450 6543
6451 6452
6451 6544
6452 6544
6453 6454
6453 6545
6454 6545
6455 6456
6455 6546
6456 6546
6457 6458
6457 6547
6458 6547
6459 6460
6459 6548
6460 6548
6461 6462
6461 6549
6462 6549
6463 6464
6463 6550
6464 6550
6465 6466
6465 6551
6466 6551
6467 6468
6467 6552
6468 6552
6469 6470
6469 6553
6470 6553
6471 6472
6471 6554
6472 6554
6473 6474
6473 6555
6474 6555
6475 6476
6475 6556
6476 6556
6477 6478
6477 6557
6478 6557
6479 6480
6479 6558
6480 6558
6481 6482
6481 6559
6482 6559
6483 6484
6483 6560
6484 6560
6485 6486
6485 6561
6486 6561
6487 6488
6487 6562
6488 6562
6489 6490
6489 6563
6490 6563
6491 6492
6491 6564
6492 6564
6493 6494
6493 6565
6494 6565
6495 6496
6495 6566
6496 6566
6497 6498
6497 6567
6498 6567
6499 6500
6499 6568
6500 6568
6501 6502
6501 6569
6502 6569
6503 6504
6503 6570
6504 6570
6505 6506
6505 6571
6506 6571
6507 6508
6507 6572
6508 6572
6509 6510
6509 6573
6510 6573
6511 6512
6511 6574
6512 6574
6513 6514
6513 6575
6514 6575
6515 6516
6515 6576
6516 6576
6517 6518
6517 6577
6518 6577
6519 6520
6519 6578
6520 6578
6521 6522
6521 6579
6522 6579
6523 6524
6523 6580
6524 6580
6525 6526
6525 6581
6526 6581
6527 6528
6527 6582
6528 6582
6529 6530
6529 6583
6530 6583
6531 6532
6531 6584
6532 6584
6533 6534
6533 6585
6534 6585
6535 6536
6535 6586
6536 6586
6537 6538
6537 6587
6538 6587
6539 6540
6541 6588
6541 6589
6542 6653
6542 6654
6543 6655
6544 6592
6544 6593
6545 6656
6545 6657
6546 6658
6547 6596
6547 6597
6548 6659
6548 6660
6549 6661
6550 6600
6550 6601
6551 6662
6551 6663
6552 6664
6553 6604
6553 6605
6554 6665
6554 6666
6555 6667
6556 6608
6556 6609
6557 6668
6557 6669
6558 6670
6559 6612
6559 6613
6560 6671
6560 6672
6561 6673
6562 6616
6562 6617
6563 6674
6563 6675
6564 6676
6565 6620
6565 6621
6566 6677
6566 6678
6567 6679
6568 6624
6568 6625
6569 6680
6569 6681
6570 6682
6571 6628
6571 6629
6572 6683
6572 6684
6573 6685
6574 6632
6574 6633
6575 6686
6575 6687
6576 6688
6577 6636
6577 6637
6578 6689
6578 6690
6579 6691
6580 6640
6580 6641
6581 6692
6581 6693
6582 6694
6583 6644
6583 6645
6584 6695
6584 6696
6585 6697
6586 6648
6586 6649
6587 6698
6587 6699
6588 6589
6588 6652
6588 6700
6588 6701
6589 6590
6589 6700
6589 6701
6590 6653
6590 6701
6590 6702
6591 6654
6591 6703
6591 6704
6592 6593
6592 6655
6592 6705
6592 6706
6593 6594
6593 6705
6593 6706
6594 6656
6594 6706
6594 6707
6595 6657
6595 6708
6595 6709
6596 6597
6596 6658
6596 6710
6596 6711
6597 6598
6597 6710
6597 6711
6598 6659
6598 6711
6598 6712
6599 6660
6599 6713
6599 6714
6600 6601
6600 6661
6600 6715
6600 6716
6601 6602
6601 6715
6601 6716
6602 6662
6602 6716
6602 6717
6603 6663
6603 6718
6603 6719
6604 6605
6604 6664
6604 6720
6604 6721
6605 6606
6605 6720
6605 6721
6606 6665
6606 6721
6606 6722
6607 6666
6607 6723
6607 6724
6608 6609
6608 6667
6608 6725
6608 6726
6609 6610
6609 6725
6609 6726
6610 6668
6610 6726
6610 6727
6611 6669
6611 6728
6611 6729
6612 6613
6612 6670
6612 6730
6612 6731
6613 6614
6613 6730
6613 6731
6614 6671
6614 6731
6614 6732
6615 6672
6615 6733
6615 6734
6616 6617
6616 6673
6616 6735
6616 6736
6617 6618
6617 6735
6617 6736
6618 6674
6618 6736
6618 6737
6619 6675
6619 6738
6619 6739
6620 6621
6620 6676
6620 6740
6620 6741
6621 6622
6621 6740
6621 6741
6622 6677
6622 6741
6622 6742
6623 6678
6623 6743
6623 6744
6624 6625
6624 6679
6624 6745
6624 6746
6625 6626
6625 6745
6625 6746
6626 6680
6626 6746
6626 6747
6627 6681
6627 6748
6627 6749
6628 6629
6628 6682
6628 6750
6628 6751
6629 6630
6629 6750
6629 6751
6630 6683
6630 6751
6630 6752
6631 6684
6631 6753
6631 6754
6632 6633
6632 6685
6632 6755
6632 6756
6633 6634
6633 6755
6633 6756
6634 6686
6634 6756
6634 6757
6635 6687
6635 6758
6635 6759
6636 6637
6636 6688
6636 6760
6636 6761
6637 6638
6637 6760
6637 6761
6638 6689
6638 6761
6638 6762
6639 6690
6639 6763
6639 6764
6640 6641
6640 6691
6640 6765
6640 6766
6641 6642
6641 6765
6641 6766
6642 6692
6642 6766
6642 6767
6643 6693
6643 6768
6643 6769
6644 6645
6644 6694
6644 6770
6644 6771
6645 6646
6645 6770
6645 6771
6646 6695
6646 6771
6646 6772
6647 6696
6647 6773
6647 6774
6648 6649
6648 6697
6648 6775
6648 6776
6649 6650
6649 6775
6649 6776
6650 6698
6650 6776
6650 6777
6651 6699
6651 6778
6651 6779
6652 6700
6653 6654
6653 6702
6653 6780
6653 6781
6654 6703
6654 6780
6654 6781
6655 6705
6656 6657
6656 6707
6656 6782
6656 6783
6657 6708
6657 6782
6657 6783
6658 6710
6659 6660
6659 6712
6659 6784
6659 6785
6660 6713
6660 6784
6660 6785
6661 6715
6662 6663
6662 6717
6662 6786
6662 6787
6663 6718
6663 6786
6663 6787
6664 6720
6665 6666
6665 6722
6665 6788
6665 6789
6666 6723
6666 6788
6666 6789
6667 6725
6668 6669
6668 6727
6668 6790
6668 6791
6669 6728
6669 6790
6669 6791
6670 6730
6671 6672
6671 6732
6671 6792
6671 6793
6672 6733
6672 6792
6672 6793
6673 6735
6674 6675
6674 6737
6674 6794
6674 6795
6675 6738
6675 6794
6675 6795
6676 6740
6677 6678
6677 6742
6677 6796
6677 6797
6678 6743
6678 6796
6678 6797
6679 6745
6680 6681
6680 6747
6680 6798
6680 6799
6681 6748
6681 6798
6681 6799
6682 6750
6683 6684
6683 6752
6683 6800
6683 6801
6684 6753
6684 6800
6684 6801
6685 6755
6686 6687
6686 6757
6686 6802
6686 6803
6687 6758
6687 6802
6687 6803
6688 6760
6689 6690
6689 6762
6689 6804
6689 6805
6690 6763
6690 6804
6690 6805
6691 6765
6692 6693
6692 6767
6692 6806
6692 6807
6693 6768
6693 6806
6693 6807
6694 6770
6695 6696
6695 6772
6695 6808
6695 6809
6696 6773
6696 6808
6696 6809
6697 6775
6698 6699
6698 6777
6698 6810
6698 6811
6699 6778
6699 6810
6699 6811
6700 6701
6700 6812
6701 6812
6702 6780
6702 6813
6703 6781
6703 6814
6704 6815
6705 6706
6705 6816
6706 6816
6707 6782
6707 6817
6708 6783
6708 6818
6709 6819
6710 6711
6710 6820
6711 6820
6712 6784
6712 6821
6713 6785
6713 6822
6714 6823
6715 6716
6715 6824
6716 6824
6717 6786
6717 6825
6718 6787
6718 6826
6719 6827
6720 6721
6720 6828
6721 6828
6722 6788
6722 6829
6723 6789
6723 6830
6724 6831
6725 6726
6725 6832
6726 6832
6727 6790
6727 6833
6728 6791
6728 6834
6729 6835
6730 6731
6730 6836
6731 6836
6732 6792
6732 6837
6733 6793
6733 6838
6734 6839
6735 6736
6735 6840
6736 6840
6737 6794
6737 6841
6738 6795
6738 6842
6739 6843
6740 6741
6740 6844
6741 6844
6742 6796
6742 6845
6743 6797
6743 6846
6744 6847
6745 6746
6745 6848
6746 6848
6747 6798
6747 6849
6748 6799
6748 6850
6749 6851
6750 6751
6750 6852
6751 6852
6752 6800
6752 6853
6753 6801
6753 6854
6754 6855
6755 6756
6755 6856
6756 6856
6757 6802
6757 6857
6758 6803
6758 6858
6759 6859
6760 6761
6760 6860
6761 6860
6762 6804
6762 6861
6763 6805
6763 6862
6764 6863
6765 6766
6765 6864
6766 6864
6767 6806
6767 6865
6768 6807
6768 6866
6769 6867
6770 6771
6770 6868
6771 6868
6772 6808
6772 6869
6773 6809
6773 6870
6774 6871
6775 6776
6775 6872
6776 6872
6777 6810
6777 6873
6778 6811
6778 6874
6779 6875
6780 6781
6780 6813
6781 6814
6782 6783
6782 6817
6783 6818
6784 6785
6784 6821
6785 6822
6786 6787
6786 6825
6787 6826
6788 6789
6788 6829
6789 6830
6790 6791
6790 6833
6791 6834
6792 6793
6792 6837
6793 6838
6794 6795
6794 6841
6795 6842
6796 6797
6796 6845
6797 6846
6798 6799
6798 6849
6799 6850
6800 6801
6800 6853
6801 6854
6802 6803
6802 6857
6803 6858
6804 6805
6804 6861
6805 6862
6806 6807
6806 6865
6807 6866
6808 6809
6808 6869
6809 6870
6810 6811
6810 6873
6811 6874
6812 6876
6812 6877
6813 6877
6814 6878
6814 6879
6815 6880
6815 6881
6816 6882
6816 6883
6817 6883
6818 6884
6818 6885
6819 6886
6819 6887
6820 6888
6820 6889
6821 6889
6822 6890
6822 6891
6823 6892
6823 6893
6824 6894
6824 6895
6825 6895
6826 6896
6826 6897
6827 6898
6827 6899
6828 6900
6828 6901
6829 6901
6830 6902
6830 6903
6831 6904
6831 6905
6832 6906
6832 6907
6833 6907
6834 6908
6834 6909
6835 6910
6835 6911
6836 6912
6836 6913
6837 6913
6838 6914
6838 6915
6839 6916
6839 6917
6840 6918
6840 6919
6841 6919
6842 6920
6842 6921
6843 6922
6843 6923
6844 6924
6844 6925
6845 6925
6846 6926
6846 6927
6847 6928
6847 6929
6848 6930
6848 6931
6849 6931
6850 6932
6850 6933
6851 6934
6851 6935
6852 6936
6852 6937
6853 6937
6854 6938
6854 6939
6855 6940
6855 6941
6856 6942
6856 6943
6857 6943
6858 6944
6858 6945
6859 6946
6859 6947
6860 6948
6860 6949
6861 6949
6862 6950
6862 6951
6863 6952
6863 6953
6864 6954
6864 6955
6865 6955
6866 6956
6866 6957
6867 6958
6867 6959
6868 6960
6868 6961
6869 6961
6870 6962
6870 6963
6871 6964
6871 6965
6872 6966
6872 6967
6873 6967
6874 6968
6874 6969
6875 6970
6875 6971
6876 6877
6876 6972
6876 7037
6876 7038
6877 6973
6877 7037
6877 7038
6878 6879
6878 6974
6878 7039
6878 7040
6879 6975
6879 7039
6879 7040
6880 6881
6880 6975
6880 7041
6880 7042
6881 6976
6881 7041
6881 7042
6882 6883
6882 6976
6882 7043
6882 7044
6883 6977
6883 7043
6883 7044
6884 6885
6884 6978
6884 7045
6884 7046
6885 6979
6885 7045
6885 7046
6886 6887
6886 6979
6886 7047
6886 7048
6887 6980
6887 7047
6887 7048
6888 6889
6888 6980
6888 7049
6888 7050
6889 6981
6889 7049
6889 7050
6890 6891
6890 6982
6890 7051
6890 7052
6891 6983
6891 7051
6891 7052
6892 6893
6892 6983
6892 7053
6892 7054
6893 6984
6893 7053
6893 7054
6894 6895
6894 6984
6894 7055
6894 7056
6895 6985
6895 7055
6895 7056
6896 6897
6896 6986
6896 7057
6896 7058
6897 6987
6897 7057
6897 7058
6898 6899
6898 6987
6898 7059
6898 7060
6899 6988
6899 7059
6899 7060
6900 6901
6900 6988
6900 7061
6900 7062
6901 6989
6901 7061
6901 7062
6902 6903
6902 6990
6902 7063
6902 7064
6903 6991
6903 7063
6903 7064
6904 6905
6904 6991
6904 7065
6904 7066
6905 6992
6905 7065
6905 7066
6906 6907
6906 6992
6906 7067
6906 7068
6907 6993
6907 7067
6907 7068
6908 6909
6908 6994
6908 7069
6908 7070
6909 6995
6909 7069
6909 7070
6910 6911
6910 6995
6910 7071
6910 7072
6911 6996
6911 7071
6911 7072
6912 6913
6912 6996
6912 7073
6912 7074
6913 6997
6913 7073
6913 7074
6914 6915
6914 6998
6914 7075
6914 7076
6915 6999
6915 7075
6915 7076
6916 6917
6916 6999
6916 7077
6916 7078
6917 7000
6917 7077
6917 7078
6918 6919
6918 7000
6918 7079
6918 7080
6919 7001
6919 7079
6919 7080
6920 6921
6920 7002
6920 7081
6920 7082
6921 7003
6921 7081
6921 7082
6922 6923
6922 7003
6922 7083
6922 7084
6923 7004
6923 7083
6923 7084
6924 6925
6924 7004
6924 7085
6924 7086
6925 7005
6925 7085
6925 7086
6926 6927
6926 7006
6926 7087
6926 7088
6927 7007
6927 7087
6927 7088
6928 6929
6928 7007
6928 7089
6928 7090
6929 7008
6929 7089
6929 7090
6930 6931
6930 7008
6930 7091
6930 7092
6931 7009
6931 7091
6931 7092
6932 6933
6932 7010
6932 7093
6932 7094
6933 7011
6933 7093
6933 7094
6934 6935
6934 7011
6934 7095
6934 7096
6935 7012
6935 7095
6935 7096
6936 6937
6936 7012
6936 7097
6936 7098
6937 7013
6937 7097
6937 7098
6938 6939
6938 7014
6938 7099
6938 7100
6939 7015
6939 7099
6939 7100
6940 6941
6940 7015
6940 7101
6940 7102
6941 7016
6941 7101
6941 7102
6942 6943
6942 7016
6942 7103
6942 7104
6943 7017
6943 7103
6943 7104
6944 6945
6944 7018
6944 7105
6944 7106
6945 7019
6945 7105
6945 7106
6946 6947
6946 7019
6946 7107
6946 7108
6947 7020
6947 7107
6947 7108
6948 6949
6948 7020
6948 7109
6948 7110
6949 7021
6949 7109
6949 7110
6950 6951
6950 7022
6950 7111
6950 7112
6951 7023
6951 7111
6951 7112
6952 6953
6952 7023
6952 7113
6952 7114
6953 7024
6953 7113
6953 7114
6954 6955
6954 7024
6954 7115
6954 7116
6955 7025
6955 7115
6955 7116
6956 6957
6956 7026
6956 7117
6956 7118
6957 7027
6957 7117
6957 7118
6958 6959
6958 7027
6958 7119
6958 7120
6959 7028
6959 7119
6959 7120
6960 6961
6960 7028
6960 7121
6960 7122
6961 7029
6961 7121
6961 7122
6962 6963
6962 7030
6962 7123
6962 7124
6963 7031
6963 7123
6963 7124
6964 6965
6964 7031
6964 7125
6964 7126
6965 7032
6965 7125
6965 7126
6966 6967
6966 7032
6966 7127
6966 7128
6967 7033
6967 7127
6967 7128
6968 6969
6968 7034
6968 7129
6968 7130
6969 7035
6969 7129
6969 7130
6970 6971
6970 7035
6971 7036
6972 7037
6973 6974
6973 7038
6974 7039
6975 7040
6975 7041
6976 7042
6976 7043
6977 6978
6977 7044
6978 7045
6979 7046
6979 7047
6980 7048
6980 7049
6981 6982
6981 7050
6982 7051
6983 7052
6983 7053
6984 7054
6984 7055
6985 6986
6985 7056
6986 7057
6987 7058
6987 7059
6988 7060
6988 7061
6989 6990
6989 7062
6990 7063
6991 7064
6991 7065
6992 7066
6992 7067
6993 6994
6993 7068
6994 7069
6995 7070
6995 7071
6996 7072
6996 7073
6997 6998
6997 7074
6998 7075
6999 7076
6999 7077
7000 7078
7000 7079
7001 7002
7001 7080
7002 7081
7003 7082
7003 7083
7004 7084
7004 7085
7005 7006
7005 7086
7006 7087
7007 7088
7007 7089
7008 7090
7008 7091
7009 7010
7009 7092
7010 7093
7011 7094
7011 7095
7012 7096
7012 7097
7013 7014
7013 7098
7014 7099
7015 7100
7015 7101
7016 7102
7016 7103
7017 7018
7017 7104
7018 7105
7019 7106
7019 7107
7020 7108
7020 7109
7021 7022
7021 7110
7022 7111
7023 7112
7023 7113
7024 7114
7024 7115
7025 7026
7025 7116
7026 7117
7027 7118
7027 7119
7028 7120
7028 7121
7029 7030
7029 7122
7030 7123
7031 7124
7031 7125
7032 7126
7032 7127
7033 7034
7033 7128
7034 7129
7035 7130
7037 7038
7037 7131
7038 7131
7039 7040
7039 7132
7040 7132
7041 7042
7041 7133
7042 7133
7043 7044
7043 7134
7044 7134
7045 7046
7045 7135
7046 7135
7047 7048
7047 7136
7048 7136
7049 7050
7049 7137
7050 7137
7051 7052
7051 7138
7052 7138
7053 7054
7053 7139
7054 7139
7055 7056
7055 7140
7056 7140
7057 7058
7057 7141
7058 7141
7059 7060
7059 7142
7060 7142
7061 7062
7061 7143
7062 7143
7063 7064
7063 7144
7064 7144
7065 7066
7065 7145
7066 7145
7067 7068
7067 7146
7068 7146
7069 7070
7069 7147
7070 7147
7071 7072
7071 7148
7072 7148
7073 7074
7073 7149
7074 7149
7075 7076
7075 7150
7076 7150
7077 7078
7077 7151
7078 7151
7079 7080
7079 7152
7080 7152
7081 7082
7081 7153
7082 7153
7083 7084
7083 7154
7084 7154
7085 7086
7085 7155
7086 7155
7087 7088
7087 7156
7088 7156
7089 7090
7089 7157
7090 7157
7091 7092
7091 7158
7092 7158
7093 7094
7093 7159
7094 7159
7095 7096
7095 7160
7096 7160
7097 7098
7097 7161
7098 7161
7099 7100
7099 7162
7100 7162
7101 7102
7101 7163
7102 7163
7103 7104
7103 7164
7104 7164
7105 7106
7105 7165
7106 7165
7107 7108
7107 7166
7108 7166
7109 7110
7109 7167
7110 7167
7111 7112
7111 7168
7112 7168
7113 7114
7113 7169
7114 7169
7115 7116
7115 7170
7116 7170
7117 7118
7117 7171
7118 7171
7119 7120
7119 7172
7120 7172
7121 7122
7121 7173
7122 7173
7123 7124
7123 7174
7124 7174
7125 7126
7125 7175
7126 7175
7127 7128
7127 7176
7128 7176
7129 7130
7129 7177
7130 7177
7131 7178
7131 7179
7132 7243
7132 7244
7133 7245
7134 7182
7134 7183
7135 7246
7135 7247
7136 7248
7137 7186
7137 7187
7138 7249
7138 7250
7139 7251
7140 7190
7140 7191
7141 7252
7141 7253
7142 7254
7143 7194
7143 7195
7144 7255
7144 7256
7145 7257
7146 7198
7146 7199
7147 7258
7147 7259
7148 7260
7149 7202
7149 7203
7150 7261
7150 7262
7151 7263
7152 7206
7152 7207
7153 7264
7153 7265
7154 7266
7155 7210
7155 7211
7156 7267
7156 7268
7157 7269
7158 7214
7158 7215
7159 7270
7159 7271
7160 7272
7161 7218
7161 7219
7162 7273
7162 7274
7163 7275
7164 7222
7164 7223
7165 7276
7165 7277
7166 7278
7167 7226
7167 7227
7168 7279
7168 7280
7169 7281
7170 7230
7170 7231
7171 7282
7171 7283
7172 7284
7173 7234
7173 7235
7174 7285
7174 7286
7175 7287
7176 7238
7176 7239
7177 7288
7177 7289
7178 7179
7178 7242
7178 7290
7178 7291
7179 7180
7179 7290
7179 7291
7180 7243
7180 7291
7180 7292
7181 7244
7181 7293
7181 7294
7182 7183
7182 7245
7182 7295
7182 7296
7183 7184
7183 7295
7183 7296
7184 7246
7184 7296
7184 7297
7185 7247
7185 7298
7185 7299
7186 7187
7186 7248
7186 7300
7186 7301
7187 7188
7187 7300
7187 7301
7188 7249
7188 7301
7188 7302
7189 7250
7189 7303
7189 7304
7190 7191
7190 7251
7190 7305
7190 7306
7191 7192
7191 7305
7191 7306
7192 7252
7192 7306
7192 7307
7193 7253
7193 7308
7193 7309
7194 7195
7194 7254
7194 7310
7194 7311
7195 7196
7195 7310
7195 7311
7196 7255
7196 7311
7196 7312
7197 7256
7197 7313
7197 7314
7198 7199
7198 7257
7198 7315
7198 7316
7199 7200
7199 7315
7199 7316
7200 7258
7200 7316
7200 7317
7201 7259
7201 7318
7201 7319
7202 7203
7202 7260
7202 7320
7202 7321
7203 7204
7203 7320
7203 7321
7204 7261
7204 7321
7204 7322
7205 7262
7205 7323
7205 7324
7206 7207
7206 7263
7206 7325
7206 7326
7207 7208
7207 7325
7207 7326
7208 7264
7208 7326
7208 7327
7209 7265
7209 7328
7209 7329
7210 7211
7210 7266
7210 7330
7210 7331
7211 7212
7211 7330
7211 7331
7212 7267
7212 7331
7212 7332
7213 7268
7213 7333
7213 7334
7214 7215
7214 7269
7214 7335
7214 7336
7215 7216
7215 7335
7215 7336
7216 7270
7216 7336
7216 7337
7217 7271
7217 7338
7217 7339
7218 7219
7218 7272
7218 7340
7218 7341
7219 7220
7219 7340
7219 7341
7220 7273
7220 7341
7220 7342
7221 7274
7221 7343
7221 7344
7222 7223
7222 7275
7222 7345
7222 7346
7223 7224
7223 7345
7223 7346
7224 7276
7224 7346
7224 7347
7225 7277
7225 7348
7225 7349
7226 7227
7226 7278
7226 7350
7226 7351
7227 7228
7227 7350
7227 7351
7228 7279
7228 7351
7228 7352
7229 7280
7229 7353
7229 7354
7230 7231
7230 7281
7230 7355
7230 7356
7231 7232
7231 7355
7231 7356
7232 7282
7232 7356
7232 7357
7233 7283
7233 7358
7233 7359
7234 7235
7234 7284
7234 7360
7234 7361
7235 7236
7235 7360
7235 7361
7236 7285
7236 7361
7236 7362
7237 7286
7237 7363
7237 7364
7238 7239
7238 7287
7238 7365
7238 7366
7239 7240
7239 7365
7239 7366
7240 7288
7240 7366
7240 7367
7241 7289
7241 7368
7241 7369
7242 7290
7243 7244
7243 7292
7243 7370
7243 7371
7244 7293
7244 7370
7244 7371
7245 7295
7246 7247
7246 7297
7246 7372
7246 7373
7247 7298
7247 7372
7247 7373
7248 7300
7249 7250
7249 7302
7249 7374
7249 7375
7250 7303
7250 7374
7250 7375
7251 7305
7252 7253
7252 7307
7252 7376
7252 7377
7253 7308
7253 7376
7253 7377
7254 7310
7255 7256
7255 7312
7255 7378
7255 7379
7256 7313
7256 7378
7256 7379
7257 7315
7258 7259
7258 7317
7258 7380
7258 7381
7259 7318
7259 7380
7259 7381
7260 7320
7261 7262
7261 7322
7261 7382
7261 7383
7262 7323
7262 7382
7262 7383
7263 7325
7264 7265
7264 7327
7264 7384
7264 7385
7265 7328
7265 7384
7265 7385
7266 7330
7267 7268
7267 7332
7267 7386
7267 7387
7268 7333
7268 7386
7268 7387
7269 7335
7270 7271
7270 7337
7270 7388
7270 7389
7271 7338
7271 7388
7271 7389
7272 7340
7273 7274
7273 7342
7273 7390
7273 7391
7274 7343
7274 7390
7274 7391
7275 7345
7276 7277
7276 7347
7276 7392
7276 7393
7277 7348
7277 7392
7277 7393
7278 7350
7279 7280
7279 7352
7279 7394
7279 7395
7280 7353
7280 7394
7280 7395
7281 7355
7282 7283
7282 7357
7282 7396
7282 7397
7283 7358
7283 7396
7283 7397
7284 7360
7285 7286
7285 7362
7285 7398
7285 7399
7286 7363
7286 7398
7286 7399
7287 7365
7288 7289
7288 7367
7288 7400
7288 7401
7289 7368
7289 7400
7289 7401
7290 7291
7290 7402
7291 7402
7292 7370
7292 7403
7293 7371
7293 7404
7294 7405
7295 7296
7295 7406
7296 7406
7297 7372
7297 7407
7298 7373
7298 7408
7299 7409
7300 7301
7300 7410
7301 7410
7302 7374
7302 7411
7303 7375
7303 7412
7304 7413
7305 7306
7305 7414
7306 7414
7307 7376
7307 7415
7308 7377
7308 7416
7309 7417
7310 7311
7310 7418
7311 7418
7312 7378
7312 7419
7313 7379
7313 7420
7314 7421
7315 7316
7315 7422
7316 7422
7317 7380
7317 7423
7318 7381
7318 7424
7319 7425
7320 7321
7320 7426
7321 7426
7322 7382
7322 7427
7323 7383
7323 7428
7324 7429
7325 7326
7325 7430
7326 7430
7327 7384
7327 7431
7328 7385
7328 7432
7329 7433
7330 7331
7330 7434
7331 7434
7332 7386
7332 7435
7333 7387
7333 7436
7334 7437
7335 7336
7335 7438
7336 7438
7337 7388
7337 7439
7338 7389
7338 7440
7339 7441
7340 7341
7340 7442
7341 7442
7342 7390
7342 7443
7343 7391
7343 7444
7344 7445
7345 7346
7345 7446
7346 7446
7347 7392
7347 7447
7348 7393
7348 7448
7349 7449
7350 7351
7350 7450
7351 7450
7352 7394
7352 7451
7353 7395
7353 7452
7354 7453
7355 7356
7355 7454
7356 7454
7357 7396
7357 7455
7358 7397
7358 7456
7359 7457
7360 7361
7360 7458
7361 7458
7362 7398
7362 7459
7363 7399
7363 7460
7364 7461
7365 7366
7365 7462
7366 7462
7367 7400
7367 7463
7368 7401
7368 7464
7369 7465
7370 7371
7370 7403
7371 7404
7372 7373
7372 7407
7373 7408
7374 7375
7374 7411
7375 7412
7376 7377
7376 7415
7377 7416
7378 7379
7378 7419
7379 7420
7380 7381
7380 7423
7381 7424
7382 7383
7382 7427
7383 7428
7384 7385
7384 7431
7385 7432
7386 7387
7386 7435
7387 7436
7388 7389
7388 7439
7389 7440
7390 7391
7390 7443
7391 7444
7392 7393
7392 7447
7393 7448
7394 7395
7394 7451
7395 7452
7396 7397
7396 7455
7397 7456
7398 7399
7398 7459
7399 7460
7400 7401
7400 7463
7401 7464
7402 7466
7402 7467
7403 7467
7404 7468
7404 7469
7405 7470
7405 7471
7406 7472
7406 7473
7407 7473
7408 7474
7408 7475
7409 7476
7409 7477
7410 7478
7410 7479
7411 7479
7412 7480
7412 7481
7413 7482
7413 7483
7414 7484
7414 7485
7415 7485
7416 7486
7416 7487
7417 7488
7417 7489
7418 7490
7418 7491
7419 7491
7420 7492
7420 7493
7421 7494
7421 7495
7422 7496
7422 7497
7423 7497
7424 7498
7424 7499
7425 7500
7425 7501
7426 7502
7426 7503
7427 7503
7428 7504
7428 7505
7429 7506
7429 7507
7430 7508
7430 7509
7431 7509
7432 7510
7432 7511
7433 7512
7433 7513
7434 7514
7434 7515
7435 7515
7436 7516
7436 7517
7437 7518
7437 7519
7438 7520
7438 7521
7439 7521
7440 7522
7440 7523
7441 7524
7441 7525
7442 7526
7442 7527
7443 7527
7444 7528
7444 7529
7445 7530
7445 7531
7446 7532
7446 7533
7447 7533
7448 7534
7448 7535
7449 7536
7449 7537
7450 7538
7450 7539
7451 7539
7452 7540
7452 7541
7453 7542
7453 7543
7454 7544
7454 7545
7455 7545
7456 7546
7456 7547
7457 7548
7457 7549
7458 7550
7458 7551
7459 7551
7460 7552
7460 7553
7461 7554
7461 7555
7462 7556
7462 7557
7463 7557
7464 7558
7464 7559
7465 7560
7465 7561
7466 7467
7466 7562
7466 7627
7466 7628
7467 7563
7467 7627
7467 7628
7468 7469
7468 7564
7468 7629
7468 7630
7469 7565
7469 7629
7469 7630
7470 7471
7470 7565
7470 7631
7470 7632
7471 7566
7471 7631
7471 7632
7472 7473
7472 7566
7472 7633
7472 7634
7473 7567
7473 7633
7473 7634
7474 7475
7474 7568
7474 7635
7474 7636
7475 7569
7475 7635
7475 7636
7476 7477
7476 7569
7476 7637
7476 7638
7477 7570
7477 7637
7477 7638
7478 7479
7478 7570
7478 7639
7478 7640
7479 7571
7479 7639
7479 7640
7480 7481
7480 7572
7480 7641
7480 7642
7481 7573
7481 7641
7481 7642
7482 7483
7482 7573
7482 7643
7482 7644
7483 7574
7483 7643
7483 7644
7484 7485
7484 7574
7484 7645
7484 7646
7485 7575
7485 7645
7485 7646
7486 7487
7486 7576
7486 7647
7486 7648
7487 7577
7487 7647
7487 7648
7488 7489
7488 7577
7488 7649
7488 7650
7489 7578
7489 7649
7489 7650
7490 7491
7490 7578
7490 7651
7490 7652
7491 7579
7491 7651
7491 7652
7492 7493
7492 7580
7492 7653
7492 7654
7493 7581
7493 7653
7493 7654
7494 7495
7494 7581
7494 7655
7494 7656
7495 7582
7495 7655
7495 7656
7496 7497
7496 7582
7496 7657
7496 7658
7497 7583
7497 7657
7497 7658
7498 7499
7498 7584
7498 7659
7498 7660
7499 7585
7499 7659
7499 7660
7500 7501
7500 7585
7500 7661
7500 7662
7501 7586
7501 7661
7501 7662
7502 7503
7502 7586
7502 7663
7502 7664
7503 7587
7503 7663
7503 7664
7504 7505
7504 7588
7504 7665
7504 7666
7505 7589
7505 7665
7505 7666
7506 7507
7506 7589
7506 7667
7506 7668
7507 7590
7507 7667
7507 7668
7508 7509
7508 7590
7508 7669
7508 7670
7509 7591
7509 7669
7509 7670
7510 7511
7510 7592
7510 7671
7510 7672
7511 7593
7511 7671
7511 7672
7512 7513
7512 7593
7512 7673
7512 7674
7513 7594
7513 7673
7513 7674
7514 7515
7514 7594
7514 7675
7514 7676
7515 7595
7515 7675
7515 7676
7516 7517
7516 7596
7516 7677
7516 7678
7517 7597
7517 7677
7517 7678
7518 7519
7518 7597
7518 7679
7518 7680
7519 7598
7519 7679
7519 7680
7520 7521
7520 7598
7520 7681
7520 7682
7521 7599
7521 7681
7521 7682
7522 7523
7522 7600
7522 7683
7522 7684
7523 7601
7523 7683
7523 7684
7524 7525
7524 7601
7524 7685
7524 7686
7525 7602
7525 7685
7525 7686
7526 7527
7526 7602
7526 7687
7526 7688
7527 7603
7527 7687
7527 7688
7528 7529
7528 7604
7528 7689
7528 7690
7529 7605
7529 7689
7529 7690
7530 7531
7530 7605
7530 7691
7530 7692
7531 7606
7531 7691
7531 7692
7532 7533
7532 7606
7532 7693
7532 7694
7533 7607
7533 7693
7533 7694
7534 7535
7534 7608
7534 7695
7534 7696
7535 7609
7535 7695
7535 7696
7536 7537
7536 7609
7536 7697
7536 7698
7537 7610
7537 7697
7537 7698
7538 7539
7538 7610
7538 7699
7538 7700
7539 7611
7539 7699
7539 7700
7540 7541
7540 7612
7540 7701
7540 7702
7541 7613
7541 7701
7541 7702
7542 7543
7542 7613
7542 7703
7542 7704
7543 7614
7543 7703
7543 7704
7544 7545
7544 7614
7544 7705
7544 7706
7545 7615
7545 7705
7545 7706
7546 7547
7546 7616
7546 7707
7546 7708
7547 7617
7547 7707
7547 7708
7548 7549
7548 7617
7548 7709
7548 7710
7549 7618
7549 7709
7549 7710
7550 7551
7550 7618
7550 7711
7550 7712
7551 7619
7551 7711
7551 7712
7552 7553
7552 7620
7552 7713
7552 7714
7553 7621
7553 7713
7553 7714
7554 7555
7554 7621
7554 7715
7554 7716
7555 7622
7555 7715
7555 7716
7556 7557
7556 7622
7556 7717
7556 7718
7557 7623
7557 7717
7557 7718
7558 7559
7558 7624
7558 7719
7558 7720
7559 7625
7559 7719
7559 7720
7560 7561
7560 7625
7561 7626
7562 7627
7563 7564
7563 7628
7564 7629
7565 7630
7565 7631
7566 7632
7566 7633
7567 7568
7567 7634
7568 7635
7569 7636
7569 7637
7570 7638
7570 7639
7571 7572
7571 7640
7572 7641
7573 7642
7573 7643
7574 7644
7574 7645
7575 7576
7575 7646
7576 7647
7577 7648
7577 7649
7578 7650
7578 7651
7579 7580
7579 7652
7580 7653
7581 7654
7581 7655
7582 7656
7582 7657
7583 7584
7583 7658
7584 7659
7585 7660
7585 7661
7586 7662
7586 7663
7587 7588
7587 7664
7588 7665
7589 7666
7589 7667
7590 7668
7590 7669
7591 7592
7591 7670
7592 7671
7593 7672
7593 7673
7594 7674
7594 7675
7595 7596
7595 7676
7596 7677
7597 7678
7597 7679
7598 7680
7598 7681
7599 7600
7599 7682
7600 7683
7601 7684
7601 7685
7602 7686
7602 7687
7603 7604
7603 7688
7604 7689
7605 7690
7605 7691
7606 7692
7606 7693
7607 7608
7607 7694
7608 7695
7609 7696
7609 7697
7610 7698
7610 7699
7611 7612
7611 7700
7612 7701
7613 7702
7613 7703
7614 7704
7614 7705
7615 7616
7615 7706
7616 7707
7617 7708
7617 7709
7618 7710
7618 7711
7619 7620
7619 7712
7620 7713
7621 7714
7621 7715
7622 7716
7622 7717
7623 7624
7623 7718
7624 7719
7625 7720
7627 7628
7627 7721
7628 7721
7629 7630
7629 7722
7630 7722
7631 7632
7631 7723
7632 7723
7633 7634
7633 7724
7634 7724
7635 7636
7635 7725
7636 7725
7637 7638
7637 7726
7638 7726
7639 7640
7639 7727
7640 7727
7641 7642
7641 7728
7642 7728
7643 7644
7643 7729
7644 7729
7645 7646
7645 7730
7646 7730
7647 7648
7647 7731
7648 7731
7649 7650
7649 7732
7650 7732
7651 7652
7651 7733
7652 7733
7653 7654
7653 7734
7654 7734
7655 7656
7655 7735
7656 7735
7657 7658
7657 7736
7658 7736
7659 7660
7659 7737
7660 7737
7661 7662
7661 7738
7662 7738
7663 7664
7663 7739
7664 7739
7665 7666
7665 7740
7666 7740
7667 7668
7667 7741
7668 7741
7669 7670
7669 7742
7670 7742
7671 7672
7671 7743
7672 7743
7673 7674
7673 7744
7674 7744
7675 7676
7675 7745
7676 7745
7677 7678
7677 7746
7678 7746
7679 7680
7679 7747
7680 7747
7681 7682
7681 7748
7682 7748
7683 7684
7683 7749
7684 7749
7685 7686
7685 7750
7686 7750
7687 7688
7687 7751
7688 7751
7689 7690
7689 7752
7690 7752
7691 7692
7691 7753
7692 7753
7693 7694
7693 7754
7694 7754
7695 7696
7695 7755
7696 7755
7697 7698
7697 7756
7698 7756
7699 7700
7699 7757
7700 7757
7701 7702
7701 7758
7702 7758
7703 7704
7703 7759
7704 7759
7705 7706
7705 7760
7706 7760
7707 7708
7707 7761
7708 7761
7709 7710
7709 7762
7710 7762
7711 7712
7711 7763
7712 7763
7713 7714
7713 7764
7714 7764
7715 7716
7715 7765
7716 7765
7717 7718
7717 7766
7718 7766
7719 7720
7719 7767
7720 7767
7721 7768
7721 7769
7722 7833
7722 7834
7723 7835
7724 7772
7724 7773
7725 7836
7725 7837
7726 7838
7727 7776
7727 7777
7728 7839
7728 7840
7729 7841
7730 7780
7730 7781
7731 7842
7731 7843
7732 7844
7733 7784
7733 7785
7734 7845
7734 7846
7735 7847
7736 7788
7736 7789
7737 7848
7737 7849
7738 7850
7739 7792
7739 7793
7740 7851
7740 7852
7741 7853
7742 7796
7742 7797
7743 7854
7743 7855
7744 7856
7745 7800
7745 7801
7746 7857
7746 7858
7747 7859
7748 7804
7748 7805
7749 7860
7749 7861
7750 7862
7751 7808
7751 7809
7752 7863
7752 7864
7753 7865
7754 7812
7754 7813
7755 7866
7755 7867
7756 7868
7757 7816
7757 7817
7758 7869
7758 7870
7759 7871
7760 7820
7760 7821
7761 7872
7761 7873
7762 7874
7763 7824
7763 7825
7764 7875
7764 7876
7765 7877
7766 7828
7766 7829
7767 7878
7767 7879
7768 7769
7768 7832
7768 7880
7768 7881
7769 7770
7769 7880
7769 7881
7770 7833
7770 7881
7770 7882
7771 7834
7771 7883
7771 7884
7772 7773
7772 7835
7772 7885
7772 7886
7773 7774
7773 7885
7773 7886
7774 7836
7774 7886
7774 7887
7775 7837
7775 7888
7775 7889
7776 7777
7776 7838
7776 7890
7776 7891
7777 7778
7777 7890
7777 7891
7778 7839
7778 7891
7778 7892
7779 7840
7779 7893
7779 7894
7780 7781
7780 7841
7780 7895
7780 7896
7781 7782
7781 7895
7781 7896
7782 7842
7782 7896
7782 7897
7783 7843
7783 7898
7783 7899
7784 7785
7784 7844
7784 7900
7784 7901
7785 7786
7785 7900
7785 7901
7786 7845
7786 7901
7786 7902
7787 7846
7787 7903
7787 7904
7788 7789
7788 7847
7788 7905
7788 7906
7789 7790
7789 7905
7789 7906
7790 7848
7790 7906
7790 7907
7791 7849
7791 7908
7791 7909
7792 7793
7792 7850
7792 7910
7792 7911
7793 7794
7793 7910
7793 7911
7794 7851
7794 7911
7794 7912
7795 7852
7795 7913
7795 7914
7796 7797
7796 7853
7796 7915
7796 7916
7797 7798
7797 7915
7797 7916
7798 7854
7798 7916
7798 7917
7799 7855
7799 7918
7799 7919
7800 7801
7800 7856
7800 7920
7800 7921
7801 7802
7801 7920
7801 7921
7802 7857
7802 7921
7802 7922
7803 7858
7803 7923
7803 7924
7804 7805
7804 7859
7804 7925
7804 7926
7805 7806
7805 7925
7805 7926
7806 7860
7806 7926
7806 7927
7807 7861
7807 7928
7807 7929
7808 7809
7808 7862
7808 7930
7808 7931
7809 7810
7809 7930
7809 7931
7810 7863
7810 7931
7810 7932
7811 7864
7811 7933
7811 7934
7812 7813
7812 7865
7812 7935
7812 7936
7813 7814
7813 7935
7813 7936
7814 7866
7814 7936
7814 7937
7815 7867
7815 7938
7815 7939
7816 7817
7816 7868
7816 7940
7816 7941
7817 7818
7817 7940
7817 7941
7818 7869
7818 7941
7818 7942
7819 7870
7819 7943
7819 7944
7820 7821
7820 7871
7820 7945
7820 7946
7821 7822
7821 7945
7821 7946
7822 7872
7822 7946
7822 7947
7823 7873
7823 7948
7823 7949
7824 7825
7824 7874
7824 7950
7824 7951
7825 7826
7825 7950
7825 7951
7826 7875
7826 7951
7826 7952
7827 7876
7827 7953
7827 7954
7828 7829
7828 7877
7828 7955
7828 7956
7829 7830
7829 7955
7829 7956
7830 7878
7830 7956
7830 7957
7831 7879
7831 7958
7831 7959
7832 7880
7833 7834
7833 7882
7833 7960
7833 7961
7834 7883
7834 7960
7834 7961
7835 7885
7836 7837
7836 7887
7836 7962
7836 7963
7837 7888
7837 7962
7837 7963
7838 7890
7839 7840
7839 7892
7839 7964
7839 7965
7840 7893
7840 7964
7840 7965
7841 7895
7842 7843
7842 7897
7842 7966
7842 7967
7843 7898
7843 7966
7843 7967
7844 7900
7845 7846
7845 7902
7845 7968
7845 7969
7846 7903
7846 7968
7846 7969
7847 7905
7848 7849
7848 7907
7848 7970
7848 7971
7849 7908
7849 7970
7849 7971
7850 7910
7851 7852
7851 7912
7851 7972
7851 7973
7852 7913
7852 7972
7852 7973
7853 7915
7854 7855
7854 7917
7854 7974
7854 7975
7855 7918
7855 7974
7855 7975
7856 7920
7857 7858
7857 7922
7857 7976
7857 7977
7858 7923
7858 7976
7858 7977
7859 7925
7860 7861
7860 7927
7860 7978
7860 7979
7861 7928
7861 7978
7861 7979
7862 7930
7863 7864
7863 7932
7863 7980
7863 7981
7864 7933
7864 7980
7864 7981
7865 7935
7866 7867
7866 7937
7866 7982
7866 7983
7867 7938
7867 7982
7867 7983
7868 7940
7869 7870
7869 7942
7869 7984
7869 7985
7870 7943
7870 7984
7870 7985
7871 7945
7872 7873
7872 7947
7872 7986
7872 7987
7873 7948
7873 7986
7873 7987
7874 7950
7875 7876
7875 7952
7875 7988
7875 7989
7876 7953
7876 7988
7876 7989
7877 7955
7878 7879
7878 7957
7878 7990
7878 7991
7879 7958
7879 7990
7879 7991
7880 7881
7880 7992
7881 7992
7882 7960
7882 7993
7883 7961
7883 7994
7884 7995
7885 7886
7885 7996
7886 7996
7887 7962
7887 7997
7888 7963
7888 7998
7889 7999
7890 7891
7890 8000
7891 8000
7892 7964
7892 8001
7893 7965
7893 8002
7894 8003
7895 7896
7895 8004
7896 8004
7897 7966
7897 8005
7898 7967
7898 8006
7899 8007
7900 7901
7900 8008
7901 8008
7902 7968
7902 8009
7903 7969
7903 8010
7904 8011
7905 7906
7905 8012
7906 8012
7907 7970
7907 8013
7908 7971
7908 8014
7909 8015
7910 7911
7910 8016
7911 8016
7912 7972
7912 8017
7913 7973
7913 8018
7914 8019
7915 7916
7915 8020
7916 8020
7917 7974
7917 8021
7918 7975
7918 8022
7919 8023
7920 7921
7920 8024
7921 8024
7922 7976
7922 8025
7923 7977
7923 8026
7924 8027
7925 7926
7925 8028
7926 8028
7927 7978
7927 8029
7928 7979
7928 8030
7929 8031
7930 7931
7930 8032
7931 8032
7932 7980
7932 8033
7933 7981
7933 8034
7934 8035
7935 7936
7935 8036
7936 8036
7937 7982
7937 8037
7938 7983
7938 8038
7939 8039
7940 7941
7940 8040
7941 8040
7942 7984
7942 8041
7943 7985
7943 8042
7944 8043
7945 7946
7945 8044
7946 8044
7947 7986
7947 8045
7948 7987
7948 8046
7949 8047
7950 7951
7950 8048
7951 8048
7952 7988
7952 8049
7953 7989
7953 8050
7954 8051
7955 7956
7955 8052
7956 8052
7957 7990
7957 8053
7958 7991
7958 8054
7959 8055
7960 7961
7960 7993
7961 7994
7962 7963
7962 7997
7963 7998
7964 7965
7964 8001
7965 8002
7966 7967
7966 8005
7967 8006
7968 7969
7968 8009
7969 8010
7970 7971
7970 8013
7971 8014
7972 7973
7972 8017
7973 8018
7974 7975
7974 8021
7975 8022
7976 7977
7976 8025
7977 8026
7978 7979
7978 8029
7979 8030
7980 7981
7980 8033
7981 8034
7982 7983
7982 8037
7983 8038
7984 7985
7984 8041
7985 8042
7986 7987
7986 8045
7987 8046
7988 7989
7988 8049
7989 8050
7990 7991
7990 8053
7991 8054
7992 8056
7992 8057
7993 8057
7994 8058
7994 8059
7995 8060
7995 8061
7996 8062
7996 8063
7997 8063
7998 8064
7998 8065
7999 8066
7999 8067
8000 8068
8000 8069
8001 8069
8002 8070
8002 8071
8003 8072
8003 8073
8004 8074
8004 8075
8005 8075
8006 8076
8006 8077
8007 8078
8007 8079
8008 8080
8008 8081
8009 8081
8010 8082
8010 8083
8011 8084
8011 8085
8012 8086
8012 8087
8013 8087
8014 8088
8014 8089
8015 8090
8015 8091
8016 8092
8016 8093
8017 8093
8018 8094
8018 8095
8019 8096
8019 8097
8020 8098
8020 8099
8021 8099
8022 8100
8022 8101
8023 8102
8023 8103
8024 8104
8024 8105
8025 8105
8026 8106
8026 8107
8027 8108
8027 8109
8028 8110
8028 8111
8029 8111
8030 8112
8030 8113
8031 8114
8031 8115
8032 8116
8032 8117
8033 8117
8034 8118
8034 8119
8035 8120
8035 8121
8036 8122
8036 8123
8037 8123
8038 8124
8038 8125
8039 8126
8039 8127
8040 8128
8040 8129
8041 8129
8042 8130
8042 8131
8043 8132
8043 8133
8044 8134
8044 8135
8045 8135
8046 8136
8046 8137
8047 8138
8047 8139
8048 8140
8048 8141
8049 8141
8050 8142
8050 8143
8051 8144
8051 8145
8052 8146
8052 8147
8053 8147
8054 8148
8054 8149
8055 8150
8055 8151
8056 8057
8056 8152
8056 8217
8056 8218
8057 8153
8057 8217
8057 8218
8058 8059
8058 8154
8058 8219
8058 8220
8059 8155
8059 8219
8059 8220
8060 8061
8060 8155
8060 8221
8060 8222
8061 8156
8061 8221
8061 8222
8062 8063
8062 8156
8062 8223
8062 8224
8063 8157
8063 8223
8063 8224
8064 8065
8064 8158
8064 8225
8064 8226
8065 8159
8065 8225
8065 8226
8066 8067
8066 8159
8066 8227
8066 8228
8067 8160
8067 8227
8067 8228
8068 8069
8068 8160
8068 8229
8068 8230
8069 8161
8069 8229
8069 8230
8070 8071
8070 8162
8070 8231
8070 8232
8071 8163
8071 8231
8071 8232
8072 8073
8072 8163
8072 8233
8072 8234
8073 8164
8073 8233
8073 8234
8074 8075
8074 8164
8074 8235
8074 8236
8075 8165
8075 8235
8075 8236
8076 8077
8076 8166
8076 8237
8076 8238
8077 8167
8077 8237
8077 8238
8078 8079
8078 8167
8078 8239
8078 8240
8079 8168
8079 8239
8079 8240
8080 8081
8080 8168
8080 8241
8080 8242
8081 8169
8081 8241
8081 8242
8082 8083
8082 8170
8082 8243
8082 8244
8083 8171
8083 8243
8083 8244
8084 8085
8084 8171
8084 8245
8084 8246
8085 8172
8085 8245
8085 8246
8086 8087
8086 8172
8086 8247
8086 8248
8087 8173
8087 8247
8087 8248
8088 8089
8088 8174
8088 8249
8088 8250
8089 8175
8089 8249
8089 8250
8090 8091
8090 8175
8090 8251
8090 8252
8091 8176
8091 8251
8091 8252
8092 8093
8092 8176
8092 8253
8092 8254
8093 8177
8093 8253
8093 8254
8094 8095
8094 8178
8094 8255
8094 8256
8095 8179
8095 8255
8095 8256
8096 8097
8096 8179
8096 8257
8096 8258
8097 8180
8097 8257
8097 8258
8098 8099
8098 8180
8098 8259
8098 8260
8099 8181
8099 8259
8099 8260
8100 8101
8100 8182
8100 8261
8100 8262
8101 8183
8101 8261
8101 8262
8102 8103
8102 8183
8102 8263
8102 8264
8103 8184
8103 8263
8103 8264
8104 8105
8104 8184
8104 8265
8104 8266
8105 8185
8105 8265
8105 8266
8106 8107
8106 8186
8106 8267
8106 8268
8107 8187
8107 8267
8107 8268
8108 8109
8108 8187
8108 8269
8108 8270
8109 8188
8109 8269
8109 8270
8110 8111
8110 8188
8110 8271
8110 8272
8111 8189
8111 8271
8111 8272
8112 8113
8112 8190
8112 8273
8112 8274
8113 8191
8113 8273
8113 8274
8114 8115
8114 8191
8114 8275
8114 8276
8115 8192
8115 8275
8115 8276
8116 8117
8116 8192
8116 8277
8116 8278
8117 8193
8117 8277
8117 8278
8118 8119
8118 8194
8118 8279
8118 8280
8119 8195
8119 8279
8119 8280
8120 8121
8120 8195
8120 8281
8120 8282
8121 8196
8121 8281
8121 8282
8122 8123
8122 8196
8122 8283
8122 8284
8123 8197
8123 8283
8123 8284
8124 8125
8124 8198
8124 8285
8124 8286
8125 8199
8125 8285
8125 8286
8126 8127
8126 8199
8126 8287
8126 8288
8127 8200
8127 8287
8127 8288
8128 8129
8128 8200
8128 8289
8128 8290
8129 8201
8129 8289
8129 8290
8130 8131
8130 8202
8130 8291
8130 8292
8131 8203
8131 8291
8131 8292
8132 8133
8132 8203
8132 8293
8132 8294
8133 8204
8133 8293
8133 8294
8134 8135
8134 8204
8134 8295
8134 8296
8135 8205
8135 8295
8135 8296
8136 8137
8136 8206
8136 8297
8136 8298
8137 8207
8137 8297
8137 8298
8138 8139
8138 8207
8138 8299
8138 8300
8139 8208
8139 8299
8139 8300
8140 8141
8140 8208
8140 8301
8140 8302
8141 8209
8141 8301
8141 8302
8142 8143
8142 8210
8142 8303
8142 8304
8143 8211
8143 8303
8143 8304
8144 8145
8144 8211
8144 8305
8144 8306
8145 8212
8145 8305
8145 8306
8146 8147
8146 8212
8146 8307
8146 8308
8147 8213
8147 8307
8147 8308
8148 8149
8148 8214
8148 8309
8148 8310
8149 8215
8149 8309
8149 8310
8150 8151
8150 8215
8150 8311
8150 8312
8151 8216
8151 8311
8151 8312
8152 8217
8153 8154
8153 8218
8154 8219
8155 8220
8155 8221
8156 8222
8156 8223
8157 8158
8157 8224
8158 8225
8159 8226
8159 8227
8160 8228
8160 8229
8161 8162
8161 8230
8162 8231
8163 8232
8163 8233
8164 8234
8164 8235
8165 8166
8165 8236
8166 8237
8167 8238
8167 8239
8168 8240
8168 8241
8169 8170
8169 8242
8170 8243
8171 8244
8171 8245
8172 8246
8172 8247
8173 8174
8173 8248
8174 8249
8175 8250
8175 8251
8176 8252
8176 8253
8177 8178
8177 8254
8178 8255
8179 8256
8179 8257
8180 8258
8180 8259
8181 8182
8181 8260
8182 8261
8183 8262
8183 8263
8184 8264
8184 8265
8185 8186
8185 8266
8186 8267
8187 8268
8187 8269
8188 8270
8188 8271
8189 8190
8189 8272
8190 8273
8191 8274
8191 8275
8192 8276
8192 8277
8193 8194
8193 8278
8194 8279
8195 8280
8195 8281
8196 8282
8196 8283
8197 8198
8197 8284
8198 8285
8199 8286
8199 8287
8200 8288
8200 8289
8201 8202
8201 8290
8202 8291
8203 8292
8203 8293
8204 8294
8204 8295
8205 8206
8205 8296
8206 8297
8207 8298
8207 8299
8208 8300
8208 8301
8209 8210
8209 8302
8210 8303
8211 8304
8211 8305
8212 8306
8212 8307
8213 8214
8213 8308
8214 8309
8215 8310
8215 8311
8216 8312
8217 8218
8217 8313
8218 8313
8219 8220
8219 8314
8220 8314
8221 8222
8221 8315
8222 8315
8223 8224
8223 8316
8224 8316
8225 8226
8225 8317
8226 8317
8227 8228
8227 8318
8228 8318
8229 8230
8229 8319
8230 8319
8231 8232
8231 8320
8232 8320
8233 8234
8233 8321
8234 8321
8235 8236
8235 8322
8236 8322
8237 8238
8237 8323
8238 8323
8239 8240
8239 8324
8240 8324
8241 8242
8241 8325
8242 8325
8243 8244
8243 8326
8244 8326
8245 8246
8245 8327
8246 8327
8247 8248
8247 8328
8248 8328
8249 8250
8249 8329
8250 8329
8251 8252
8251 8330
8252 8330
8253 8254
8253 8331
8254 8331
8255 8256
8255 8332
8256 8332
8257 8258
8257 8333
8258 8333
8259 8260
8259 8334
8260 8334
8261 8262
8261 8335
8262 8335
8263 8264
8263 8336
8264 8336
8265 8266
8265 8337
8266 8337
8267 8268
8267 8338
8268 8338
8269 8270
8269 8339
8270 8339
8271 8272
8271 8340
8272 8340
8273 8274
8273 8341
8274 8341
8275 8276
8275 8342
8276 8342
8277 8278
8277 8343
8278 8343
8279 8280
8279 8344
8280 8344
8281 8282
8281 8345
8282 8345
8283 8284
8283 8346
8284 8346
8285 8286
8285 8347
8286 8347
8287 8288
8287 8348
8288 8348
8289 8290
8289 8349
8290 8349
8291 8292
8291 8350
8292 8350
8293 8294
8293 8351
8294 8351
8295 8296
8295 8352
8296 8352
8297 8298
8297 8353
8298 8353
8299 8300
8299 8354
8300 8354
8301 8302
8301 8355
8302 8355
8303 8304
8303 8356
8304 8356
8305 8306
8305 8357
8306 8357
8307 8308
8307 8358
8308 8358
8309 8310
8309 8359
8310 8359
8311 8312
8313 8360
8313 8361
8314 8425
8314 8426
8315 8427
8316 8364
8316 8365
8317 8428
8317 8429
8318 8430
8319 8368
8319 8369
8320 8431
8320 8432
8321 8433
8322 8372
8322 8373
8323 8434
8323 8435
8324 8436
8325 8376
8325 8377
8326 8437
8326 8438
8327 8439
8328 8380
8328 8381
8329 8440
8329 8441
8330 8442
8331 8384
8331 8385
8332 8443
8332 8444
8333 8445
8334 8388
8334 8389
8335 8446
8335 8447
8336 8448
8337 8392
8337 8393
8338 8449
8338 8450
8339 8451
8340 8396
8340 8397
8341 8452
8341 8453
8342 8454
8343 8400
8343 8401
8344 8455
8344 8456
8345 8457
8346 8404
8346 8405
8347 8458
8347 8459
8348 8460
8349 8408
8349 8409
8350 8461
8350 8462
8351 8463
8352 8412
8352 8413
8353 8464
8353 8465
8354 8466
8355 8416
8355 8417
8356 8467
8356 8468
8357 8469
8358 8420
8358 8421
8359 8470
8359 8471
8360 8361
8360 8424
8360 8472
8360 8473
8361 8362
8361 8472
8361 8473
8362 8425
8362 8473
8362 8474
8363 8426
8363 8475
8363 8476
8364 8365
8364 8427
8364 8477
8364 8478
8365 8366
8365 8477
8365 8478
8366 8428
8366 8478
8366 8479
8367 8429
8367 8480
8367 8481
8368 8369
8368 8430
8368 8482
8368 8483
8369 8370
8369 8482
8369 8483
8370 8431
8370 8483
8370 8484
8371 8432
8371 8485
8371 8486
8372 8373
8372 8433
8372 8487
8372 8488
8373 8374
8373 8487
8373 8488
8374 8434
8374 8488
8374 8489
8375 8435
8375 8490
8375 8491
8376 8377
8376 8436
8376 8492
8376 8493
8377 8378
8377 8492
8377 8493
8378 8437
8378 8493
8378 8494
8379 8438
8379 8495
8379 8496
8380 8381
8380 8439
8380 8497
8380 8498
8381 8382
8381 8497
8381 8498
8382 8440
8382 8498
8382 8499
8383 8441
8383 8500
8383 8501
8384 8385
8384 8442
8384 8502
8384 8503
8385 8386
8385 8502
8385 8503
8386 8443
8386 8503
8386 8504
8387 8444
8387 8505
8387 8506
8388 8389
8388 8445
8388 8507
8388 8508
8389 8390
8389 8507
8389 8508
8390 8446
8390 8508
8390 8509
8391 8447
8391 8510
8391 8511
8392 8393
8392 8448
8392 8512
8392 8513
8393 8394
8393 8512
8393 8513
8394 8449
8394 8513
8394 8514
8395 8450
8395 8515
8395 8516
8396 8397
8396 8451
8396 8517
8396 8518
8397 8398
8397 8517
8397 8518
8398 8452
8398 8518
8398 8519
8399 8453
8399 8520
8399 8521
8400 8401
8400 8454
8400 8522
8400 8523
8401 8402
8401 8522
8401 8523
8402 8455
8402 8523
8402 8524
8403 8456
8403 8525
8403 8526
8404 8405
8404 8457
8404 8527
8404 8528
8405 8406
8405 8527
8405 8528
8406 8458
8406 8528
8406 8529
8407 8459
8407 8530
8407 8531
8408 8409
8408 8460
8408 8532
8408 8533
8409 8410
8409 8532
8409 8533
8410 8461
8410 8533
8410 8534
8411 8462
8411 8535
8411 8536
8412 8413
8412 8463
8412 8537
8412 8538
8413 8414
8413 8537
8413 8538
8414 8464
8414 8538
8414 8539
8415 8465
8415 8540
8415 8541
8416 8417
8416 8466
8416 8542
8416 8543
8417 8418
8417 8542
8417 8543
8418 8467
8418 8543
8418 8544
8419 8468
8419 8545
8419 8546
8420 8421
8420 8469
8420 8547
8420 8548
8421 8422
8421 8547
8421 8548
8422 8470
8422 8548
8422 8549
8423 8471
8423 8550
8423 8551
8424 8472
8425 8426
8425 8474
8425 8552
8425 8553
8426 8475
8426 8552
8426 8553
8427 8477
8428 8429
8428 8479
8428 8554
8428 8555
8429 8480
8429 8554
8429 8555
8430 8482
8431 8432
8431 8484
8431 8556
8431 8557
8432 8485
8432 8556
8432 8557
8433 8487
8434 8435
8434 8489
8434 8558
8434 8559
8435 8490
8435 8558
8435 8559
8436 8492
8437 8438
8437 8494
8437 8560
8437 8561
8438 8495
8438 8560
8438 8561
8439 8497
8440 8441
8440 8499
8440 8562
8440 8563
8441 8500
8441 8562
8441 8563
8442 8502
8443 8444
8443 8504
8443 8564
8443 8565
8444 8505
8444 8564
8444 8565
8445 8507
8446 8447
8446 8509
8446 8566
8446 8567
8447 8510
8447 8566
8447 8567
8448 8512
8449 8450
8449 8514
8449 8568
8449 8569
8450 8515
8450 8568
8450 8569
8451 8517
8452 8453
8452 8519
8452 8570
8452 8571
8453 8520
8453 8570
8453 8571
8454 8522
8455 8456
8455 8524
8455 8572
8455 8573
8456 8525
8456 8572
8456 8573
8457 8527
8458 8459
8458 8529
8458 8574
8458 8575
8459 8530
8459 8574
8459 8575
8460 8532
8461 8462
8461 8534
8461 8576
8461 8577
8462 8535
8462 8576
8462 8577
8463 8537
8464 8465
8464 8539
8464 8578
8464 8579
8465 8540
8465 8578
8465 8579
8466 8542
8467 8468
8467 8544
8467 8580
8467 8581
8468 8545
8468 8580
8468 8581
8469 8547
8470 8471
8470 8549
8470 8582
8470 8583
8471 8550
8471 8582
8471 8583
8472 8473
8472 8584
8473 8584
8474 8552
8474 8585
8475 8553
8475 8586
8476 8587
8477 8478
8477 8588
8478 8588
8479 8554
8479 8589
8480 8555
8480 8590
8481 8591
8482 8483
8482 8592
8483 8592
8484 8556
8484 8593
8485 8557
8485 8594
8486 8595
8487 8488
8487 8596
8488 8596
8489 8558
8489 8597
8490 8559
8490 8598
8491 8599
8492 8493
8492 8600
8493 8600
8494 8560
8494 8601
8495 8561
8495 8602
8496 8603
8497 8498
8497 8604
8498 8604
8499 8562
8499 8605
8500 8563
8500 8606
8501 8607
8502 8503
8502 8608
8503 8608
8504 8564
8504 8609
8505 8565
8505 8610
8506 8611
8507 8508
8507 8612
8508 8612
8509 8566
8509 8613
8510 8567
8510 8614
8511 8615
8512 8513
8512 8616
8513 8616
8514 8568
8514 8617
8515 8569
8515 8618
8516 8619
8517 8518
8517 8620
8518 8620
8519 8570
8519 8621
8520 8571
8520 8622
8521 8623
8522 8523
8522 8624
8523 8624
8524 8572
8524 8625
8525 8573
8525 8626
8526 8627
8527 8528
8527 8628
8528 8628
8529 8574
8529 8629
8530 8575
8530 8630
8531 8631
8532 8533
8532 8632
8533 8632
8534 8576
8534 8633
8535 8577
8535 8634
8536 8635
8537 8538
8537 8636
8538 8636
8539 8578
8539 8637
8540 8579
8540 8638
8541 8639
8542 8543
8542 8640
8543 8640
8544 8580
8544 8641
8545 8581
8545 8642
8546 8643
8547 8548
8547 8644
8548 8644
8549 8582
8549 8645
8550 8583
8550 8646
8551 8647
8552 8553
8552 8585
8553 8586
8554 8555
8554 8589
8555 8590
8556 8557
8556 8593
8557 8594
8558 8559
8558 8597
8559 8598
8560 8561
8560 8601
8561 8602
8562 8563
8562 8605
8563 8606
8564 8565
8564 8609
8565 8610
8566 8567
8566 8613
8567 8614
8568 8569
8568 8617
8569 8618
8570 8571
8570 8621
8571 8622
8572 8573
8572 8625
8573 8626
8574 8575
8574 8629
8575 8630
8576 8577
8576 8633
8577 8634
8578 8579
8578 8637
8579 8638
8580 8581
8580 8641
8581 8642
8582 8583
8582 8645
8583 8646
8584 8648
8584 8649
8585 8649
8586 8650
8586 8651
8587 8652
8587 8653
8588 8654
8588 8655
8589 8655
8590 8656
8590 8657
8591 8658
8591 8659
8592 8660
8592 8661
8593 8661
8594 8662
8594 8663
8595 8664
8595 8665
8596 8666
8596 8667
8597 8667
8598 8668
8598 8669
8599 8670
8599 8671
8600 8672
8600 8673
8601 8673
8602 8674
8602 8675
8603 8676
8603 8677
8604 8678
8604 8679
8605 8679
8606 8680
8606 8681
8607 8682
8607 8683
8608 8684
8608 8685
8609 8685
8610 8686
8610 8687
8611 8688
8611 8689
8612 8690
8612 8691
8613 8691
8614 8692
8614 8693
8615 8694
8615 8695
8616 8696
8616 8697
8617 8697
8618 8698
8618 8699
8619 8700
8619 8701
8620 8702
8620 8703
8621 8703
8622 8704
8622 8705
8623 8706
8623 8707
8624 8708
8624 8709
8625 8709
8626 8710
8626 8711
8627 8712
8627 8713
8628 8714
8628 8715
8629 8715
8630 8716
8630 8717
8631 8718
8631 8719
8632 8720
8632 8721
8633 8721
8634 8722
8634 8723
8635 8724
8635 8725
8636 8726
8636 8727
8637 8727
8638 8728
8638 8729
8639 8730
8639 8731
8640 8732
8640 8733
8641 8733
8642 8734
8642 8735
8643 8736
8643 8737
8644 8738
8644 8739
8645 8739
8646 8740
8646 8741
8647 8742
8647 8743
8648 8649
8648 8744
8648 8809
8648 8810
8649 8745
8649 8809
8649 8810
8650 8651
8650 8746
8650 8811
8650 8812
8651 8747
8651 8811
8651 8812
8652 8653
8652 8747
8652 8813
8652 8814
8653 8748
8653 8813
8653 8814
8654 8655
8654 8748
8654 8815
8654 8816
8655 8749
8655 8815
8655 8816
8656 8657
8656 8750
8656 8817
8656 8818
8657 8751
8657 8817
8657 8818
8658 8659
8658 8751
8658 8819
8658 8820
8659 8752
8659 8819
8659 8820
8660 8661
8660 8752
8660 8821
8660 8822
8661 8753
8661 8821
8661 8822
8662 8663
8662 8754
8662 8823
8662 8824
8663 8755
8663 8823
8663 8824
8664 8665
8664 8755
8664 8825
8664 8826
8665 8756
8665 8825
8665 8826
8666 8667
8666 8756
8666 8827
8666 8828
8667 8757
8667 8827
8667 8828
8668 8669
8668 8758
8668 8829
8668 8830
8669 8759
8669 8829
8669 8830
8670 8671
8670 8759
8670 8831
8670 8832
8671 8760
8671 8831
8671 8832
8672 8673
8672 8760
8672 8833
8672 8834
8673 8761
8673 8833
8673 8834
8674 8675
8674 8762
8674 8835
8674 8836
8675 8763
8675 8835
8675 8836
8676 8677
8676 8763
8676 8837
8676 8838
8677 8764
8677 8837
8677 8838
8678 8679
8678 8764
8678 8839
8678 8840
8679 8765
8679 8839
8679 8840
8680 8681
8680 8766
8680 8841
8680 8842
8681 8767
8681 8841
8681 8842
8682 8683
8682 8767
8682 8843
8682 8844
8683 8768
8683 8843
8683 8844
8684 8685
8684 8768
8684 8845
8684 8846
8685 8769
8685 8845
8685 8846
8686 8687
8686 8770
8686 8847
8686 8848
8687 8771
8687 8847
8687 8848
8688 8689
8688 8771
8688 8849
8688 8850
8689 8772
8689 8849
8689 8850
8690 8691
8690 8772
8690 8851
8690 8852
8691 8773
8691 8851
8691 8852
8692 8693
8692 8774
8692 8853
8692 8854
8693 8775
8693 8853
8693 8854
8694 8695
8694 8775
8694 8855
8694 8856
8695 8776
8695 8855
8695 8856
8696 8697
8696 8776
8696 8857
8696 8858
8697 8777
8697 8857
8697 8858
8698 8699
8698 8778
8698 8859
8698 8860
8699 8779
8699 8859
8699 8860
8700 8701
8700 8779
8700 8861
8700 8862
8701 8780
8701 8861
8701 8862
8702 8703
8702 8780
8702 8863
8702 8864
8703 8781
8703 8863
8703 8864
8704 8705
8704 8782
8704 8865
8704 8866
8705 8783
8705 8865
8705 8866
8706 8707
8706 8783
8706 8867
8706 8868
8707 8784
8707 8867
8707 8868
8708 8709
8708 8784
8708 8869
8708 8870
8709 8785
8709 8869
8709 8870
8710 8711
8710 8786
8710 8871
8710 8872
8711 8787
8711 8871
8711 8872
8712 8713
8712 8787
8712 8873
8712 8874
8713 8788
8713 8873
8713 8874
8714 8715
8714 8788
8714 8875
8714 8876
8715 8789
8715 8875
8715 8876
8716 8717
8716 8790
8716 8877
8716 8878
8717 8791
8717 8877
8717 8878
8718 8719
8718 8791
8718 8879
8718 8880
8719 8792
8719 8879
8719 8880
8720 8721
8720 8792
8720 8881
8720 8882
8721 8793
8721 8881
8721 8882
8722 8723
8722 8794
8722 8883
8722 8884
8723 8795
8723 8883
8723 8884
8724 8725
8724 8795
8724 8885
8724 8886
8725 8796
8725 8885
8725 8886
8726 8727
8726 8796
8726 8887
8726 8888
8727 8797
8727 8887
8727 8888
8728 8729
8728 8798
8728 8889
8728 8890
8729 8799
8729 8889
8729 8890
8730 8731
8730 8799
8730 8891
8730 8892
8731 8800
8731 8891
8731 8892
8732 8733
8732 8800
8732 8893
8732 8894
8733 8801
8733 8893
8733 8894
8734 8735
8734 8802
8734 8895
8734 8896
8735 8803
8735 8895
8735 8896
8736 8737
8736 8803
8736 8897
8736 8898
8737 8804
8737 8897
8737 8898
8738 8739
8738 8804
8738 8899
8738 8900
8739 8805
8739 8899
8739 8900
8740 8741
8740 8806
8740 8901
8740 8902
8741 8807
8741 8901
8741 8902
8742 8743
8742 8807
8743 8808
8744 8809
8745 8746
8745 8810
8746 8811
8747 8812
8747 8813
8748 8814
8748 8815
8749 8750
8749 8816
8750 8817
8751 8818
8751 8819
8752 8820
8752 8821
8753 8754
8753 8822
8754 8823
8755 8824
8755 8825
8756 8826
8756 8827
8757 8758
8757 8828
8758 8829
8759 8830
8759 8831
8760 8832
8760 8833
8761 8762
8761 8834
8762 8835
8763 8836
8763 8837
8764 8838
8764 8839
8765 8766
8765 8840
8766 8841
8767 8842
8767 8843
8768 8844
8768 8845
8769 8770
8769 8846
8770 8847
8771 8848
8771 8849
8772 8850
8772 8851
8773 8774
8773 8852
8774 8853
8775 8854
8775 8855
8776 8856
8776 8857
8777 8778
8777 8858
8778 8859
8779 8860
8779 8861
8780 8862
8780 8863
8781 8782
8781 8864
8782 8865
8783 8866
8783 8867
8784 8868
8784 8869
8785 8786
8785 8870
8786 8871
8787 8872
8787 8873
8788 8874
8788 8875
8789 8790
8789 8876
8790 8877
8791 8878
8791 8879
8792 8880
8792 8881
8793 8794
8793 8882
8794 8883
8795 8884
8795 8885
8796 8886
8796 8887
8797 8798
8797 8888
8798 8889
8799 8890
8799 8891
8800 8892
8800 8893
8801 8802
8801 8894
8802 8895
8803 8896
8803 8897
8804 8898
8804 8899
8805 8806
8805 8900
8806 8901
8807 8902
8809 8810
8809 8903
8810 8903
8811 8812
8811 8904
8812 8904
8813 8814
8813 8905
8814 8905
8815 8816
8815 8906
8816 8906
8817 8818
8817 8907
8818 8907
8819 8820
8819 8908
8820 8908
8821 8822
8821 8909
8822 8909
8823 8824
8823 8910
8824 8910
8825 8826
8825 8911
8826 8911
8827 8828
8827 8912
8828 8912
8829 8830
8829 8913
8830 8913
8831 8832
8831 8914
8832 8914
8833 8834
8833 8915
8834 8915
8835 8836
8835 8916
8836 8916
8837 8838
8837 8917
8838 8917
8839 8840
8839 8918
8840 8918
8841 8842
8841 8919
8842 8919
8843 8844
8843 8920
8844 8920
8845 8846
8845 8921
8846 8921
8847 8848
8847 8922
8848 8922
8849 8850
8849 8923
8850 8923
8851 8852
8851 8924
8852 8924
8853 8854
8853 8925
8854 8925
8855 8856
8855 8926
8856 8926
8857 8858
8857 8927
8858 8927
8859 8860
8859 8928
8860 8928
8861 8862
8861 8929
8862 8929
8863 8864
8863 8930
8864 8930
8865 8866
8865 8931
8866 8931
8867 8868
8867 8932
8868 8932
8869 8870
8869 8933
8870 8933
8871 8872
8871 8934
8872 8934
8873 8874
8873 8935
8874 8935
8875 8876
8875 8936
8876 8936
8877 8878
8877 8937
8878 8937
8879 8880
8879 8938
8880 8938
8881 8882
8881 8939
8882 8939
8883 8884
8883 8940
8884 8940
8885 8886
8885 8941
8886 8941
8887 8888
8887 8942
8888 8942
8889 8890
8889 8943
8890 8943
8891 8892
8891 8944
8892 8944
8893 8894
8893 8945
8894 8945
8895 8896
8895 8946
8896 8946
8897 8898
8897 8947
8898 8947
8899 8900
8899 8948
8900 8948
8901 8902
8901 8949
8902 8949
8903 8950
8903 8951
8904 9015
8904 9016
8905 9017
8906 8954
8906 8955
8907 9018
8907 9019
8908 9020
8909 8958
8909 8959
8910 9021
8910 9022
8911 9023
8912 8962
8912 8963
8913 9024
8913 9025
8914 9026
8915 8966
8915 8967
8916 9027
8916 9028
8917 9029
8918 8970
8918 8971
8919 9030
8919 9031
8920 9032
8921 8974
8921 8975
8922 9033
8922 9034
8923 9035
8924 8978
8924 8979
8925 9036
8925 9037
8926 9038
8927 8982
8927 8983
8928 9039
8928 9040
8929 9041
8930 8986
8930 8987
8931 9042
8931 9043
8932 9044
8933 8990
8933 8991
8934 9045
8934 9046
8935 9047
8936 8994
8936 8995
8937 9048
8937 9049
8938 9050
8939 8998
8939 8999
8940 9051
8940 9052
8941 9053
8942 9002
8942 9003
8943 9054
8943 9055
8944 9056
8945 9006
8945 9007
8946 9057
8946 9058
8947 9059
8948 9010
8948 9011
8949 9060
8949 9061
8950 8951
8950 9014
8950 9062
8950 9063
8951 8952
8951 9062
8951 9063
8952 9015
8952 9063
8952 9064
8953 9016
8953 9065
8953 9066
8954 8955
8954 9017
8954 9067
8954 9068
8955 8956
8955 9067
8955 9068
8956 9018
8956 9068
8956 9069
8957 9019
8957 9070
8957 9071
8958 8959
8958 9020
8958 9072
8958 9073
8959 8960
8959 9072
8959 9073
8960 9021
8960 9073
8960 9074
8961 9022
8961 9075
8961 9076
8962 8963
8962 9023
8962 9077
8962 9078
8963 8964
8963 9077
8963 9078
8964 9024
8964 9078
8964 9079
8965 9025
8965 9080
8965 9081
8966 8967
8966 9026
8966 9082
8966 9083
8967 8968
8967 9082
8967 9083
8968 9027
8968 9083
8968 9084
8969 9028
8969 9085
8969 9086
8970 8971
8970 9029
8970 9087
8970 9088
8971 8972
8971 9087
8971 9088
8972 9030
8972 9088
8972 9089
8973 9031
8973 9090
8973 9091
8974 8975
8974 9032
8974 9092
8974 9093
8975 8976
8975 9092
8975 9093
8976 9033
8976 9093
8976 9094
8977 9034
8977 9095
8977 9096
8978 8979
8978 9035
8978 9097
8978 9098
8979 8980
8979 9097
8979 9098
8980 9036
8980 9098
8980 9099
8981 9037
8981 9100
8981 9101
8982 8983
8982 9038
8982 9102
8982 9103
8983 8984
8983 9102
8983 9103
8984 9039
8984 9103
8984 9104
8985 9040
8985 9105
8985 9106
8986 8987
8986 9041
8986 9107
8986 9108
8987 8988
8987 9107
8987 9108
8988 9042
8988 9108
8988 9109
8989 9043
8989 9110
8989 9111
8990 8991
8990 9044
8990 9112
8990 9113
8991 8992
8991 9112
8991 9113
8992 9045
8992 9113
8992 9114
8993 9046
8993 9115
8993 9116
8994 8995
8994 9047
8994 9117
8994 9118
8995 8996
8995 9117
8995 9118
8996 9048
8996 9118
8996 9119
8997 9049
8997 9120
8997 9121
8998 8999
8998 9050
8998 9122
8998 9123
8999 9000
8999 9122
8999 9123
9000 9051
9000 9123
9000 9124
9001 9052
9001 9125
9001 9126
9002 9003
9002 9053
9002 9127
9002 9128
9003 9004
9003 9127
9003 9128
9004 9054
9004 9128
9004 9129
9005 9055
9005 9130
9005 9131
9006 9007
9006 9056
9006 9132
9006 9133
9007 9008
9007 9132
9007 9133
9008 9057
9008 9133
9008 9134
9009 9058
9009 9135
9009 9136
9010 9011
9010 9059
9010 9137
9010 9138
9011 9012
9011 9137
9011 9138
9012 9060
9012 9138
9012 9139
9013 9061
9013 9140
9013 9141
9014 9062
9015 9016
9015 9064
9015 9142
9015 9143
9016 9065
9016 9142
9016 9143
9017 9067
9018 9019
9018 9069
9018 9144
9018 9145
9019 9070
9019 9144
9019 9145
9020 9072
9021 9022
9021 9074
9021 9146
9021 9147
9022 9075
9022 9146
9022 9147
9023 9077
9024 9025
9024 9079
9024 9148
9024 9149
9025 9080
9025 9148
9025 9149
9026 9082
9027 9028
9027 9084
9027 9150
9027 9151
9028 9085
9028 9150
9028 9151
9029 9087
9030 9031
9030 9089
9030 9152
9030 9153
9031 9090
9031 9152
9031 9153
9032 9092
9033 9034
9033 9094
9033 9154
9033 9155
9034 9095
9034 9154
9034 9155
9035 9097
9036 9037
9036 9099
9036 9156
9036 9157
9037 9100
9037 9156
9037 9157
9038 9102
9039 9040
9039 9104
9039 9158
9039 9159
9040 9105
9040 9158
9040 9159
9041 9107
9042 9043
9042 9109
9042 9160
9042 9161
9043 9110
9043 9160
9043 9161
9044 9112
9045 9046
9045 9114
9045 9162
9045 9163
9046 9115
9046 9162
9046 9163
9047 9117
9048 9049
9048 9119
9048 9164
9048 9165
9049 9120
9049 9164
9049 9165
9050 9122
9051 9052
9051 9124
9051 9166
9051 9167
9052 9125
9052 9166
9052 9167
9053 9127
9054 9055
9054 9129
9054 9168
9054 9169
9055 9130
9055 9168
9055 9169
9056 9132
9057 9058
9057 9134
9057 9170
9057 9171
9058 9135
9058 9170
9058 9171
9059 9137
9060 9061
9060 9139
9060 9172
9060 9173
9061 9140
9061 9172
9061 9173
9062 9063
9062 9174
9063 9174
9064 9142
9064 9175
9065 9143
9065 9176
9066 9177
9067 9068
9067 9178
9068 9178
9069 9144
9069 9179
9070 9145
9070 9180
9071 9181
9072 9073
9072 9182
9073 9182
9074 9146
9074 9183
9075 9147
9075 9184
9076 9185
9077 9078
9077 9186
9078 9186
9079 9148
9079 9187
9080 9149
9080 9188
9081 9189
9082 9083
9082 9190
9083 9190
9084 9150
9084 9191
9085 9151
9085 9192
9086 9193
9087 9088
9087 9194
9088 9194
9089 9152
9089 9195
9090 9153
9090 9196
9091 9197
9092 9093
9092 9198
9093 9198
9094 9154
9094 9199
9095 9155
9095 9200
9096 9201
9097 9098
9097 9202
9098 9202
9099 9156
9099 9203
9100 9157
9100 9204
9101 9205
9102 9103
9102 9206
9103 9206
9104 9158
9104 9207
9105 9159
9105 9208
9106 9209
9107 9108
9107 9210
9108 9210
9109 9160
9109 9211
9110 9161
9110 9212
9111 9213
9112 9113
9112 9214
9113 9214
9114 9162
9114 9215
9115 9163
9115 9216
9116 9217
9117 9118
9117 9218
9118 9218
9119 9164
9119 9219
9120 9165
9120 9220
9121 9221
9122 9123
9122 9222
9123 9222
9124 9166
9124 9223
9125 9167
9125 9224
9126 9225
9127 9128
9127 9226
9128 9226
9129 9168
9129 9227
9130 9169
9130 9228
9131 9229
9132 9133
9132 9230
9133 9230
9134 9170
9134 9231
9135 9171
9135 9232
9136 9233
9137 9138
9137 9234
9138 9234
9139 9172
9139 9235
9140 9173
9140 9236
9141 9237
9142 9143
9142 9175
9143 9176
9144 9145
9144 9179
9145 9180
9146 9147
9146 9183
9147 9184
9148 9149
9148 9187
9149 9188
9150 9151
9150 9191
9151 9192
9152 9153
9152 9195
9153 9196
9154 9155
9154 9199
9155 9200
9156 9157
9156 9203
9157 9204
9158 9159
9158 9207
9159 9208
9160 9161
9160 9211
9161 9212
9162 9163
9162 9215
9163 9216
9164 9165
9164 9219
9165 9220
9166 9167
9166 9223
9167 9224
9168 9169
9168 9227
9169 9228
9170 9171
9170 9231
9171 9232
9172 9173
9172 9235
9173 9236
9174 9238
9174 9239
9175 9239
9176 9240
9176 9241
9177 9242
9177 9243
9178 9244
9178 9245
9179 9245
9180 9246
9180 9247
9181 9248
9181 9249
9182 9250
9182 9251
9183 9251
9184 9252
9184 9253
9185 9254
9185 9255
9186 9256
9186 9257
9187 9257
9188 9258
9188 9259
9189 9260
9189 9261
9190 9262
9190 9263
9191 9263
9192 9264
9192 9265
9193 9266
9193 9267
9194 9268
9194 9269
9195 9269
9196 9270
9196 9271
9197 9272
9197 9273
9198 9274
9198 9275
9199 9275
9200 9276
9200 9277
9201 9278
9201 9279
9202 9280
9202 9281
9203 9281
9204 9282
9204 9283
9205 9284
9205 9285
9206 9286
9206 9287
9207 9287
9208 9288
9208 9289
9209 9290
9209 9291
9210 9292
9210 9293
9211 9293
9212 9294
9212 9295
9213 9296
9213 9297
9214 9298
9214 9299
9215 9299
9216 9300
9216 9301
9217 9302
9217 9303
9218 9304
9218 9305
9219 9305
9220 9306
9220 9307
9221 9308
9221 9309
9222 9310
9222 9311
9223 9311
9224 9312
9224 9313
9225 9314
9225 9315
9226 9316
9226 9317
9227 9317
9228 9318
9228 9319
9229 9320
9229 9321
9230 9322
9230 9323
9231 9323
9232 9324
9232 9325
9233 9326
9233 9327
9234 9328
9234 9329
9235 9329
9236 9330
9236 9331
9237 9332
9237 9333
9238 9239
9238 9334
9238 9399
9238 9400
9239 9335
9239 9399
9239 9400
9240 9241
9240 9336
9240 9401
9240 9402
9241 9337
9241 9401
9241 9402
9242 9243
9242 9337
9243 9338
9244 9245
9244 9338
9244 9403
9244 9404
9245 9339
9245 9403
9245 9404
9246 9247
9246 9340
9246 9405
9246 9406
9247 9341
9247 9405
9247 9406
9248 9249
9248 9341
9249 9342
9250 9251
9250 9342
9250 9407
9250 9408
9251 9343
9251 9407
9251 9408
9252 9253
9252 9344
9252 9409
9252 9410
9253 9345
9253 9409
9253 9410
9254 9255
9254 9345
9255 9346
9256 9257
9256 9346
9256 9411
9256 9412
9257 9347
9257 9411
9257 9412
9258 9259
9258 9348
9258 9413
9258 9414
9259 9349
9259 9413
9259 9414
9260 9261
9260 9349
9261 9350
9262 9263
9262 9350
9262 9415
9262 9416
9263 9351
9263 9415
9263 9416
9264 9265
9264 9352
9264 9417
9264 9418
9265 9353
9265 9417
9265 9418
9266 9267
9266 9353
9267 9354
9268 9269
9268 9354
9268 9419
9268 9420
9269 9355
9269 9419
9269 9420
9270 9271
9270 9356
9270 9421
9270 9422
9271 9357
9271 9421
9271 9422
9272 9273
9272 9357
9272 9423
9272 9424
9273 9358
9273 9423
9273 9424
9274 9275
9274 9358
9274 9425
9274 9426
9275 9359
9275 9425
9275 9426
9276 9277
9276 9360
9276 9427
9276 9428
9277 9361
9277 9427
9277 9428
9278 9279
9278 9361
9279 9362
9280 9281
9280 9362
9280 9429
9280 9430
9281 9363
9281 9429
9281 9430
9282 9283
9282 9364
9282 9431
9282 9432
9283 9365
9283 9431
9283 9432
9284 9285
9284 9365
9285 9366
9286 9287
9286 9366
9286 9433
9286 9434
9287 9367
9287 9433
9287 9434
9288 9289
9288 9368
9288 9435
9288 9436
9289 9369
9289 9435
9289 9436
9290 9291
9290 9369
9291 9370
9292 9293
9292 9370
9292 9437
9292 9438
9293 9371
9293 9437
9293 9438
9294 9295
9294 9372
9294 9439
9294 9440
9295 9373
9295 9439
9295 9440
9296 9297
9296 9373
9296 9441
9296 9442
9297 9374
9297 9441
9297 9442
9298 9299
9298 9374
9298 9443
9298 9444
9299 9375
9299 9443
9299 9444
9300 9301
9300 9376
9300 9445
9300 9446
9301 9377
9301 9445
9301 9446
9302 9303
9302 9377
9302 9447
9302 9448
9303 9378
9303 9447
9303 9448
9304 9305
9304 9378
9304 9449
9304 9450
9305 9379
9305 9449
9305 9450
9306 9307
9306 9380
9306 9451
9306 9452
9307 9381
9307 9451
9307 9452
9308 9309
9308 9381
9309 9382
9310 9311
9310 9382
9310 9453
9310 9454
9311 9383
9311 9453
9311 9454
9312 9313
9312 9384
9312 9455
9312 9456
9313 9385
9313 9455
9313 9456
9314 9315
9314 9385
9315 9386
9316 9317
9316 9386
9316 9457
9316 9458
9317 9387
9317 9457
9317 9458
9318 9319
9318 9388
9318 9459
9318 9460
9319 9389
9319 9459
9319 9460
9320 9321
9320 9389
9320 9461
9320 9462
9321 9390
9321 9461
9321 9462
9322 9323
9322 9390
9322 9463
9322 9464
9323 9391
9323 9463
9323 9464
9324 9325
9324 9392
9324 9465
9324 9466
9325 9393
9325 9465
9325 9466
9326 9327
9326 9393
9327 9394
9328 9329
9328 9394
9328 9467
9328 9468
9329 9395
9329 9467
9329 9468
9330 9331
9330 9396
9330 9469
9330 9470
9331 9397
9331 9469
9331 9470
9332 9333
9332 9397
9333 9398
9334 9399
9335 9336
9335 9400
9336 9401
9337 9402
9338 9403
9339 9340
9339 9404
9340 9405
9341 9406
9342 9407
9343 9344
9343 9408
9344 9409
9345 9410
9346 9411
9347 9348
9347 9412
9348 9413
9349 9414
9350 9415
9351 9352
9351 9416
9352 9417
9353 9418
9354 9419
9355 9356
9355 9420
9356 9421
9357 9422
9357 9423
9358 9424
9358 9425
9359 9360
9359 9426
9360 9427
9361 9428
9362 9429
9363 9364
9363 9430
9364 9431
9365 9432
9366 9433
9367 9368
9367 9434
9368 9435
9369 9436
9370 9437
9371 9372
9371 9438
9372 9439
9373 9440
9373 9441
9374 9442
9374 9443
9375 9376
9375 9444
9376 9445
9377 9446
9377 9447
9378 9448
9378 9449
9379 9380
9379 9450
9380 9451
9381 9452
9382 9453
9383 9384
9383 9454
9384 9455
9385 9456
9386 9457
9387 9388
9387 9458
9388 9459
9389 9460
9389 9461
9390 9462
9390 9463
9391 9392
9391 9464
9392 9465
9393 9466
9394 9467
9395 9396
9395 9468
9396 9469
9397 9470
9399 9400
9399 9471
9400 9471
9401 9402
9403 9404
9403 9472
9404 9472
9405 9406
9407 9408
9407 9473
9408 9473
9409 9410
9411 9412
9411 9474
9412 9474
9413 9414
9415 9416
9415 9475
9416 9475
9417 9418
9419 9420
9419 9476
9420 9476
9421 9422
9423 9424
9425 9426
9425 9477
9426 9477
9427 9428
9429 9430
9429 9478
9430 9478
9431 9432
9433 9434
9433 9479
9434 9479
9435 9436
9437 9438
9437 9480
9438 9480
9439 9440
9441 9442
9443 9444
9443 9481
9444 9481
9445 9446
9447 9448
9449 9450
9449 9482
9450 9482
9451 9452
9453 9454
9453 9483
9454 9483
9455 9456
9457 9458
9457 9484
9458 9484
9459 9460
9461 9462
9463 9464
9463 9485
9464 9485
9465 9466
9467 9468
9467 9486
9468 9486
9469 9470
