# Factoring MIS graph
n = 1451285183
n1 = 43331
n2 = 33493
k1 = 16
k2 = 16
seed = 9
type = fact_map

vertices: 9498

weights:
0 2.0
1 2.0
2 2.0
3 2.0
4 2.0
5 2.0
6 2.0
7 2.0
8 2.0
9 2.0
10 2.0
11 2.0
12 2.0
13 2.0
14 2.0
15 2.0
16 2.0
17 2.0
18 2.0
19 2.0
20 2.0
21 2.0
22 2.0
23 2.0
24 2.0
25 2.0
26 2.0
27 2.0
28 2.0
29 2.0
30 2.0
31 2.0
32 2.0
33 2.0
34 2.0
35 2.0
36 2.0
37 2.0
38 2.0
39 2.0
40 2.0
41 2.0
42 2.0
43 2.0
44 2.0
45 1.0
46 2.0
47 2.0
48 1.0
49 2.0
50 2.0
51 1.0
52 2.0
53 2.0
54 1.0
55 2.0
56 2.0
57 1.0
58 2.0
59 2.0
60 1.0
61 2.0
62 2.0
63 1.0
64 2.0
65 2.0
66 1.0
67 2.0
68 2.0
69 1.0
70 2.0
71 2.0
72 1.0
73 2.0
74 2.0
75 1.0
76 2.0
77 2.0
78 1.0
79 2.0
80 2.0
81 1.0
82 2.0
83 2.0
84 1.0
85 2.0
86 2.0
87 1.0
88 2.0
89 2.0
90 1.0
91 3.0
92 3.0
93 2.0
94 2.0
95 3.0
96 3.0
97 2.0
98 2.0
99 3.0
100 3.0
101 2.0
102 2.0
103 3.0
104 3.0
105 2.0
106 2.0
107 3.0
108 3.0
109 2.0
110 2.0
111 3.0
112 3.0
113 2.0
114 2.0
115 3.0
116 3.0
117 2.0
118 2.0
119 3.0
120 3.0
121 2.0
122 2.0
123 3.0
124 3.0
125 2.0
126 2.0
127 3.0
128 3.0
129 2.0
130 2.0
131 3.0
132 3.0
133 2.0
134 2.0
135 3.0
136 3.0
137 2.0
138 2.0
139 3.0
140 3.0
141 2.0
142 2.0
143 3.0
144 3.0
145 2.0
146 2.0
147 3.0
148 3.0
149 2.0
150 2.0
151 3.0
152 3.0
153 2.0
154 2.0
155 2.0
156 3.0
157 3.0
158 2.0
159 3.0
160 3.0
161 2.0
162 3.0
163 3.0
164 2.0
165 3.0
166 3.0
167 2.0
168 3.0
169 3.0
170 2.0
171 3.0
172 3.0
173 2.0
174 3.0
175 3.0
176 2.0
177 3.0
178 3.0
179 2.0
180 3.0
181 3.0
182 2.0
183 3.0
184 3.0
185 2.0
186 3.0
187 3.0
188 2.0
189 3.0
190 3.0
191 2.0
192 3.0
193 3.0
194 2.0
195 3.0
196 3.0
197 2.0
198 3.0
199 3.0
200 2.0
201 3.0
202 3.0
203 3.0
204 3.0
205 2.0
206 2.0
207 2.0
208 3.0
209 3.0
210 2.0
211 2.0
212 2.0
213 3.0
214 3.0
215 2.0
216 2.0
217 2.0
218 3.0
219 3.0
220 2.0
221 2.0
222 2.0
223 3.0
224 3.0
225 2.0
226 2.0
227 2.0
228 3.0
229 3.0
230 2.0
231 2.0
232 2.0
233 3.0
234 3.0
235 2.0
236 2.0
237 2.0
238 3.0
239 3.0
240 2.0
241 2.0
242 2.0
243 3.0
244 3.0
245 2.0
246 2.0
247 2.0
248 3.0
249 3.0
250 2.0
251 2.0
252 2.0
253 3.0
254 3.0
255 2.0
256 2.0
257 2.0
258 3.0
259 3.0
260 2.0
261 2.0
262 2.0
263 3.0
264 3.0
265 2.0
266 2.0
267 2.0
268 3.0
269 3.0
270 2.0
271 2.0
272 2.0
273 3.0
274 3.0
275 2.0
276 2.0
277 2.0
278 3.0
279 3.0
280 2.0
281 2.0
282 2.0
283 2.0
284 2.0
285 2.0
286 2.0
287 2.0
288 2.0
289 2.0
290 2.0
291 2.0
292 2.0
293 2.0
294 2.0
295 2.0
296 2.0
297 2.0
298 2.0
299 2.0
300 2.0
301 2.0
302 2.0
303 2.0
304 2.0
305 2.0
306 2.0
307 2.0
308 2.0
309 2.0
310 2.0
311 2.0
312 2.0
313 2.0
314 2.0
315 2.0
316 2.0
317 2.0
318 2.0
319 2.0
320 2.0
321 2.0
322 2.0
323 2.0
324 2.0
325 2.0
326 2.0
327 2.0
328 2.0
329 2.0
330 2.0
331 2.0
332 2.0
333 2.0
334 2.0
335 2.0
336 2.0
337 2.0
338 2.0
339 2.0
340 2.0
341 2.0
342 2.0
343 2.0
344 2.0
345 2.0
346 2.0
347 2.0
348 2.0
349 2.0
350 2.0
351 2.0
352 2.0
353 2.0
354 2.0
355 2.0
356 2.0
357 2.0
358 2.0
359 2.0
360 2.0
361 2.0
362 2.0
363 2.0
364 2.0
365 2.0
366 2.0
367 2.0
368 2.0
369 2.0
370 2.0
371 2.0
372 2.0
373 2.0
374 2.0
375 2.0
376 2.0
377 2.0
378 2.0
379 3.0
380 4.0
381 3.0
382 3.0
383 3.0
384 3.0
385 3.0
386 4.0
387 3.0
388 3.0
389 3.0
390 3.0
391 3.0
392 4.0
393 3.0
394 3.0
395 3.0
396 3.0
397 3.0
398 4.0
399 3.0
400 3.0
401 3.0
402 3.0
403 3.0
404 4.0
405 3.0
406 3.0
407 3.0
408 3.0
409 3.0
410 4.0
411 3.0
412 3.0
413 3.0
414 3.0
415 3.0
416 4.0
417 3.0
418 3.0
419 3.0
420 3.0
421 3.0
422 4.0
423 3.0
424 3.0
425 3.0
426 3.0
427 3.0
428 4.0
429 3.0
430 3.0
431 3.0
432 3.0
433 3.0
434 4.0
435 3.0
436 3.0
437 3.0
438 3.0
439 3.0
440 4.0
441 3.0
442 3.0
443 3.0
444 3.0
445 3.0
446 4.0
447 3.0
448 3.0
449 3.0
450 3.0
451 3.0
452 4.0
453 3.0
454 3.0
455 3.0
456 3.0
457 3.0
458 4.0
459 3.0
460 3.0
461 3.0
462 3.0
463 3.0
464 4.0
465 3.0
466 3.0
467 3.0
468 3.0
469 3.0
470 4.0
471 3.0
472 3.0
473 3.0
474 3.0
475 1.0
476 2.0
477 2.0
478 2.0
479 2.0
480 2.0
481 2.0
482 2.0
483 2.0
484 2.0
485 2.0
486 2.0
487 2.0
488 2.0
489 2.0
490 2.0
491 2.0
492 2.0
493 2.0
494 2.0
495 2.0
496 2.0
497 2.0
498 2.0
499 2.0
500 2.0
501 2.0
502 2.0
503 2.0
504 2.0
505 2.0
506 2.0
507 2.0
508 2.0
509 2.0
510 2.0
511 2.0
512 2.0
513 2.0
514 2.0
515 2.0
516 2.0
517 2.0
518 2.0
519 2.0
520 2.0
521 2.0
522 2.0
523 2.0
524 2.0
525 2.0
526 2.0
527 2.0
528 2.0
529 2.0
530 2.0
531 2.0
532 2.0
533 2.0
534 2.0
535 2.0
536 2.0
537 2.0
538 2.0
539 1.0
540 3.0
541 3.0
542 3.0
543 3.0
544 3.0
545 3.0
546 3.0
547 3.0
548 3.0
549 3.0
550 3.0
551 3.0
552 3.0
553 3.0
554 3.0
555 3.0
556 3.0
557 3.0
558 3.0
559 3.0
560 3.0
561 3.0
562 3.0
563 3.0
564 3.0
565 3.0
566 3.0
567 3.0
568 3.0
569 3.0
570 3.0
571 3.0
572 3.0
573 3.0
574 3.0
575 3.0
576 3.0
577 3.0
578 3.0
579 3.0
580 3.0
581 3.0
582 3.0
583 3.0
584 3.0
585 3.0
586 3.0
587 3.0
588 3.0
589 3.0
590 3.0
591 3.0
592 3.0
593 3.0
594 3.0
595 3.0
596 3.0
597 3.0
598 3.0
599 3.0
600 3.0
601 3.0
602 3.0
603 3.0
604 3.0
605 3.0
606 3.0
607 3.0
608 3.0
609 3.0
610 3.0
611 3.0
612 3.0
613 3.0
614 3.0
615 3.0
616 3.0
617 3.0
618 3.0
619 3.0
620 3.0
621 3.0
622 3.0
623 3.0
624 3.0
625 3.0
626 3.0
627 3.0
628 3.0
629 3.0
630 3.0
631 3.0
632 3.0
633 3.0
634 2.0
635 2.0
636 2.0
637 2.0
638 2.0
639 2.0
640 2.0
641 2.0
642 2.0
643 2.0
644 2.0
645 2.0
646 2.0
647 2.0
648 2.0
649 2.0
650 2.0
651 2.0
652 2.0
653 2.0
654 2.0
655 2.0
656 2.0
657 2.0
658 2.0
659 2.0
660 2.0
661 2.0
662 2.0
663 2.0
664 2.0
665 2.0
666 2.0
667 2.0
668 2.0
669 2.0
670 2.0
671 2.0
672 2.0
673 2.0
674 2.0
675 2.0
676 2.0
677 2.0
678 2.0
679 2.0
680 2.0
681 3.0
682 3.0
683 2.0
684 2.0
685 3.0
686 3.0
687 2.0
688 2.0
689 3.0
690 3.0
691 2.0
692 2.0
693 3.0
694 3.0
695 2.0
696 2.0
697 3.0
698 3.0
699 2.0
700 2.0
701 3.0
702 3.0
703 2.0
704 2.0
705 3.0
706 3.0
707 2.0
708 2.0
709 3.0
710 3.0
711 2.0
712 2.0
713 3.0
714 3.0
715 2.0
716 2.0
717 3.0
718 3.0
719 2.0
720 2.0
721 3.0
722 3.0
723 2.0
724 2.0
725 3.0
726 3.0
727 2.0
728 2.0
729 3.0
730 3.0
731 2.0
732 2.0
733 3.0
734 3.0
735 2.0
736 2.0
737 3.0
738 3.0
739 2.0
740 2.0
741 3.0
742 3.0
743 2.0
744 2.0
745 2.0
746 3.0
747 3.0
748 2.0
749 3.0
750 3.0
751 2.0
752 3.0
753 3.0
754 2.0
755 3.0
756 3.0
757 2.0
758 3.0
759 3.0
760 2.0
761 3.0
762 3.0
763 2.0
764 3.0
765 3.0
766 2.0
767 3.0
768 3.0
769 2.0
770 3.0
771 3.0
772 2.0
773 3.0
774 3.0
775 2.0
776 3.0
777 3.0
778 2.0
779 3.0
780 3.0
781 2.0
782 3.0
783 3.0
784 2.0
785 3.0
786 3.0
787 2.0
788 3.0
789 3.0
790 2.0
791 3.0
792 3.0
793 3.0
794 3.0
795 2.0
796 2.0
797 2.0
798 3.0
799 3.0
800 2.0
801 2.0
802 2.0
803 3.0
804 3.0
805 2.0
806 2.0
807 2.0
808 3.0
809 3.0
810 2.0
811 2.0
812 2.0
813 3.0
814 3.0
815 2.0
816 2.0
817 2.0
818 3.0
819 3.0
820 2.0
821 2.0
822 2.0
823 3.0
824 3.0
825 2.0
826 2.0
827 2.0
828 3.0
829 3.0
830 2.0
831 2.0
832 2.0
833 3.0
834 3.0
835 2.0
836 2.0
837 2.0
838 3.0
839 3.0
840 2.0
841 2.0
842 2.0
843 3.0
844 3.0
845 2.0
846 2.0
847 2.0
848 3.0
849 3.0
850 2.0
851 2.0
852 2.0
853 3.0
854 3.0
855 2.0
856 2.0
857 2.0
858 3.0
859 3.0
860 2.0
861 2.0
862 2.0
863 3.0
864 3.0
865 2.0
866 2.0
867 2.0
868 3.0
869 3.0
870 2.0
871 2.0
872 2.0
873 2.0
874 2.0
875 2.0
876 2.0
877 2.0
878 2.0
879 2.0
880 2.0
881 2.0
882 2.0
883 2.0
884 2.0
885 2.0
886 2.0
887 2.0
888 2.0
889 2.0
890 2.0
891 2.0
892 2.0
893 2.0
894 2.0
895 2.0
896 2.0
897 2.0
898 2.0
899 2.0
900 2.0
901 2.0
902 2.0
903 2.0
904 2.0
905 2.0
906 2.0
907 2.0
908 2.0
909 2.0
910 2.0
911 2.0
912 2.0
913 2.0
914 2.0
915 2.0
916 2.0
917 2.0
918 2.0
919 2.0
920 2.0
921 2.0
922 2.0
923 2.0
924 2.0
925 2.0
926 2.0
927 2.0
928 2.0
929 2.0
930 2.0
931 2.0
932 2.0
933 2.0
934 2.0
935 2.0
936 2.0
937 2.0
938 2.0
939 2.0
940 2.0
941 2.0
942 2.0
943 2.0
944 2.0
945 2.0
946 2.0
947 2.0
948 2.0
949 2.0
950 2.0
951 2.0
952 2.0
953 2.0
954 2.0
955 2.0
956 2.0
957 2.0
958 2.0
959 2.0
960 2.0
961 2.0
962 2.0
963 2.0
964 2.0
965 2.0
966 2.0
967 2.0
968 2.0
969 3.0
970 4.0
971 3.0
972 3.0
973 3.0
974 3.0
975 3.0
976 4.0
977 3.0
978 3.0
979 3.0
980 3.0
981 3.0
982 4.0
983 3.0
984 3.0
985 3.0
986 3.0
987 3.0
988 4.0
989 3.0
990 3.0
991 3.0
992 3.0
993 3.0
994 4.0
995 3.0
996 3.0
997 3.0
998 3.0
999 3.0
1000 4.0
1001 3.0
1002 3.0
1003 3.0
1004 3.0
1005 3.0
1006 4.0
1007 3.0
1008 3.0
1009 3.0
1010 3.0
1011 3.0
1012 4.0
1013 3.0
1014 3.0
1015 3.0
1016 3.0
1017 3.0
1018 4.0
1019 3.0
1020 3.0
1021 3.0
1022 3.0
1023 3.0
1024 4.0
1025 3.0
1026 3.0
1027 3.0
1028 3.0
1029 3.0
1030 4.0
1031 3.0
1032 3.0
1033 3.0
1034 3.0
1035 3.0
1036 4.0
1037 3.0
1038 3.0
1039 3.0
1040 3.0
1041 3.0
1042 4.0
1043 3.0
1044 3.0
1045 3.0
1046 3.0
1047 3.0
1048 4.0
1049 3.0
1050 3.0
1051 3.0
1052 3.0
1053 3.0
1054 4.0
1055 3.0
1056 3.0
1057 3.0
1058 3.0
1059 3.0
1060 4.0
1061 3.0
1062 3.0
1063 3.0
1064 3.0
1065 1.0
1066 2.0
1067 2.0
1068 2.0
1069 2.0
1070 2.0
1071 2.0
1072 2.0
1073 2.0
1074 2.0
1075 2.0
1076 2.0
1077 2.0
1078 2.0
1079 2.0
1080 2.0
1081 2.0
1082 2.0
1083 2.0
1084 2.0
1085 2.0
1086 2.0
1087 2.0
1088 2.0
1089 2.0
1090 2.0
1091 2.0
1092 2.0
1093 2.0
1094 2.0
1095 2.0
1096 2.0
1097 2.0
1098 2.0
1099 2.0
1100 2.0
1101 2.0
1102 2.0
1103 2.0
1104 2.0
1105 2.0
1106 2.0
1107 2.0
1108 2.0
1109 2.0
1110 2.0
1111 2.0
1112 2.0
1113 2.0
1114 2.0
1115 2.0
1116 2.0
1117 2.0
1118 2.0
1119 2.0
1120 2.0
1121 2.0
1122 2.0
1123 2.0
1124 2.0
1125 2.0
1126 2.0
1127 2.0
1128 2.0
1129 1.0
1130 3.0
1131 3.0
1132 3.0
1133 3.0
1134 3.0
1135 3.0
1136 3.0
1137 3.0
1138 3.0
1139 3.0
1140 3.0
1141 3.0
1142 3.0
1143 3.0
1144 3.0
1145 3.0
1146 3.0
1147 3.0
1148 3.0
1149 3.0
1150 3.0
1151 3.0
1152 3.0
1153 3.0
1154 3.0
1155 3.0
1156 3.0
1157 3.0
1158 3.0
1159 3.0
1160 3.0
1161 3.0
1162 3.0
1163 3.0
1164 3.0
1165 3.0
1166 3.0
1167 3.0
1168 3.0
1169 3.0
1170 3.0
1171 3.0
1172 3.0
1173 3.0
1174 3.0
1175 3.0
1176 3.0
1177 3.0
1178 3.0
1179 3.0
1180 3.0
1181 3.0
1182 3.0
1183 3.0
1184 3.0
1185 3.0
1186 3.0
1187 3.0
1188 3.0
1189 3.0
1190 3.0
1191 3.0
1192 3.0
1193 3.0
1194 3.0
1195 3.0
1196 3.0
1197 3.0
1198 3.0
1199 3.0
1200 3.0
1201 3.0
1202 3.0
1203 3.0
1204 3.0
1205 3.0
1206 3.0
1207 3.0
1208 3.0
1209 3.0
1210 3.0
1211 3.0
1212 3.0
1213 3.0
1214 3.0
1215 3.0
1216 3.0
1217 3.0
1218 3.0
1219 3.0
1220 3.0
1221 3.0
1222 3.0
1223 3.0
1224 3.0
1225 3.0
1226 2.0
1227 2.0
1228 2.0
1229 2.0
1230 2.0
1231 2.0
1232 2.0
1233 2.0
1234 2.0
1235 2.0
1236 2.0
1237 2.0
1238 2.0
1239 2.0
1240 2.0
1241 2.0
1242 2.0
1243 2.0
1244 2.0
1245 2.0
1246 2.0
1247 2.0
1248 2.0
1249 2.0
1250 2.0
1251 2.0
1252 2.0
1253 2.0
1254 2.0
1255 2.0
1256 2.0
1257 2.0
1258 2.0
1259 2.0
1260 2.0
1261 2.0
1262 2.0
1263 2.0
1264 2.0
1265 2.0
1266 2.0
1267 2.0
1268 2.0
1269 2.0
1270 2.0
1271 2.0
1272 2.0
1273 3.0
1274 3.0
1275 2.0
1276 2.0
1277 3.0
1278 3.0
1279 2.0
1280 2.0
1281 3.0
1282 3.0
1283 2.0
1284 2.0
1285 3.0
1286 3.0
1287 2.0
1288 2.0
1289 3.0
1290 3.0
1291 2.0
1292 2.0
1293 3.0
1294 3.0
1295 2.0
1296 2.0
1297 3.0
1298 3.0
1299 2.0
1300 2.0
1301 3.0
1302 3.0
1303 2.0
1304 2.0
1305 3.0
1306 3.0
1307 2.0
1308 2.0
1309 3.0
1310 3.0
1311 2.0
1312 2.0
1313 3.0
1314 3.0
1315 2.0
1316 2.0
1317 3.0
1318 3.0
1319 2.0
1320 2.0
1321 3.0
1322 3.0
1323 2.0
1324 2.0
1325 3.0
1326 3.0
1327 2.0
1328 2.0
1329 3.0
1330 3.0
1331 2.0
1332 2.0
1333 3.0
1334 3.0
1335 2.0
1336 2.0
1337 2.0
1338 3.0
1339 3.0
1340 2.0
1341 3.0
1342 3.0
1343 2.0
1344 3.0
1345 3.0
1346 2.0
1347 3.0
1348 3.0
1349 2.0
1350 3.0
1351 3.0
1352 2.0
1353 3.0
1354 3.0
1355 2.0
1356 3.0
1357 3.0
1358 2.0
1359 3.0
1360 3.0
1361 2.0
1362 3.0
1363 3.0
1364 2.0
1365 3.0
1366 3.0
1367 2.0
1368 3.0
1369 3.0
1370 2.0
1371 3.0
1372 3.0
1373 2.0
1374 3.0
1375 3.0
1376 2.0
1377 3.0
1378 3.0
1379 2.0
1380 3.0
1381 3.0
1382 2.0
1383 3.0
1384 3.0
1385 3.0
1386 3.0
1387 2.0
1388 2.0
1389 2.0
1390 3.0
1391 3.0
1392 2.0
1393 2.0
1394 2.0
1395 3.0
1396 3.0
1397 2.0
1398 2.0
1399 2.0
1400 3.0
1401 3.0
1402 2.0
1403 2.0
1404 2.0
1405 3.0
1406 3.0
1407 2.0
1408 2.0
1409 2.0
1410 3.0
1411 3.0
1412 2.0
1413 2.0
1414 2.0
1415 3.0
1416 3.0
1417 2.0
1418 2.0
1419 2.0
1420 3.0
1421 3.0
1422 2.0
1423 2.0
1424 2.0
1425 3.0
1426 3.0
1427 2.0
1428 2.0
1429 2.0
1430 3.0
1431 3.0
1432 2.0
1433 2.0
1434 2.0
1435 3.0
1436 3.0
1437 2.0
1438 2.0
1439 2.0
1440 3.0
1441 3.0
1442 2.0
1443 2.0
1444 2.0
1445 3.0
1446 3.0
1447 2.0
1448 2.0
1449 2.0
1450 3.0
1451 3.0
1452 2.0
1453 2.0
1454 2.0
1455 3.0
1456 3.0
1457 2.0
1458 2.0
1459 2.0
1460 3.0
1461 3.0
1462 2.0
1463 2.0
1464 2.0
1465 2.0
1466 2.0
1467 2.0
1468 2.0
1469 2.0
1470 2.0
1471 2.0
1472 2.0
1473 2.0
1474 2.0
1475 2.0
1476 2.0
1477 2.0
1478 2.0
1479 2.0
1480 2.0
1481 2.0
1482 2.0
1483 2.0
1484 2.0
1485 2.0
1486 2.0
1487 2.0
1488 2.0
1489 2.0
1490 2.0
1491 2.0
1492 2.0
1493 2.0
1494 2.0
1495 2.0
1496 2.0
1497 2.0
1498 2.0
1499 2.0
1500 2.0
1501 2.0
1502 2.0
1503 2.0
1504 2.0
1505 2.0
1506 2.0
1507 2.0
1508 2.0
1509 2.0
1510 2.0
1511 2.0
1512 2.0
1513 2.0
1514 2.0
1515 2.0
1516 2.0
1517 2.0
1518 2.0
1519 2.0
1520 2.0
1521 2.0
1522 2.0
1523 2.0
1524 2.0
1525 2.0
1526 2.0
1527 2.0
1528 2.0
1529 2.0
1530 2.0
1531 2.0
1532 2.0
1533 2.0
1534 2.0
1535 2.0
1536 2.0
1537 2.0
1538 2.0
1539 2.0
1540 2.0
1541 2.0
1542 2.0
1543 2.0
1544 2.0
1545 2.0
1546 2.0
1547 2.0
1548 2.0
1549 2.0
1550 2.0
1551 2.0
1552 2.0
1553 2.0
1554 2.0
1555 2.0
1556 2.0
1557 2.0
1558 2.0
1559 2.0
1560 2.0
1561 3.0
1562 4.0
1563 3.0
1564 3.0
1565 3.0
1566 3.0
1567 3.0
1568 4.0
1569 3.0
1570 3.0
1571 3.0
1572 3.0
1573 3.0
1574 4.0
1575 3.0
1576 3.0
1577 3.0
1578 3.0
1579 3.0
1580 4.0
1581 3.0
1582 3.0
1583 3.0
1584 3.0
1585 3.0
1586 4.0
1587 3.0
1588 3.0
1589 3.0
1590 3.0
1591 3.0
1592 4.0
1593 3.0
1594 3.0
1595 3.0
1596 3.0
1597 3.0
1598 4.0
1599 3.0
1600 3.0
1601 3.0
1602 3.0
1603 3.0
1604 4.0
1605 3.0
1606 3.0
1607 3.0
1608 3.0
1609 3.0
1610 4.0
1611 3.0
1612 3.0
1613 3.0
1614 3.0
1615 3.0
1616 4.0
1617 3.0
1618 3.0
1619 3.0
1620 3.0
1621 3.0
1622 4.0
1623 3.0
1624 3.0
1625 3.0
1626 3.0
1627 3.0
1628 4.0
1629 3.0
1630 3.0
1631 3.0
1632 3.0
1633 3.0
1634 4.0
1635 3.0
1636 3.0
1637 3.0
1638 3.0
1639 3.0
1640 4.0
1641 3.0
1642 3.0
1643 3.0
1644 3.0
1645 3.0
1646 4.0
1647 3.0
1648 3.0
1649 3.0
1650 3.0
1651 3.0
1652 4.0
1653 3.0
1654 3.0
1655 3.0
1656 3.0
1657 1.0
1658 2.0
1659 2.0
1660 2.0
1661 2.0
1662 2.0
1663 2.0
1664 2.0
1665 2.0
1666 2.0
1667 2.0
1668 2.0
1669 2.0
1670 2.0
1671 2.0
1672 2.0
1673 2.0
1674 2.0
1675 2.0
1676 2.0
1677 2.0
1678 2.0
1679 2.0
1680 2.0
1681 2.0
1682 2.0
1683 2.0
1684 2.0
1685 2.0
1686 2.0
1687 2.0
1688 2.0
1689 2.0
1690 2.0
1691 2.0
1692 2.0
1693 2.0
1694 2.0
1695 2.0
1696 2.0
1697 2.0
1698 2.0
1699 2.0
1700 2.0
1701 2.0
1702 2.0
1703 2.0
1704 2.0
1705 2.0
1706 2.0
1707 2.0
1708 2.0
1709 2.0
1710 2.0
1711 2.0
1712 2.0
1713 2.0
1714 2.0
1715 2.0
1716 2.0
1717 2.0
1718 2.0
1719 2.0
1720 2.0
1721 1.0
1722 3.0
1723 3.0
1724 3.0
1725 3.0
1726 3.0
1727 3.0
1728 3.0
1729 3.0
1730 3.0
1731 3.0
1732 3.0
1733 3.0
1734 3.0
1735 3.0
1736 3.0
1737 3.0
1738 3.0
1739 3.0
1740 3.0
1741 3.0
1742 3.0
1743 3.0
1744 3.0
1745 3.0
1746 3.0
1747 3.0
1748 3.0
1749 3.0
1750 3.0
1751 3.0
1752 3.0
1753 3.0
1754 3.0
1755 3.0
1756 3.0
1757 3.0
1758 3.0
1759 3.0
1760 3.0
1761 3.0
1762 3.0
1763 3.0
1764 3.0
1765 3.0
1766 3.0
1767 3.0
1768 3.0
1769 3.0
1770 3.0
1771 3.0
1772 3.0
1773 3.0
1774 3.0
1775 3.0
1776 3.0
1777 3.0
1778 3.0
1779 3.0
1780 3.0
1781 3.0
1782 3.0
1783 3.0
1784 3.0
1785 3.0
1786 3.0
1787 3.0
1788 3.0
1789 3.0
1790 3.0
1791 3.0
1792 3.0
1793 3.0
1794 3.0
1795 3.0
1796 3.0
1797 3.0
1798 3.0
1799 3.0
1800 3.0
1801 3.0
1802 3.0
1803 3.0
1804 3.0
1805 3.0
1806 3.0
1807 3.0
1808 3.0
1809 3.0
1810 3.0
1811 3.0
1812 3.0
1813 3.0
1814 3.0
1815 3.0
1816 2.0
1817 2.0
1818 2.0
1819 2.0
1820 2.0
1821 2.0
1822 2.0
1823 2.0
1824 2.0
1825 2.0
1826 2.0
1827 2.0
1828 2.0
1829 2.0
1830 2.0
1831 2.0
1832 2.0
1833 2.0
1834 2.0
1835 2.0
1836 2.0
1837 2.0
1838 2.0
1839 2.0
1840 2.0
1841 2.0
1842 2.0
1843 2.0
1844 2.0
1845 2.0
1846 2.0
1847 2.0
1848 2.0
1849 2.0
1850 2.0
1851 2.0
1852 2.0
1853 2.0
1854 2.0
1855 2.0
1856 2.0
1857 2.0
1858 2.0
1859 2.0
1860 2.0
1861 2.0
1862 2.0
1863 3.0
1864 3.0
1865 2.0
1866 2.0
1867 3.0
1868 3.0
1869 2.0
1870 2.0
1871 3.0
1872 3.0
1873 2.0
1874 2.0
1875 3.0
1876 3.0
1877 2.0
1878 2.0
1879 3.0
1880 3.0
1881 2.0
1882 2.0
1883 3.0
1884 3.0
1885 2.0
1886 2.0
1887 3.0
1888 3.0
1889 2.0
1890 2.0
1891 3.0
1892 3.0
1893 2.0
1894 2.0
1895 3.0
1896 3.0
1897 2.0
1898 2.0
1899 3.0
1900 3.0
1901 2.0
1902 2.0
1903 3.0
1904 3.0
1905 2.0
1906 2.0
1907 3.0
1908 3.0
1909 2.0
1910 2.0
1911 3.0
1912 3.0
1913 2.0
1914 2.0
1915 3.0
1916 3.0
1917 2.0
1918 2.0
1919 3.0
1920 3.0
1921 2.0
1922 2.0
1923 3.0
1924 3.0
1925 2.0
1926 2.0
1927 2.0
1928 3.0
1929 3.0
1930 2.0
1931 3.0
1932 3.0
1933 2.0
1934 3.0
1935 3.0
1936 2.0
1937 3.0
1938 3.0
1939 2.0
1940 3.0
1941 3.0
1942 2.0
1943 3.0
1944 3.0
1945 2.0
1946 3.0
1947 3.0
1948 2.0
1949 3.0
1950 3.0
1951 2.0
1952 3.0
1953 3.0
1954 2.0
1955 3.0
1956 3.0
1957 2.0
1958 3.0
1959 3.0
1960 2.0
1961 3.0
1962 3.0
1963 2.0
1964 3.0
1965 3.0
1966 2.0
1967 3.0
1968 3.0
1969 2.0
1970 3.0
1971 3.0
1972 2.0
1973 3.0
1974 3.0
1975 3.0
1976 3.0
1977 2.0
1978 2.0
1979 2.0
1980 3.0
1981 3.0
1982 2.0
1983 2.0
1984 2.0
1985 3.0
1986 3.0
1987 2.0
1988 2.0
1989 2.0
1990 3.0
1991 3.0
1992 2.0
1993 2.0
1994 2.0
1995 3.0
1996 3.0
1997 2.0
1998 2.0
1999 2.0
2000 3.0
2001 3.0
2002 2.0
2003 2.0
2004 2.0
2005 3.0
2006 3.0
2007 2.0
2008 2.0
2009 2.0
2010 3.0
2011 3.0
2012 2.0
2013 2.0
2014 2.0
2015 3.0
2016 3.0
2017 2.0
2018 2.0
2019 2.0
2020 3.0
2021 3.0
2022 2.0
2023 2.0
2024 2.0
2025 3.0
2026 3.0
2027 2.0
2028 2.0
2029 2.0
2030 3.0
2031 3.0
2032 2.0
2033 2.0
2034 2.0
2035 3.0
2036 3.0
2037 2.0
2038 2.0
2039 2.0
2040 3.0
2041 3.0
2042 2.0
2043 2.0
2044 2.0
2045 3.0
2046 3.0
2047 2.0
2048 2.0
2049 2.0
2050 3.0
2051 3.0
2052 2.0
2053 2.0
2054 2.0
2055 2.0
2056 2.0
2057 2.0
2058 2.0
2059 2.0
2060 2.0
2061 2.0
2062 2.0
2063 2.0
2064 2.0
2065 2.0
2066 2.0
2067 2.0
2068 2.0
2069 2.0
2070 2.0
2071 2.0
2072 2.0
2073 2.0
2074 2.0
2075 2.0
2076 2.0
2077 2.0
2078 2.0
2079 2.0
2080 2.0
2081 2.0
2082 2.0
2083 2.0
2084 2.0
2085 2.0
2086 2.0
2087 2.0
2088 2.0
2089 2.0
2090 2.0
2091 2.0
2092 2.0
2093 2.0
2094 2.0
2095 2.0
2096 2.0
2097 2.0
2098 2.0
2099 2.0
2100 2.0
2101 2.0
2102 2.0
2103 2.0
2104 2.0
2105 2.0
2106 2.0
2107 2.0
2108 2.0
2109 2.0
2110 2.0
2111 2.0
2112 2.0
2113 2.0
2114 2.0
2115 2.0
2116 2.0
2117 2.0
2118 2.0
2119 2.0
2120 2.0
2121 2.0
2122 2.0
2123 2.0
2124 2.0
2125 2.0
2126 2.0
2127 2.0
2128 2.0
2129 2.0
2130 2.0
2131 2.0
2132 2.0
2133 2.0
2134 2.0
2135 2.0
2136 2.0
2137 2.0
2138 2.0
2139 2.0
2140 2.0
2141 2.0
2142 2.0
2143 2.0
2144 2.0
2145 2.0
2146 2.0
2147 2.0
2148 2.0
2149 2.0
2150 2.0
2151 3.0
2152 4.0
2153 3.0
2154 3.0
2155 3.0
2156 3.0
2157 3.0
2158 4.0
2159 3.0
2160 3.0
2161 3.0
2162 3.0
2163 3.0
2164 4.0
2165 3.0
2166 3.0
2167 3.0
2168 3.0
2169 3.0
2170 4.0
2171 3.0
2172 3.0
2173 3.0
2174 3.0
2175 3.0
2176 4.0
2177 3.0
2178 3.0
2179 3.0
2180 3.0
2181 3.0
2182 4.0
2183 3.0
2184 3.0
2185 3.0
2186 3.0
2187 3.0
2188 4.0
2189 3.0
2190 3.0
2191 3.0
2192 3.0
2193 3.0
2194 4.0
2195 3.0
2196 3.0
2197 3.0
2198 3.0
2199 3.0
2200 4.0
2201 3.0
2202 3.0
2203 3.0
2204 3.0
2205 3.0
2206 4.0
2207 3.0
2208 3.0
2209 3.0
2210 3.0
2211 3.0
2212 4.0
2213 3.0
2214 3.0
2215 3.0
2216 3.0
2217 3.0
2218 4.0
2219 3.0
2220 3.0
2221 3.0
2222 3.0
2223 3.0
2224 4.0
2225 3.0
2226 3.0
2227 3.0
2228 3.0
2229 3.0
2230 4.0
2231 3.0
2232 3.0
2233 3.0
2234 3.0
2235 3.0
2236 4.0
2237 3.0
2238 3.0
2239 3.0
2240 3.0
2241 3.0
2242 4.0
2243 3.0
2244 3.0
2245 3.0
2246 3.0
2247 1.0
2248 2.0
2249 2.0
2250 2.0
2251 2.0
2252 2.0
2253 2.0
2254 2.0
2255 2.0
2256 2.0
2257 2.0
2258 2.0
2259 2.0
2260 2.0
2261 2.0
2262 2.0
2263 2.0
2264 2.0
2265 2.0
2266 2.0
2267 2.0
2268 2.0
2269 2.0
2270 2.0
2271 2.0
2272 2.0
2273 2.0
2274 2.0
2275 2.0
2276 2.0
2277 2.0
2278 2.0
2279 2.0
2280 2.0
2281 2.0
2282 2.0
2283 2.0
2284 2.0
2285 2.0
2286 2.0
2287 2.0
2288 2.0
2289 2.0
2290 2.0
2291 2.0
2292 2.0
2293 2.0
2294 2.0
2295 2.0
2296 2.0
2297 2.0
2298 2.0
2299 2.0
2300 2.0
2301 2.0
2302 2.0
2303 2.0
2304 2.0
2305 2.0
2306 2.0
2307 2.0
2308 2.0
2309 2.0
2310 2.0
2311 1.0
2312 3.0
2313 3.0
2314 3.0
2315 3.0
2316 3.0
2317 3.0
2318 3.0
2319 3.0
2320 3.0
2321 3.0
2322 3.0
2323 3.0
2324 3.0
2325 3.0
2326 3.0
2327 3.0
2328 3.0
2329 3.0
2330 3.0
2331 3.0
2332 3.0
2333 3.0
2334 3.0
2335 3.0
2336 3.0
2337 3.0
2338 3.0
2339 3.0
2340 3.0
2341 3.0
2342 3.0
2343 3.0
2344 3.0
2345 3.0
2346 3.0
2347 3.0
2348 3.0
2349 3.0
2350 3.0
2351 3.0
2352 3.0
2353 3.0
2354 3.0
2355 3.0
2356 3.0
2357 3.0
2358 3.0
2359 3.0
2360 3.0
2361 3.0
2362 3.0
2363 3.0
2364 3.0
2365 3.0
2366 3.0
2367 3.0
2368 3.0
2369 3.0
2370 3.0
2371 3.0
2372 3.0
2373 3.0
2374 3.0
2375 3.0
2376 3.0
2377 3.0
2378 3.0
2379 3.0
2380 3.0
2381 3.0
2382 3.0
2383 3.0
2384 3.0
2385 3.0
2386 3.0
2387 3.0
2388 3.0
2389 3.0
2390 3.0
2391 3.0
2392 3.0
2393 3.0
2394 3.0
2395 3.0
2396 3.0
2397 3.0
2398 3.0
2399 3.0
2400 3.0
2401 3.0
2402 3.0
2403 3.0
2404 3.0
2405 3.0
2406 3.0
2407 3.0
2408 2.0
2409 2.0
2410 2.0
2411 2.0
2412 2.0
2413 2.0
2414 2.0
2415 2.0
2416 2.0
2417 2.0
2418 2.0
2419 2.0
2420 2.0
2421 2.0
2422 2.0
2423 2.0
2424 2.0
2425 2.0
2426 2.0
2427 2.0
2428 2.0
2429 2.0
2430 2.0
2431 2.0
2432 2.0
2433 2.0
2434 2.0
2435 2.0
2436 2.0
2437 2.0
2438 2.0
2439 2.0
2440 2.0
2441 2.0
2442 2.0
2443 2.0
2444 2.0
2445 2.0
2446 2.0
2447 2.0
2448 2.0
2449 2.0
2450 2.0
2451 2.0
2452 2.0
2453 2.0
2454 2.0
2455 3.0
2456 3.0
2457 2.0
2458 2.0
2459 3.0
2460 3.0
2461 2.0
2462 2.0
2463 3.0
2464 3.0
2465 2.0
2466 2.0
2467 3.0
2468 3.0
2469 2.0
2470 2.0
2471 3.0
2472 3.0
2473 2.0
2474 2.0
2475 3.0
2476 3.0
2477 2.0
2478 2.0
2479 3.0
2480 3.0
2481 2.0
2482 2.0
2483 3.0
2484 3.0
2485 2.0
2486 2.0
2487 3.0
2488 3.0
2489 2.0
2490 2.0
2491 3.0
2492 3.0
2493 2.0
2494 2.0
2495 3.0
2496 3.0
2497 2.0
2498 2.0
2499 3.0
2500 3.0
2501 2.0
2502 2.0
2503 3.0
2504 3.0
2505 2.0
2506 2.0
2507 3.0
2508 3.0
2509 2.0
2510 2.0
2511 3.0
2512 3.0
2513 2.0
2514 2.0
2515 3.0
2516 3.0
2517 2.0
2518 2.0
2519 2.0
2520 3.0
2521 3.0
2522 2.0
2523 3.0
2524 3.0
2525 2.0
2526 3.0
2527 3.0
2528 2.0
2529 3.0
2530 3.0
2531 2.0
2532 3.0
2533 3.0
2534 2.0
2535 3.0
2536 3.0
2537 2.0
2538 3.0
2539 3.0
2540 2.0
2541 3.0
2542 3.0
2543 2.0
2544 3.0
2545 3.0
2546 2.0
2547 3.0
2548 3.0
2549 2.0
2550 3.0
2551 3.0
2552 2.0
2553 3.0
2554 3.0
2555 2.0
2556 3.0
2557 3.0
2558 2.0
2559 3.0
2560 3.0
2561 2.0
2562 3.0
2563 3.0
2564 2.0
2565 3.0
2566 3.0
2567 3.0
2568 3.0
2569 2.0
2570 2.0
2571 2.0
2572 3.0
2573 3.0
2574 2.0
2575 2.0
2576 2.0
2577 3.0
2578 3.0
2579 2.0
2580 2.0
2581 2.0
2582 3.0
2583 3.0
2584 2.0
2585 2.0
2586 2.0
2587 3.0
2588 3.0
2589 2.0
2590 2.0
2591 2.0
2592 3.0
2593 3.0
2594 2.0
2595 2.0
2596 2.0
2597 3.0
2598 3.0
2599 2.0
2600 2.0
2601 2.0
2602 3.0
2603 3.0
2604 2.0
2605 2.0
2606 2.0
2607 3.0
2608 3.0
2609 2.0
2610 2.0
2611 2.0
2612 3.0
2613 3.0
2614 2.0
2615 2.0
2616 2.0
2617 3.0
2618 3.0
2619 2.0
2620 2.0
2621 2.0
2622 3.0
2623 3.0
2624 2.0
2625 2.0
2626 2.0
2627 3.0
2628 3.0
2629 2.0
2630 2.0
2631 2.0
2632 3.0
2633 3.0
2634 2.0
2635 2.0
2636 2.0
2637 3.0
2638 3.0
2639 2.0
2640 2.0
2641 2.0
2642 3.0
2643 3.0
2644 2.0
2645 2.0
2646 2.0
2647 2.0
2648 2.0
2649 2.0
2650 2.0
2651 2.0
2652 2.0
2653 2.0
2654 2.0
2655 2.0
2656 2.0
2657 2.0
2658 2.0
2659 2.0
2660 2.0
2661 2.0
2662 2.0
2663 2.0
2664 2.0
2665 2.0
2666 2.0
2667 2.0
2668 2.0
2669 2.0
2670 2.0
2671 2.0
2672 2.0
2673 2.0
2674 2.0
2675 2.0
2676 2.0
2677 2.0
2678 2.0
2679 2.0
2680 2.0
2681 2.0
2682 2.0
2683 2.0
2684 2.0
2685 2.0
2686 2.0
2687 2.0
2688 2.0
2689 2.0
2690 2.0
2691 2.0
2692 2.0
2693 2.0
2694 2.0
2695 2.0
2696 2.0
2697 2.0
2698 2.0
2699 2.0
2700 2.0
2701 2.0
2702 2.0
2703 2.0
2704 2.0
2705 2.0
2706 2.0
2707 2.0
2708 2.0
2709 2.0
2710 2.0
2711 2.0
2712 2.0
2713 2.0
2714 2.0
2715 2.0
2716 2.0
2717 2.0
2718 2.0
2719 2.0
2720 2.0
2721 2.0
2722 2.0
2723 2.0
2724 2.0
2725 2.0
2726 2.0
2727 2.0
2728 2.0
2729 2.0
2730 2.0
2731 2.0
2732 2.0
2733 2.0
2734 2.0
2735 2.0
2736 2.0
2737 2.0
2738 2.0
2739 2.0
2740 2.0
2741 2.0
2742 2.0
2743 3.0
2744 4.0
2745 3.0
2746 3.0
2747 3.0
2748 3.0
2749 3.0
2750 4.0
2751 3.0
2752 3.0
2753 3.0
2754 3.0
2755 3.0
2756 4.0
2757 3.0
2758 3.0
2759 3.0
2760 3.0
2761 3.0
2762 4.0
2763 3.0
2764 3.0
2765 3.0
2766 3.0
2767 3.0
2768 4.0
2769 3.0
2770 3.0
2771 3.0
2772 3.0
2773 3.0
2774 4.0
2775 3.0
2776 3.0
2777 3.0
2778 3.0
2779 3.0
2780 4.0
2781 3.0
2782 3.0
2783 3.0
2784 3.0
2785 3.0
2786 4.0
2787 3.0
2788 3.0
2789 3.0
2790 3.0
2791 3.0
2792 4.0
2793 3.0
2794 3.0
2795 3.0
2796 3.0
2797 3.0
2798 4.0
2799 3.0
2800 3.0
2801 3.0
2802 3.0
2803 3.0
2804 4.0
2805 3.0
2806 3.0
2807 3.0
2808 3.0
2809 3.0
2810 4.0
2811 3.0
2812 3.0
2813 3.0
2814 3.0
2815 3.0
2816 4.0
2817 3.0
2818 3.0
2819 3.0
2820 3.0
2821 3.0
2822 4.0
2823 3.0
2824 3.0
2825 3.0
2826 3.0
2827 3.0
2828 4.0
2829 3.0
2830 3.0
2831 3.0
2832 3.0
2833 3.0
2834 4.0
2835 3.0
2836 3.0
2837 3.0
2838 3.0
2839 1.0
2840 2.0
2841 2.0
2842 2.0
2843 2.0
2844 2.0
2845 2.0
2846 2.0
2847 2.0
2848 2.0
2849 2.0
2850 2.0
2851 2.0
2852 2.0
2853 2.0
2854 2.0
2855 2.0
2856 2.0
2857 2.0
2858 2.0
2859 2.0
2860 2.0
2861 2.0
2862 2.0
2863 2.0
2864 2.0
2865 2.0
2866 2.0
2867 2.0
2868 2.0
2869 2.0
2870 2.0
2871 2.0
2872 2.0
2873 2.0
2874 2.0
2875 2.0
2876 2.0
2877 2.0
2878 2.0
2879 2.0
2880 2.0
2881 2.0
2882 2.0
2883 2.0
2884 2.0
2885 2.0
2886 2.0
2887 2.0
2888 2.0
2889 2.0
2890 2.0
2891 2.0
2892 2.0
2893 2.0
2894 2.0
2895 2.0
2896 2.0
2897 2.0
2898 2.0
2899 2.0
2900 2.0
2901 2.0
2902 2.0
2903 1.0
2904 3.0
2905 3.0
2906 3.0
2907 3.0
2908 3.0
2909 3.0
2910 3.0
2911 3.0
2912 3.0
2913 3.0
2914 3.0
2915 3.0
2916 3.0
2917 3.0
2918 3.0
2919 3.0
2920 3.0
2921 3.0
2922 3.0
2923 3.0
2924 3.0
2925 3.0
2926 3.0
2927 3.0
2928 3.0
2929 3.0
2930 3.0
2931 3.0
2932 3.0
2933 3.0
2934 3.0
2935 3.0
2936 3.0
2937 3.0
2938 3.0
2939 3.0
2940 3.0
2941 3.0
2942 3.0
2943 3.0
2944 3.0
2945 3.0
2946 3.0
2947 3.0
2948 3.0
2949 3.0
2950 3.0
2951 3.0
2952 3.0
2953 3.0
2954 3.0
2955 3.0
2956 3.0
2957 3.0
2958 3.0
2959 3.0
2960 3.0
2961 3.0
2962 3.0
2963 3.0
2964 3.0
2965 3.0
2966 3.0
2967 3.0
2968 3.0
2969 3.0
2970 3.0
2971 3.0
2972 3.0
2973 3.0
2974 3.0
2975 3.0
2976 3.0
2977 3.0
2978 3.0
2979 3.0
2980 3.0
2981 3.0
2982 3.0
2983 3.0
2984 3.0
2985 3.0
2986 3.0
2987 3.0
2988 3.0
2989 3.0
2990 3.0
2991 3.0
2992 3.0
2993 3.0
2994 3.0
2995 3.0
2996 3.0
2997 3.0
2998 2.0
2999 2.0
3000 2.0
3001 2.0
3002 2.0
3003 2.0
3004 2.0
3005 2.0
3006 2.0
3007 2.0
3008 2.0
3009 2.0
3010 2.0
3011 2.0
3012 2.0
3013 2.0
3014 2.0
3015 2.0
3016 2.0
3017 2.0
3018 2.0
3019 2.0
3020 2.0
3021 2.0
3022 2.0
3023 2.0
3024 2.0
3025 2.0
3026 2.0
3027 2.0
3028 2.0
3029 2.0
3030 2.0
3031 2.0
3032 2.0
3033 2.0
3034 2.0
3035 2.0
3036 2.0
3037 2.0
3038 2.0
3039 2.0
3040 2.0
3041 2.0
3042 2.0
3043 2.0
3044 2.0
3045 3.0
3046 3.0
3047 2.0
3048 2.0
3049 3.0
3050 3.0
3051 2.0
3052 2.0
3053 3.0
3054 3.0
3055 2.0
3056 2.0
3057 3.0
3058 3.0
3059 2.0
3060 2.0
3061 3.0
3062 3.0
3063 2.0
3064 2.0
3065 3.0
3066 3.0
3067 2.0
3068 2.0
3069 3.0
3070 3.0
3071 2.0
3072 2.0
3073 3.0
3074 3.0
3075 2.0
3076 2.0
3077 3.0
3078 3.0
3079 2.0
3080 2.0
3081 3.0
3082 3.0
3083 2.0
3084 2.0
3085 3.0
3086 3.0
3087 2.0
3088 2.0
3089 3.0
3090 3.0
3091 2.0
3092 2.0
3093 3.0
3094 3.0
3095 2.0
3096 2.0
3097 3.0
3098 3.0
3099 2.0
3100 2.0
3101 3.0
3102 3.0
3103 2.0
3104 2.0
3105 3.0
3106 3.0
3107 2.0
3108 2.0
3109 2.0
3110 3.0
3111 3.0
3112 2.0
3113 3.0
3114 3.0
3115 2.0
3116 3.0
3117 3.0
3118 2.0
3119 3.0
3120 3.0
3121 2.0
3122 3.0
3123 3.0
3124 2.0
3125 3.0
3126 3.0
3127 2.0
3128 3.0
3129 3.0
3130 2.0
3131 3.0
3132 3.0
3133 2.0
3134 3.0
3135 3.0
3136 2.0
3137 3.0
3138 3.0
3139 2.0
3140 3.0
3141 3.0
3142 2.0
3143 3.0
3144 3.0
3145 2.0
3146 3.0
3147 3.0
3148 2.0
3149 3.0
3150 3.0
3151 2.0
3152 3.0
3153 3.0
3154 2.0
3155 3.0
3156 3.0
3157 3.0
3158 3.0
3159 2.0
3160 2.0
3161 2.0
3162 3.0
3163 3.0
3164 2.0
3165 2.0
3166 2.0
3167 3.0
3168 3.0
3169 2.0
3170 2.0
3171 2.0
3172 3.0
3173 3.0
3174 2.0
3175 2.0
3176 2.0
3177 3.0
3178 3.0
3179 2.0
3180 2.0
3181 2.0
3182 3.0
3183 3.0
3184 2.0
3185 2.0
3186 2.0
3187 3.0
3188 3.0
3189 2.0
3190 2.0
3191 2.0
3192 3.0
3193 3.0
3194 2.0
3195 2.0
3196 2.0
3197 3.0
3198 3.0
3199 2.0
3200 2.0
3201 2.0
3202 3.0
3203 3.0
3204 2.0
3205 2.0
3206 2.0
3207 3.0
3208 3.0
3209 2.0
3210 2.0
3211 2.0
3212 3.0
3213 3.0
3214 2.0
3215 2.0
3216 2.0
3217 3.0
3218 3.0
3219 2.0
3220 2.0
3221 2.0
3222 3.0
3223 3.0
3224 2.0
3225 2.0
3226 2.0
3227 3.0
3228 3.0
3229 2.0
3230 2.0
3231 2.0
3232 3.0
3233 3.0
3234 2.0
3235 2.0
3236 2.0
3237 2.0
3238 2.0
3239 2.0
3240 2.0
3241 2.0
3242 2.0
3243 2.0
3244 2.0
3245 2.0
3246 2.0
3247 2.0
3248 2.0
3249 2.0
3250 2.0
3251 2.0
3252 2.0
3253 2.0
3254 2.0
3255 2.0
3256 2.0
3257 2.0
3258 2.0
3259 2.0
3260 2.0
3261 2.0
3262 2.0
3263 2.0
3264 2.0
3265 2.0
3266 2.0
3267 2.0
3268 2.0
3269 2.0
3270 2.0
3271 2.0
3272 2.0
3273 2.0
3274 2.0
3275 2.0
3276 2.0
3277 2.0
3278 2.0
3279 2.0
3280 2.0
3281 2.0
3282 2.0
3283 2.0
3284 2.0
3285 2.0
3286 2.0
3287 2.0
3288 2.0
3289 2.0
3290 2.0
3291 2.0
3292 2.0
3293 2.0
3294 2.0
3295 2.0
3296 2.0
3297 2.0
3298 2.0
3299 2.0
3300 2.0
3301 2.0
3302 2.0
3303 2.0
3304 2.0
3305 2.0
3306 2.0
3307 2.0
3308 2.0
3309 2.0
3310 2.0
3311 2.0
3312 2.0
3313 2.0
3314 2.0
3315 2.0
3316 2.0
3317 2.0
3318 2.0
3319 2.0
3320 2.0
3321 2.0
3322 2.0
3323 2.0
3324 2.0
3325 2.0
3326 2.0
3327 2.0
3328 2.0
3329 2.0
3330 2.0
3331 2.0
3332 2.0
3333 3.0
3334 4.0
3335 3.0
3336 3.0
3337 3.0
3338 3.0
3339 3.0
3340 4.0
3341 3.0
3342 3.0
3343 3.0
3344 3.0
3345 3.0
3346 4.0
3347 3.0
3348 3.0
3349 3.0
3350 3.0
3351 3.0
3352 4.0
3353 3.0
3354 3.0
3355 3.0
3356 3.0
3357 3.0
3358 4.0
3359 3.0
3360 3.0
3361 3.0
3362 3.0
3363 3.0
3364 4.0
3365 3.0
3366 3.0
3367 3.0
3368 3.0
3369 3.0
3370 4.0
3371 3.0
3372 3.0
3373 3.0
3374 3.0
3375 3.0
3376 4.0
3377 3.0
3378 3.0
3379 3.0
3380 3.0
3381 3.0
3382 4.0
3383 3.0
3384 3.0
3385 3.0
3386 3.0
3387 3.0
3388 4.0
3389 3.0
3390 3.0
3391 3.0
3392 3.0
3393 3.0
3394 4.0
3395 3.0
3396 3.0
3397 3.0
3398 3.0
3399 3.0
3400 4.0
3401 3.0
3402 3.0
3403 3.0
3404 3.0
3405 3.0
3406 4.0
3407 3.0
3408 3.0
3409 3.0
3410 3.0
3411 3.0
3412 4.0
3413 3.0
3414 3.0
3415 3.0
3416 3.0
3417 3.0
3418 4.0
3419 3.0
3420 3.0
3421 3.0
3422 3.0
3423 3.0
3424 4.0
3425 3.0
3426 3.0
3427 3.0
3428 3.0
3429 1.0
3430 2.0
3431 2.0
3432 2.0
3433 2.0
3434 2.0
3435 2.0
3436 2.0
3437 2.0
3438 2.0
3439 2.0
3440 2.0
3441 2.0
3442 2.0
3443 2.0
3444 2.0
3445 2.0
3446 2.0
3447 2.0
3448 2.0
3449 2.0
3450 2.0
3451 2.0
3452 2.0
3453 2.0
3454 2.0
3455 2.0
3456 2.0
3457 2.0
3458 2.0
3459 2.0
3460 2.0
3461 2.0
3462 2.0
3463 2.0
3464 2.0
3465 2.0
3466 2.0
3467 2.0
3468 2.0
3469 2.0
3470 2.0
3471 2.0
3472 2.0
3473 2.0
3474 2.0
3475 2.0
3476 2.0
3477 2.0
3478 2.0
3479 2.0
3480 2.0
3481 2.0
3482 2.0
3483 2.0
3484 2.0
3485 2.0
3486 2.0
3487 2.0
3488 2.0
3489 2.0
3490 2.0
3491 2.0
3492 2.0
3493 1.0
3494 3.0
3495 3.0
3496 3.0
3497 3.0
3498 3.0
3499 3.0
3500 3.0
3501 3.0
3502 3.0
3503 3.0
3504 3.0
3505 3.0
3506 3.0
3507 3.0
3508 3.0
3509 3.0
3510 3.0
3511 3.0
3512 3.0
3513 3.0
3514 3.0
3515 3.0
3516 3.0
3517 3.0
3518 3.0
3519 3.0
3520 3.0
3521 3.0
3522 3.0
3523 3.0
3524 3.0
3525 3.0
3526 3.0
3527 3.0
3528 3.0
3529 3.0
3530 3.0
3531 3.0
3532 3.0
3533 3.0
3534 3.0
3535 3.0
3536 3.0
3537 3.0
3538 3.0
3539 3.0
3540 3.0
3541 3.0
3542 3.0
3543 3.0
3544 3.0
3545 3.0
3546 3.0
3547 3.0
3548 3.0
3549 3.0
3550 3.0
3551 3.0
3552 3.0
3553 3.0
3554 3.0
3555 3.0
3556 3.0
3557 3.0
3558 3.0
3559 3.0
3560 3.0
3561 3.0
3562 3.0
3563 3.0
3564 3.0
3565 3.0
3566 3.0
3567 3.0
3568 3.0
3569 3.0
3570 3.0
3571 3.0
3572 3.0
3573 3.0
3574 3.0
3575 3.0
3576 3.0
3577 3.0
3578 3.0
3579 3.0
3580 3.0
3581 3.0
3582 3.0
3583 3.0
3584 3.0
3585 3.0
3586 3.0
3587 3.0
3588 2.0
3589 2.0
3590 2.0
3591 2.0
3592 2.0
3593 2.0
3594 2.0
3595 2.0
3596 2.0
3597 2.0
3598 2.0
3599 2.0
3600 2.0
3601 2.0
3602 2.0
3603 2.0
3604 2.0
3605 2.0
3606 2.0
3607 2.0
3608 2.0
3609 2.0
3610 2.0
3611 2.0
3612 2.0
3613 2.0
3614 2.0
3615 2.0
3616 2.0
3617 2.0
3618 2.0
3619 2.0
3620 2.0
3621 2.0
3622 2.0
3623 2.0
3624 2.0
3625 2.0
3626 2.0
3627 2.0
3628 2.0
3629 2.0
3630 2.0
3631 2.0
3632 2.0
3633 2.0
3634 2.0
3635 3.0
3636 3.0
3637 2.0
3638 2.0
3639 3.0
3640 3.0
3641 2.0
3642 2.0
3643 3.0
3644 3.0
3645 2.0
3646 2.0
3647 3.0
3648 3.0
3649 2.0
3650 2.0
3651 3.0
3652 3.0
3653 2.0
3654 2.0
3655 3.0
3656 3.0
3657 2.0
3658 2.0
3659 3.0
3660 3.0
3661 2.0
3662 2.0
3663 3.0
3664 3.0
3665 2.0
3666 2.0
3667 3.0
3668 3.0
3669 2.0
3670 2.0
3671 3.0
3672 3.0
3673 2.0
3674 2.0
3675 3.0
3676 3.0
3677 2.0
3678 2.0
3679 3.0
3680 3.0
3681 2.0
3682 2.0
3683 3.0
3684 3.0
3685 2.0
3686 2.0
3687 3.0
3688 3.0
3689 2.0
3690 2.0
3691 3.0
3692 3.0
3693 2.0
3694 2.0
3695 3.0
3696 3.0
3697 2.0
3698 2.0
3699 2.0
3700 3.0
3701 3.0
3702 2.0
3703 3.0
3704 3.0
3705 2.0
3706 3.0
3707 3.0
3708 2.0
3709 3.0
3710 3.0
3711 2.0
3712 3.0
3713 3.0
3714 2.0
3715 3.0
3716 3.0
3717 2.0
3718 3.0
3719 3.0
3720 2.0
3721 3.0
3722 3.0
3723 2.0
3724 3.0
3725 3.0
3726 2.0
3727 3.0
3728 3.0
3729 2.0
3730 3.0
3731 3.0
3732 2.0
3733 3.0
3734 3.0
3735 2.0
3736 3.0
3737 3.0
3738 2.0
3739 3.0
3740 3.0
3741 2.0
3742 3.0
3743 3.0
3744 2.0
3745 3.0
3746 3.0
3747 3.0
3748 3.0
3749 2.0
3750 2.0
3751 2.0
3752 3.0
3753 3.0
3754 2.0
3755 2.0
3756 2.0
3757 3.0
3758 3.0
3759 2.0
3760 2.0
3761 2.0
3762 3.0
3763 3.0
3764 2.0
3765 2.0
3766 2.0
3767 3.0
3768 3.0
3769 2.0
3770 2.0
3771 2.0
3772 3.0
3773 3.0
3774 2.0
3775 2.0
3776 2.0
3777 3.0
3778 3.0
3779 2.0
3780 2.0
3781 2.0
3782 3.0
3783 3.0
3784 2.0
3785 2.0
3786 2.0
3787 3.0
3788 3.0
3789 2.0
3790 2.0
3791 2.0
3792 3.0
3793 3.0
3794 2.0
3795 2.0
3796 2.0
3797 3.0
3798 3.0
3799 2.0
3800 2.0
3801 2.0
3802 3.0
3803 3.0
3804 2.0
3805 2.0
3806 2.0
3807 3.0
3808 3.0
3809 2.0
3810 2.0
3811 2.0
3812 3.0
3813 3.0
3814 2.0
3815 2.0
3816 2.0
3817 3.0
3818 3.0
3819 2.0
3820 2.0
3821 2.0
3822 3.0
3823 3.0
3824 2.0
3825 2.0
3826 2.0
3827 2.0
3828 2.0
3829 2.0
3830 2.0
3831 2.0
3832 2.0
3833 2.0
3834 2.0
3835 2.0
3836 2.0
3837 2.0
3838 2.0
3839 2.0
3840 2.0
3841 2.0
3842 2.0
3843 2.0
3844 2.0
3845 2.0
3846 2.0
3847 2.0
3848 2.0
3849 2.0
3850 2.0
3851 2.0
3852 2.0
3853 2.0
3854 2.0
3855 2.0
3856 2.0
3857 2.0
3858 2.0
3859 2.0
3860 2.0
3861 2.0
3862 2.0
3863 2.0
3864 2.0
3865 2.0
3866 2.0
3867 2.0
3868 2.0
3869 2.0
3870 2.0
3871 2.0
3872 2.0
3873 2.0
3874 2.0
3875 2.0
3876 2.0
3877 2.0
3878 2.0
3879 2.0
3880 2.0
3881 2.0
3882 2.0
3883 2.0
3884 2.0
3885 2.0
3886 2.0
3887 2.0
3888 2.0
3889 2.0
3890 2.0
3891 2.0
3892 2.0
3893 2.0
3894 2.0
3895 2.0
3896 2.0
3897 2.0
3898 2.0
3899 2.0
3900 2.0
3901 2.0
3902 2.0
3903 2.0
3904 2.0
3905 2.0
3906 2.0
3907 2.0
3908 2.0
3909 2.0
3910 2.0
3911 2.0
3912 2.0
3913 2.0
3914 2.0
3915 2.0
3916 2.0
3917 2.0
3918 2.0
3919 2.0
3920 2.0
3921 2.0
3922 2.0
3923 3.0
3924 4.0
3925 3.0
3926 3.0
3927 3.0
3928 3.0
3929 3.0
3930 4.0
3931 3.0
3932 3.0
3933 3.0
3934 3.0
3935 3.0
3936 4.0
3937 3.0
3938 3.0
3939 3.0
3940 3.0
3941 3.0
3942 4.0
3943 3.0
3944 3.0
3945 3.0
3946 3.0
3947 3.0
3948 4.0
3949 3.0
3950 3.0
3951 3.0
3952 3.0
3953 3.0
3954 4.0
3955 3.0
3956 3.0
3957 3.0
3958 3.0
3959 3.0
3960 4.0
3961 3.0
3962 3.0
3963 3.0
3964 3.0
3965 3.0
3966 4.0
3967 3.0
3968 3.0
3969 3.0
3970 3.0
3971 3.0
3972 4.0
3973 3.0
3974 3.0
3975 3.0
3976 3.0
3977 3.0
3978 4.0
3979 3.0
3980 3.0
3981 3.0
3982 3.0
3983 3.0
3984 4.0
3985 3.0
3986 3.0
3987 3.0
3988 3.0
3989 3.0
3990 4.0
3991 3.0
3992 3.0
3993 3.0
3994 3.0
3995 3.0
3996 4.0
3997 3.0
3998 3.0
3999 3.0
4000 3.0
4001 3.0
4002 4.0
4003 3.0
4004 3.0
4005 3.0
4006 3.0
4007 3.0
4008 4.0
4009 3.0
4010 3.0
4011 3.0
4012 3.0
4013 3.0
4014 4.0
4015 3.0
4016 3.0
4017 3.0
4018 3.0
4019 1.0
4020 2.0
4021 2.0
4022 2.0
4023 2.0
4024 2.0
4025 2.0
4026 2.0
4027 2.0
4028 2.0
4029 2.0
4030 2.0
4031 2.0
4032 2.0
4033 2.0
4034 2.0
4035 2.0
4036 2.0
4037 2.0
4038 2.0
4039 2.0
4040 2.0
4041 2.0
4042 2.0
4043 2.0
4044 2.0
4045 2.0
4046 2.0
4047 2.0
4048 2.0
4049 2.0
4050 2.0
4051 2.0
4052 2.0
4053 2.0
4054 2.0
4055 2.0
4056 2.0
4057 2.0
4058 2.0
4059 2.0
4060 2.0
4061 2.0
4062 2.0
4063 2.0
4064 2.0
4065 2.0
4066 2.0
4067 2.0
4068 2.0
4069 2.0
4070 2.0
4071 2.0
4072 2.0
4073 2.0
4074 2.0
4075 2.0
4076 2.0
4077 2.0
4078 2.0
4079 2.0
4080 2.0
4081 2.0
4082 2.0
4083 1.0
4084 3.0
4085 3.0
4086 3.0
4087 3.0
4088 3.0
4089 3.0
4090 3.0
4091 3.0
4092 3.0
4093 3.0
4094 3.0
4095 3.0
4096 3.0
4097 3.0
4098 3.0
4099 3.0
4100 3.0
4101 3.0
4102 3.0
4103 3.0
4104 3.0
4105 3.0
4106 3.0
4107 3.0
4108 3.0
4109 3.0
4110 3.0
4111 3.0
4112 3.0
4113 3.0
4114 3.0
4115 3.0
4116 3.0
4117 3.0
4118 3.0
4119 3.0
4120 3.0
4121 3.0
4122 3.0
4123 3.0
4124 3.0
4125 3.0
4126 3.0
4127 3.0
4128 3.0
4129 3.0
4130 3.0
4131 3.0
4132 3.0
4133 3.0
4134 3.0
4135 3.0
4136 3.0
4137 3.0
4138 3.0
4139 3.0
4140 3.0
4141 3.0
4142 3.0
4143 3.0
4144 3.0
4145 3.0
4146 3.0
4147 3.0
4148 3.0
4149 3.0
4150 3.0
4151 3.0
4152 3.0
4153 3.0
4154 3.0
4155 3.0
4156 3.0
4157 3.0
4158 3.0
4159 3.0
4160 3.0
4161 3.0
4162 3.0
4163 3.0
4164 3.0
4165 3.0
4166 3.0
4167 3.0
4168 3.0
4169 3.0
4170 3.0
4171 3.0
4172 3.0
4173 3.0
4174 3.0
4175 3.0
4176 3.0
4177 3.0
4178 3.0
4179 3.0
4180 2.0
4181 2.0
4182 2.0
4183 2.0
4184 2.0
4185 2.0
4186 2.0
4187 2.0
4188 2.0
4189 2.0
4190 2.0
4191 2.0
4192 2.0
4193 2.0
4194 2.0
4195 2.0
4196 2.0
4197 2.0
4198 2.0
4199 2.0
4200 2.0
4201 2.0
4202 2.0
4203 2.0
4204 2.0
4205 2.0
4206 2.0
4207 2.0
4208 2.0
4209 2.0
4210 2.0
4211 2.0
4212 2.0
4213 2.0
4214 2.0
4215 2.0
4216 2.0
4217 2.0
4218 2.0
4219 2.0
4220 2.0
4221 2.0
4222 2.0
4223 2.0
4224 2.0
4225 2.0
4226 2.0
4227 3.0
4228 3.0
4229 2.0
4230 2.0
4231 3.0
4232 3.0
4233 2.0
4234 2.0
4235 3.0
4236 3.0
4237 2.0
4238 2.0
4239 3.0
4240 3.0
4241 2.0
4242 2.0
4243 3.0
4244 3.0
4245 2.0
4246 2.0
4247 3.0
4248 3.0
4249 2.0
4250 2.0
4251 3.0
4252 3.0
4253 2.0
4254 2.0
4255 3.0
4256 3.0
4257 2.0
4258 2.0
4259 3.0
4260 3.0
4261 2.0
4262 2.0
4263 3.0
4264 3.0
4265 2.0
4266 2.0
4267 3.0
4268 3.0
4269 2.0
4270 2.0
4271 3.0
4272 3.0
4273 2.0
4274 2.0
4275 3.0
4276 3.0
4277 2.0
4278 2.0
4279 3.0
4280 3.0
4281 2.0
4282 2.0
4283 3.0
4284 3.0
4285 2.0
4286 2.0
4287 3.0
4288 3.0
4289 2.0
4290 2.0
4291 2.0
4292 3.0
4293 3.0
4294 2.0
4295 3.0
4296 3.0
4297 2.0
4298 3.0
4299 3.0
4300 2.0
4301 3.0
4302 3.0
4303 2.0
4304 3.0
4305 3.0
4306 2.0
4307 3.0
4308 3.0
4309 2.0
4310 3.0
4311 3.0
4312 2.0
4313 3.0
4314 3.0
4315 2.0
4316 3.0
4317 3.0
4318 2.0
4319 3.0
4320 3.0
4321 2.0
4322 3.0
4323 3.0
4324 2.0
4325 3.0
4326 3.0
4327 2.0
4328 3.0
4329 3.0
4330 2.0
4331 3.0
4332 3.0
4333 2.0
4334 3.0
4335 3.0
4336 2.0
4337 3.0
4338 3.0
4339 3.0
4340 3.0
4341 2.0
4342 2.0
4343 2.0
4344 3.0
4345 3.0
4346 2.0
4347 2.0
4348 2.0
4349 3.0
4350 3.0
4351 2.0
4352 2.0
4353 2.0
4354 3.0
4355 3.0
4356 2.0
4357 2.0
4358 2.0
4359 3.0
4360 3.0
4361 2.0
4362 2.0
4363 2.0
4364 3.0
4365 3.0
4366 2.0
4367 2.0
4368 2.0
4369 3.0
4370 3.0
4371 2.0
4372 2.0
4373 2.0
4374 3.0
4375 3.0
4376 2.0
4377 2.0
4378 2.0
4379 3.0
4380 3.0
4381 2.0
4382 2.0
4383 2.0
4384 3.0
4385 3.0
4386 2.0
4387 2.0
4388 2.0
4389 3.0
4390 3.0
4391 2.0
4392 2.0
4393 2.0
4394 3.0
4395 3.0
4396 2.0
4397 2.0
4398 2.0
4399 3.0
4400 3.0
4401 2.0
4402 2.0
4403 2.0
4404 3.0
4405 3.0
4406 2.0
4407 2.0
4408 2.0
4409 3.0
4410 3.0
4411 2.0
4412 2.0
4413 2.0
4414 3.0
4415 3.0
4416 2.0
4417 2.0
4418 2.0
4419 2.0
4420 2.0
4421 2.0
4422 2.0
4423 2.0
4424 2.0
4425 2.0
4426 2.0
4427 2.0
4428 2.0
4429 2.0
4430 2.0
4431 2.0
4432 2.0
4433 2.0
4434 2.0
4435 2.0
4436 2.0
4437 2.0
4438 2.0
4439 2.0
4440 2.0
4441 2.0
4442 2.0
4443 2.0
4444 2.0
4445 2.0
4446 2.0
4447 2.0
4448 2.0
4449 2.0
4450 2.0
4451 2.0
4452 2.0
4453 2.0
4454 2.0
4455 2.0
4456 2.0
4457 2.0
4458 2.0
4459 2.0
4460 2.0
4461 2.0
4462 2.0
4463 2.0
4464 2.0
4465 2.0
4466 2.0
4467 2.0
4468 2.0
4469 2.0
4470 2.0
4471 2.0
4472 2.0
4473 2.0
4474 2.0
4475 2.0
4476 2.0
4477 2.0
4478 2.0
4479 2.0
4480 2.0
4481 2.0
4482 2.0
4483 2.0
4484 2.0
4485 2.0
4486 2.0
4487 2.0
4488 2.0
4489 2.0
4490 2.0
4491 2.0
4492 2.0
4493 2.0
4494 2.0
4495 2.0
4496 2.0
4497 2.0
4498 2.0
4499 2.0
4500 2.0
4501 2.0
4502 2.0
4503 2.0
4504 2.0
4505 2.0
4506 2.0
4507 2.0
4508 2.0
4509 2.0
4510 2.0
4511 2.0
4512 2.0
4513 2.0
4514 2.0
4515 3.0
4516 4.0
4517 3.0
4518 3.0
4519 3.0
4520 3.0
4521 3.0
4522 4.0
4523 3.0
4524 3.0
4525 3.0
4526 3.0
4527 3.0
4528 4.0
4529 3.0
4530 3.0
4531 3.0
4532 3.0
4533 3.0
4534 4.0
4535 3.0
4536 3.0
4537 3.0
4538 3.0
4539 3.0
4540 4.0
4541 3.0
4542 3.0
4543 3.0
4544 3.0
4545 3.0
4546 4.0
4547 3.0
4548 3.0
4549 3.0
4550 3.0
4551 3.0
4552 4.0
4553 3.0
4554 3.0
4555 3.0
4556 3.0
4557 3.0
4558 4.0
4559 3.0
4560 3.0
4561 3.0
4562 3.0
4563 3.0
4564 4.0
4565 3.0
4566 3.0
4567 3.0
4568 3.0
4569 3.0
4570 4.0
4571 3.0
4572 3.0
4573 3.0
4574 3.0
4575 3.0
4576 4.0
4577 3.0
4578 3.0
4579 3.0
4580 3.0
4581 3.0
4582 4.0
4583 3.0
4584 3.0
4585 3.0
4586 3.0
4587 3.0
4588 4.0
4589 3.0
4590 3.0
4591 3.0
4592 3.0
4593 3.0
4594 4.0
4595 3.0
4596 3.0
4597 3.0
4598 3.0
4599 3.0
4600 4.0
4601 3.0
4602 3.0
4603 3.0
4604 3.0
4605 3.0
4606 4.0
4607 3.0
4608 3.0
4609 3.0
4610 3.0
4611 1.0
4612 2.0
4613 2.0
4614 2.0
4615 2.0
4616 2.0
4617 2.0
4618 2.0
4619 2.0
4620 2.0
4621 2.0
4622 2.0
4623 2.0
4624 2.0
4625 2.0
4626 2.0
4627 2.0
4628 2.0
4629 2.0
4630 2.0
4631 2.0
4632 2.0
4633 2.0
4634 2.0
4635 2.0
4636 2.0
4637 2.0
4638 2.0
4639 2.0
4640 2.0
4641 2.0
4642 2.0
4643 2.0
4644 2.0
4645 2.0
4646 2.0
4647 2.0
4648 2.0
4649 2.0
4650 2.0
4651 2.0
4652 2.0
4653 2.0
4654 2.0
4655 2.0
4656 2.0
4657 2.0
4658 2.0
4659 2.0
4660 2.0
4661 2.0
4662 2.0
4663 2.0
4664 2.0
4665 2.0
4666 2.0
4667 2.0
4668 2.0
4669 2.0
4670 2.0
4671 2.0
4672 2.0
4673 2.0
4674 2.0
4675 1.0
4676 3.0
4677 3.0
4678 3.0
4679 3.0
4680 3.0
4681 3.0
4682 3.0
4683 3.0
4684 3.0
4685 3.0
4686 3.0
4687 3.0
4688 3.0
4689 3.0
4690 3.0
4691 3.0
4692 3.0
4693 3.0
4694 3.0
4695 3.0
4696 3.0
4697 3.0
4698 3.0
4699 3.0
4700 3.0
4701 3.0
4702 3.0
4703 3.0
4704 3.0
4705 3.0
4706 3.0
4707 3.0
4708 3.0
4709 3.0
4710 3.0
4711 3.0
4712 3.0
4713 3.0
4714 3.0
4715 3.0
4716 3.0
4717 3.0
4718 3.0
4719 3.0
4720 3.0
4721 3.0
4722 3.0
4723 3.0
4724 3.0
4725 3.0
4726 3.0
4727 3.0
4728 3.0
4729 3.0
4730 3.0
4731 3.0
4732 3.0
4733 3.0
4734 3.0
4735 3.0
4736 3.0
4737 3.0
4738 3.0
4739 3.0
4740 3.0
4741 3.0
4742 3.0
4743 3.0
4744 3.0
4745 3.0
4746 3.0
4747 3.0
4748 3.0
4749 3.0
4750 3.0
4751 3.0
4752 3.0
4753 3.0
4754 3.0
4755 3.0
4756 3.0
4757 3.0
4758 3.0
4759 3.0
4760 3.0
4761 3.0
4762 3.0
4763 3.0
4764 3.0
4765 3.0
4766 3.0
4767 3.0
4768 3.0
4769 3.0
4770 2.0
4771 2.0
4772 2.0
4773 2.0
4774 2.0
4775 2.0
4776 2.0
4777 2.0
4778 2.0
4779 2.0
4780 2.0
4781 2.0
4782 2.0
4783 2.0
4784 2.0
4785 2.0
4786 2.0
4787 2.0
4788 2.0
4789 2.0
4790 2.0
4791 2.0
4792 2.0
4793 2.0
4794 2.0
4795 2.0
4796 2.0
4797 2.0
4798 2.0
4799 2.0
4800 2.0
4801 2.0
4802 2.0
4803 2.0
4804 2.0
4805 2.0
4806 2.0
4807 2.0
4808 2.0
4809 2.0
4810 2.0
4811 2.0
4812 2.0
4813 2.0
4814 2.0
4815 2.0
4816 2.0
4817 3.0
4818 3.0
4819 2.0
4820 2.0
4821 3.0
4822 3.0
4823 2.0
4824 2.0
4825 3.0
4826 3.0
4827 2.0
4828 2.0
4829 3.0
4830 3.0
4831 2.0
4832 2.0
4833 3.0
4834 3.0
4835 2.0
4836 2.0
4837 3.0
4838 3.0
4839 2.0
4840 2.0
4841 3.0
4842 3.0
4843 2.0
4844 2.0
4845 3.0
4846 3.0
4847 2.0
4848 2.0
4849 3.0
4850 3.0
4851 2.0
4852 2.0
4853 3.0
4854 3.0
4855 2.0
4856 2.0
4857 3.0
4858 3.0
4859 2.0
4860 2.0
4861 3.0
4862 3.0
4863 2.0
4864 2.0
4865 3.0
4866 3.0
4867 2.0
4868 2.0
4869 3.0
4870 3.0
4871 2.0
4872 2.0
4873 3.0
4874 3.0
4875 2.0
4876 2.0
4877 3.0
4878 3.0
4879 2.0
4880 2.0
4881 2.0
4882 3.0
4883 3.0
4884 2.0
4885 3.0
4886 3.0
4887 2.0
4888 3.0
4889 3.0
4890 2.0
4891 3.0
4892 3.0
4893 2.0
4894 3.0
4895 3.0
4896 2.0
4897 3.0
4898 3.0
4899 2.0
4900 3.0
4901 3.0
4902 2.0
4903 3.0
4904 3.0
4905 2.0
4906 3.0
4907 3.0
4908 2.0
4909 3.0
4910 3.0
4911 2.0
4912 3.0
4913 3.0
4914 2.0
4915 3.0
4916 3.0
4917 2.0
4918 3.0
4919 3.0
4920 2.0
4921 3.0
4922 3.0
4923 2.0
4924 3.0
4925 3.0
4926 2.0
4927 3.0
4928 3.0
4929 3.0
4930 3.0
4931 2.0
4932 2.0
4933 2.0
4934 3.0
4935 3.0
4936 2.0
4937 2.0
4938 2.0
4939 3.0
4940 3.0
4941 2.0
4942 2.0
4943 2.0
4944 3.0
4945 3.0
4946 2.0
4947 2.0
4948 2.0
4949 3.0
4950 3.0
4951 2.0
4952 2.0
4953 2.0
4954 3.0
4955 3.0
4956 2.0
4957 2.0
4958 2.0
4959 3.0
4960 3.0
4961 2.0
4962 2.0
4963 2.0
4964 3.0
4965 3.0
4966 2.0
4967 2.0
4968 2.0
4969 3.0
4970 3.0
4971 2.0
4972 2.0
4973 2.0
4974 3.0
4975 3.0
4976 2.0
4977 2.0
4978 2.0
4979 3.0
4980 3.0
4981 2.0
4982 2.0
4983 2.0
4984 3.0
4985 3.0
4986 2.0
4987 2.0
4988 2.0
4989 3.0
4990 3.0
4991 2.0
4992 2.0
4993 2.0
4994 3.0
4995 3.0
4996 2.0
4997 2.0
4998 2.0
4999 3.0
5000 3.0
5001 2.0
5002 2.0
5003 2.0
5004 3.0
5005 3.0
5006 2.0
5007 2.0
5008 2.0
5009 2.0
5010 2.0
5011 2.0
5012 2.0
5013 2.0
5014 2.0
5015 2.0
5016 2.0
5017 2.0
5018 2.0
5019 2.0
5020 2.0
5021 2.0
5022 2.0
5023 2.0
5024 2.0
5025 2.0
5026 2.0
5027 2.0
5028 2.0
5029 2.0
5030 2.0
5031 2.0
5032 2.0
5033 2.0
5034 2.0
5035 2.0
5036 2.0
5037 2.0
5038 2.0
5039 2.0
5040 2.0
5041 2.0
5042 2.0
5043 2.0
5044 2.0
5045 2.0
5046 2.0
5047 2.0
5048 2.0
5049 2.0
5050 2.0
5051 2.0
5052 2.0
5053 2.0
5054 2.0
5055 2.0
5056 2.0
5057 2.0
5058 2.0
5059 2.0
5060 2.0
5061 2.0
5062 2.0
5063 2.0
5064 2.0
5065 2.0
5066 2.0
5067 2.0
5068 2.0
5069 2.0
5070 2.0
5071 2.0
5072 2.0
5073 2.0
5074 2.0
5075 2.0
5076 2.0
5077 2.0
5078 2.0
5079 2.0
5080 2.0
5081 2.0
5082 2.0
5083 2.0
5084 2.0
5085 2.0
5086 2.0
5087 2.0
5088 2.0
5089 2.0
5090 2.0
5091 2.0
5092 2.0
5093 2.0
5094 2.0
5095 2.0
5096 2.0
5097 2.0
5098 2.0
5099 2.0
5100 2.0
5101 2.0
5102 2.0
5103 2.0
5104 2.0
5105 3.0
5106 4.0
5107 3.0
5108 3.0
5109 3.0
5110 3.0
5111 3.0
5112 4.0
5113 3.0
5114 3.0
5115 3.0
5116 3.0
5117 3.0
5118 4.0
5119 3.0
5120 3.0
5121 3.0
5122 3.0
5123 3.0
5124 4.0
5125 3.0
5126 3.0
5127 3.0
5128 3.0
5129 3.0
5130 4.0
5131 3.0
5132 3.0
5133 3.0
5134 3.0
5135 3.0
5136 4.0
5137 3.0
5138 3.0
5139 3.0
5140 3.0
5141 3.0
5142 4.0
5143 3.0
5144 3.0
5145 3.0
5146 3.0
5147 3.0
5148 4.0
5149 3.0
5150 3.0
5151 3.0
5152 3.0
5153 3.0
5154 4.0
5155 3.0
5156 3.0
5157 3.0
5158 3.0
5159 3.0
5160 4.0
5161 3.0
5162 3.0
5163 3.0
5164 3.0
5165 3.0
5166 4.0
5167 3.0
5168 3.0
5169 3.0
5170 3.0
5171 3.0
5172 4.0
5173 3.0
5174 3.0
5175 3.0
5176 3.0
5177 3.0
5178 4.0
5179 3.0
5180 3.0
5181 3.0
5182 3.0
5183 3.0
5184 4.0
5185 3.0
5186 3.0
5187 3.0
5188 3.0
5189 3.0
5190 4.0
5191 3.0
5192 3.0
5193 3.0
5194 3.0
5195 3.0
5196 4.0
5197 3.0
5198 3.0
5199 3.0
5200 3.0
5201 1.0
5202 2.0
5203 2.0
5204 2.0
5205 2.0
5206 2.0
5207 2.0
5208 2.0
5209 2.0
5210 2.0
5211 2.0
5212 2.0
5213 2.0
5214 2.0
5215 2.0
5216 2.0
5217 2.0
5218 2.0
5219 2.0
5220 2.0
5221 2.0
5222 2.0
5223 2.0
5224 2.0
5225 2.0
5226 2.0
5227 2.0
5228 2.0
5229 2.0
5230 2.0
5231 2.0
5232 2.0
5233 2.0
5234 2.0
5235 2.0
5236 2.0
5237 2.0
5238 2.0
5239 2.0
5240 2.0
5241 2.0
5242 2.0
5243 2.0
5244 2.0
5245 2.0
5246 2.0
5247 2.0
5248 2.0
5249 2.0
5250 2.0
5251 2.0
5252 2.0
5253 2.0
5254 2.0
5255 2.0
5256 2.0
5257 2.0
5258 2.0
5259 2.0
5260 2.0
5261 2.0
5262 2.0
5263 2.0
5264 2.0
5265 1.0
5266 3.0
5267 3.0
5268 3.0
5269 3.0
5270 3.0
5271 3.0
5272 3.0
5273 3.0
5274 3.0
5275 3.0
5276 3.0
5277 3.0
5278 3.0
5279 3.0
5280 3.0
5281 3.0
5282 3.0
5283 3.0
5284 3.0
5285 3.0
5286 3.0
5287 3.0
5288 3.0
5289 3.0
5290 3.0
5291 3.0
5292 3.0
5293 3.0
5294 3.0
5295 3.0
5296 3.0
5297 3.0
5298 3.0
5299 3.0
5300 3.0
5301 3.0
5302 3.0
5303 3.0
5304 3.0
5305 3.0
5306 3.0
5307 3.0
5308 3.0
5309 3.0
5310 3.0
5311 3.0
5312 3.0
5313 3.0
5314 3.0
5315 3.0
5316 3.0
5317 3.0
5318 3.0
5319 3.0
5320 3.0
5321 3.0
5322 3.0
5323 3.0
5324 3.0
5325 3.0
5326 3.0
5327 3.0
5328 3.0
5329 3.0
5330 3.0
5331 3.0
5332 3.0
5333 3.0
5334 3.0
5335 3.0
5336 3.0
5337 3.0
5338 3.0
5339 3.0
5340 3.0
5341 3.0
5342 3.0
5343 3.0
5344 3.0
5345 3.0
5346 3.0
5347 3.0
5348 3.0
5349 3.0
5350 3.0
5351 3.0
5352 3.0
5353 3.0
5354 3.0
5355 3.0
5356 3.0
5357 3.0
5358 3.0
5359 3.0
5360 3.0
5361 3.0
5362 2.0
5363 2.0
5364 2.0
5365 2.0
5366 2.0
5367 2.0
5368 2.0
5369 2.0
5370 2.0
5371 2.0
5372 2.0
5373 2.0
5374 2.0
5375 2.0
5376 2.0
5377 2.0
5378 2.0
5379 2.0
5380 2.0
5381 2.0
5382 2.0
5383 2.0
5384 2.0
5385 2.0
5386 2.0
5387 2.0
5388 2.0
5389 2.0
5390 2.0
5391 2.0
5392 2.0
5393 2.0
5394 2.0
5395 2.0
5396 2.0
5397 2.0
5398 2.0
5399 2.0
5400 2.0
5401 2.0
5402 2.0
5403 2.0
5404 2.0
5405 2.0
5406 2.0
5407 2.0
5408 2.0
5409 3.0
5410 3.0
5411 2.0
5412 2.0
5413 3.0
5414 3.0
5415 2.0
5416 2.0
5417 3.0
5418 3.0
5419 2.0
5420 2.0
5421 3.0
5422 3.0
5423 2.0
5424 2.0
5425 3.0
5426 3.0
5427 2.0
5428 2.0
5429 3.0
5430 3.0
5431 2.0
5432 2.0
5433 3.0
5434 3.0
5435 2.0
5436 2.0
5437 3.0
5438 3.0
5439 2.0
5440 2.0
5441 3.0
5442 3.0
5443 2.0
5444 2.0
5445 3.0
5446 3.0
5447 2.0
5448 2.0
5449 3.0
5450 3.0
5451 2.0
5452 2.0
5453 3.0
5454 3.0
5455 2.0
5456 2.0
5457 3.0
5458 3.0
5459 2.0
5460 2.0
5461 3.0
5462 3.0
5463 2.0
5464 2.0
5465 3.0
5466 3.0
5467 2.0
5468 2.0
5469 3.0
5470 3.0
5471 2.0
5472 2.0
5473 2.0
5474 3.0
5475 3.0
5476 2.0
5477 3.0
5478 3.0
5479 2.0
5480 3.0
5481 3.0
5482 2.0
5483 3.0
5484 3.0
5485 2.0
5486 3.0
5487 3.0
5488 2.0
5489 3.0
5490 3.0
5491 2.0
5492 3.0
5493 3.0
5494 2.0
5495 3.0
5496 3.0
5497 2.0
5498 3.0
5499 3.0
5500 2.0
5501 3.0
5502 3.0
5503 2.0
5504 3.0
5505 3.0
5506 2.0
5507 3.0
5508 3.0
5509 2.0
5510 3.0
5511 3.0
5512 2.0
5513 3.0
5514 3.0
5515 2.0
5516 3.0
5517 3.0
5518 2.0
5519 3.0
5520 3.0
5521 3.0
5522 3.0
5523 2.0
5524 2.0
5525 2.0
5526 3.0
5527 3.0
5528 2.0
5529 2.0
5530 2.0
5531 3.0
5532 3.0
5533 2.0
5534 2.0
5535 2.0
5536 3.0
5537 3.0
5538 2.0
5539 2.0
5540 2.0
5541 3.0
5542 3.0
5543 2.0
5544 2.0
5545 2.0
5546 3.0
5547 3.0
5548 2.0
5549 2.0
5550 2.0
5551 3.0
5552 3.0
5553 2.0
5554 2.0
5555 2.0
5556 3.0
5557 3.0
5558 2.0
5559 2.0
5560 2.0
5561 3.0
5562 3.0
5563 2.0
5564 2.0
5565 2.0
5566 3.0
5567 3.0
5568 2.0
5569 2.0
5570 2.0
5571 3.0
5572 3.0
5573 2.0
5574 2.0
5575 2.0
5576 3.0
5577 3.0
5578 2.0
5579 2.0
5580 2.0
5581 3.0
5582 3.0
5583 2.0
5584 2.0
5585 2.0
5586 3.0
5587 3.0
5588 2.0
5589 2.0
5590 2.0
5591 3.0
5592 3.0
5593 2.0
5594 2.0
5595 2.0
5596 3.0
5597 3.0
5598 2.0
5599 2.0
5600 2.0
5601 2.0
5602 2.0
5603 2.0
5604 2.0
5605 2.0
5606 2.0
5607 2.0
5608 2.0
5609 2.0
5610 2.0
5611 2.0
5612 2.0
5613 2.0
5614 2.0
5615 2.0
5616 2.0
5617 2.0
5618 2.0
5619 2.0
5620 2.0
5621 2.0
5622 2.0
5623 2.0
5624 2.0
5625 2.0
5626 2.0
5627 2.0
5628 2.0
5629 2.0
5630 2.0
5631 2.0
5632 2.0
5633 2.0
5634 2.0
5635 2.0
5636 2.0
5637 2.0
5638 2.0
5639 2.0
5640 2.0
5641 2.0
5642 2.0
5643 2.0
5644 2.0
5645 2.0
5646 2.0
5647 2.0
5648 2.0
5649 2.0
5650 2.0
5651 2.0
5652 2.0
5653 2.0
5654 2.0
5655 2.0
5656 2.0
5657 2.0
5658 2.0
5659 2.0
5660 2.0
5661 2.0
5662 2.0
5663 2.0
5664 2.0
5665 2.0
5666 2.0
5667 2.0
5668 2.0
5669 2.0
5670 2.0
5671 2.0
5672 2.0
5673 2.0
5674 2.0
5675 2.0
5676 2.0
5677 2.0
5678 2.0
5679 2.0
5680 2.0
5681 2.0
5682 2.0
5683 2.0
5684 2.0
5685 2.0
5686 2.0
5687 2.0
5688 2.0
5689 2.0
5690 2.0
5691 2.0
5692 2.0
5693 2.0
5694 2.0
5695 2.0
5696 2.0
5697 3.0
5698 4.0
5699 3.0
5700 3.0
5701 3.0
5702 3.0
5703 3.0
5704 4.0
5705 3.0
5706 3.0
5707 3.0
5708 3.0
5709 3.0
5710 4.0
5711 3.0
5712 3.0
5713 3.0
5714 3.0
5715 3.0
5716 4.0
5717 3.0
5718 3.0
5719 3.0
5720 3.0
5721 3.0
5722 4.0
5723 3.0
5724 3.0
5725 3.0
5726 3.0
5727 3.0
5728 4.0
5729 3.0
5730 3.0
5731 3.0
5732 3.0
5733 3.0
5734 4.0
5735 3.0
5736 3.0
5737 3.0
5738 3.0
5739 3.0
5740 4.0
5741 3.0
5742 3.0
5743 3.0
5744 3.0
5745 3.0
5746 4.0
5747 3.0
5748 3.0
5749 3.0
5750 3.0
5751 3.0
5752 4.0
5753 3.0
5754 3.0
5755 3.0
5756 3.0
5757 3.0
5758 4.0
5759 3.0
5760 3.0
5761 3.0
5762 3.0
5763 3.0
5764 4.0
5765 3.0
5766 3.0
5767 3.0
5768 3.0
5769 3.0
5770 4.0
5771 3.0
5772 3.0
5773 3.0
5774 3.0
5775 3.0
5776 4.0
5777 3.0
5778 3.0
5779 3.0
5780 3.0
5781 3.0
5782 4.0
5783 3.0
5784 3.0
5785 3.0
5786 3.0
5787 3.0
5788 4.0
5789 3.0
5790 3.0
5791 3.0
5792 3.0
5793 1.0
5794 2.0
5795 2.0
5796 2.0
5797 2.0
5798 2.0
5799 2.0
5800 2.0
5801 2.0
5802 2.0
5803 2.0
5804 2.0
5805 2.0
5806 2.0
5807 2.0
5808 2.0
5809 2.0
5810 2.0
5811 2.0
5812 2.0
5813 2.0
5814 2.0
5815 2.0
5816 2.0
5817 2.0
5818 2.0
5819 2.0
5820 2.0
5821 2.0
5822 2.0
5823 2.0
5824 2.0
5825 2.0
5826 2.0
5827 2.0
5828 2.0
5829 2.0
5830 2.0
5831 2.0
5832 2.0
5833 2.0
5834 2.0
5835 2.0
5836 2.0
5837 2.0
5838 2.0
5839 2.0
5840 2.0
5841 2.0
5842 2.0
5843 2.0
5844 2.0
5845 2.0
5846 2.0
5847 2.0
5848 2.0
5849 2.0
5850 2.0
5851 2.0
5852 2.0
5853 2.0
5854 2.0
5855 2.0
5856 2.0
5857 1.0
5858 3.0
5859 3.0
5860 3.0
5861 3.0
5862 3.0
5863 3.0
5864 3.0
5865 3.0
5866 3.0
5867 3.0
5868 3.0
5869 3.0
5870 3.0
5871 3.0
5872 3.0
5873 3.0
5874 3.0
5875 3.0
5876 3.0
5877 3.0
5878 3.0
5879 3.0
5880 3.0
5881 3.0
5882 3.0
5883 3.0
5884 3.0
5885 3.0
5886 3.0
5887 3.0
5888 3.0
5889 3.0
5890 3.0
5891 3.0
5892 3.0
5893 3.0
5894 3.0
5895 3.0
5896 3.0
5897 3.0
5898 3.0
5899 3.0
5900 3.0
5901 3.0
5902 3.0
5903 3.0
5904 3.0
5905 3.0
5906 3.0
5907 3.0
5908 3.0
5909 3.0
5910 3.0
5911 3.0
5912 3.0
5913 3.0
5914 3.0
5915 3.0
5916 3.0
5917 3.0
5918 3.0
5919 3.0
5920 3.0
5921 3.0
5922 3.0
5923 3.0
5924 3.0
5925 3.0
5926 3.0
5927 3.0
5928 3.0
5929 3.0
5930 3.0
5931 3.0
5932 3.0
5933 3.0
5934 3.0
5935 3.0
5936 3.0
5937 3.0
5938 3.0
5939 3.0
5940 3.0
5941 3.0
5942 3.0
5943 3.0
5944 3.0
5945 3.0
5946 3.0
5947 3.0
5948 3.0
5949 3.0
5950 3.0
5951 3.0
5952 3.0
5953 3.0
5954 2.0
5955 2.0
5956 2.0
5957 2.0
5958 2.0
5959 2.0
5960 2.0
5961 2.0
5962 2.0
5963 2.0
5964 2.0
5965 2.0
5966 2.0
5967 2.0
5968 2.0
5969 2.0
5970 2.0
5971 2.0
5972 2.0
5973 2.0
5974 2.0
5975 2.0
5976 2.0
5977 2.0
5978 2.0
5979 2.0
5980 2.0
5981 2.0
5982 2.0
5983 2.0
5984 2.0
5985 2.0
5986 2.0
5987 2.0
5988 2.0
5989 2.0
5990 2.0
5991 2.0
5992 2.0
5993 2.0
5994 2.0
5995 2.0
5996 2.0
5997 2.0
5998 2.0
5999 2.0
6000 2.0
6001 3.0
6002 3.0
6003 2.0
6004 2.0
6005 3.0
6006 3.0
6007 2.0
6008 2.0
6009 3.0
6010 3.0
6011 2.0
6012 2.0
6013 3.0
6014 3.0
6015 2.0
6016 2.0
6017 3.0
6018 3.0
6019 2.0
6020 2.0
6021 3.0
6022 3.0
6023 2.0
6024 2.0
6025 3.0
6026 3.0
6027 2.0
6028 2.0
6029 3.0
6030 3.0
6031 2.0
6032 2.0
6033 3.0
6034 3.0
6035 2.0
6036 2.0
6037 3.0
6038 3.0
6039 2.0
6040 2.0
6041 3.0
6042 3.0
6043 2.0
6044 2.0
6045 3.0
6046 3.0
6047 2.0
6048 2.0
6049 3.0
6050 3.0
6051 2.0
6052 2.0
6053 3.0
6054 3.0
6055 2.0
6056 2.0
6057 3.0
6058 3.0
6059 2.0
6060 2.0
6061 3.0
6062 3.0
6063 2.0
6064 2.0
6065 2.0
6066 3.0
6067 3.0
6068 2.0
6069 3.0
6070 3.0
6071 2.0
6072 3.0
6073 3.0
6074 2.0
6075 3.0
6076 3.0
6077 2.0
6078 3.0
6079 3.0
6080 2.0
6081 3.0
6082 3.0
6083 2.0
6084 3.0
6085 3.0
6086 2.0
6087 3.0
6088 3.0
6089 2.0
6090 3.0
6091 3.0
6092 2.0
6093 3.0
6094 3.0
6095 2.0
6096 3.0
6097 3.0
6098 2.0
6099 3.0
6100 3.0
6101 2.0
6102 3.0
6103 3.0
6104 2.0
6105 3.0
6106 3.0
6107 2.0
6108 3.0
6109 3.0
6110 2.0
6111 3.0
6112 3.0
6113 3.0
6114 3.0
6115 2.0
6116 2.0
6117 2.0
6118 3.0
6119 3.0
6120 2.0
6121 2.0
6122 2.0
6123 3.0
6124 3.0
6125 2.0
6126 2.0
6127 2.0
6128 3.0
6129 3.0
6130 2.0
6131 2.0
6132 2.0
6133 3.0
6134 3.0
6135 2.0
6136 2.0
6137 2.0
6138 3.0
6139 3.0
6140 2.0
6141 2.0
6142 2.0
6143 3.0
6144 3.0
6145 2.0
6146 2.0
6147 2.0
6148 3.0
6149 3.0
6150 2.0
6151 2.0
6152 2.0
6153 3.0
6154 3.0
6155 2.0
6156 2.0
6157 2.0
6158 3.0
6159 3.0
6160 2.0
6161 2.0
6162 2.0
6163 3.0
6164 3.0
6165 2.0
6166 2.0
6167 2.0
6168 3.0
6169 3.0
6170 2.0
6171 2.0
6172 2.0
6173 3.0
6174 3.0
6175 2.0
6176 2.0
6177 2.0
6178 3.0
6179 3.0
6180 2.0
6181 2.0
6182 2.0
6183 3.0
6184 3.0
6185 2.0
6186 2.0
6187 2.0
6188 3.0
6189 3.0
6190 2.0
6191 2.0
6192 2.0
6193 2.0
6194 2.0
6195 2.0
6196 2.0
6197 2.0
6198 2.0
6199 2.0
6200 2.0
6201 2.0
6202 2.0
6203 2.0
6204 2.0
6205 2.0
6206 2.0
6207 2.0
6208 2.0
6209 2.0
6210 2.0
6211 2.0
6212 2.0
6213 2.0
6214 2.0
6215 2.0
6216 2.0
6217 2.0
6218 2.0
6219 2.0
6220 2.0
6221 2.0
6222 2.0
6223 2.0
6224 2.0
6225 2.0
6226 2.0
6227 2.0
6228 2.0
6229 2.0
6230 2.0
6231 2.0
6232 2.0
6233 2.0
6234 2.0
6235 2.0
6236 2.0
6237 2.0
6238 2.0
6239 2.0
6240 2.0
6241 2.0
6242 2.0
6243 2.0
6244 2.0
6245 2.0
6246 2.0
6247 2.0
6248 2.0
6249 2.0
6250 2.0
6251 2.0
6252 2.0
6253 2.0
6254 2.0
6255 2.0
6256 2.0
6257 2.0
6258 2.0
6259 2.0
6260 2.0
6261 2.0
6262 2.0
6263 2.0
6264 2.0
6265 2.0
6266 2.0
6267 2.0
6268 2.0
6269 2.0
6270 2.0
6271 2.0
6272 2.0
6273 2.0
6274 2.0
6275 2.0
6276 2.0
6277 2.0
6278 2.0
6279 2.0
6280 2.0
6281 2.0
6282 2.0
6283 2.0
6284 2.0
6285 2.0
6286 2.0
6287 2.0
6288 2.0
6289 3.0
6290 4.0
6291 3.0
6292 3.0
6293 3.0
6294 3.0
6295 3.0
6296 4.0
6297 3.0
6298 3.0
6299 3.0
6300 3.0
6301 3.0
6302 4.0
6303 3.0
6304 3.0
6305 3.0
6306 3.0
6307 3.0
6308 4.0
6309 3.0
6310 3.0
6311 3.0
6312 3.0
6313 3.0
6314 4.0
6315 3.0
6316 3.0
6317 3.0
6318 3.0
6319 3.0
6320 4.0
6321 3.0
6322 3.0
6323 3.0
6324 3.0
6325 3.0
6326 4.0
6327 3.0
6328 3.0
6329 3.0
6330 3.0
6331 3.0
6332 4.0
6333 3.0
6334 3.0
6335 3.0
6336 3.0
6337 3.0
6338 4.0
6339 3.0
6340 3.0
6341 3.0
6342 3.0
6343 3.0
6344 4.0
6345 3.0
6346 3.0
6347 3.0
6348 3.0
6349 3.0
6350 4.0
6351 3.0
6352 3.0
6353 3.0
6354 3.0
6355 3.0
6356 4.0
6357 3.0
6358 3.0
6359 3.0
6360 3.0
6361 3.0
6362 4.0
6363 3.0
6364 3.0
6365 3.0
6366 3.0
6367 3.0
6368 4.0
6369 3.0
6370 3.0
6371 3.0
6372 3.0
6373 3.0
6374 4.0
6375 3.0
6376 3.0
6377 3.0
6378 3.0
6379 3.0
6380 4.0
6381 3.0
6382 3.0
6383 3.0
6384 3.0
6385 1.0
6386 2.0
6387 2.0
6388 2.0
6389 2.0
6390 2.0
6391 2.0
6392 2.0
6393 2.0
6394 2.0
6395 2.0
6396 2.0
6397 2.0
6398 2.0
6399 2.0
6400 2.0
6401 2.0
6402 2.0
6403 2.0
6404 2.0
6405 2.0
6406 2.0
6407 2.0
6408 2.0
6409 2.0
6410 2.0
6411 2.0
6412 2.0
6413 2.0
6414 2.0
6415 2.0
6416 2.0
6417 2.0
6418 2.0
6419 2.0
6420 2.0
6421 2.0
6422 2.0
6423 2.0
6424 2.0
6425 2.0
6426 2.0
6427 2.0
6428 2.0
6429 2.0
6430 2.0
6431 2.0
6432 2.0
6433 2.0
6434 2.0
6435 2.0
6436 2.0
6437 2.0
6438 2.0
6439 2.0
6440 2.0
6441 2.0
6442 2.0
6443 2.0
6444 2.0
6445 2.0
6446 2.0
6447 2.0
6448 2.0
6449 1.0
6450 3.0
6451 3.0
6452 3.0
6453 3.0
6454 3.0
6455 3.0
6456 3.0
6457 3.0
6458 3.0
6459 3.0
6460 3.0
6461 3.0
6462 3.0
6463 3.0
6464 3.0
6465 3.0
6466 3.0
6467 3.0
6468 3.0
6469 3.0
6470 3.0
6471 3.0
6472 3.0
6473 3.0
6474 3.0
6475 3.0
6476 3.0
6477 3.0
6478 3.0
6479 3.0
6480 3.0
6481 3.0
6482 3.0
6483 3.0
6484 3.0
6485 3.0
6486 3.0
6487 3.0
6488 3.0
6489 3.0
6490 3.0
6491 3.0
6492 3.0
6493 3.0
6494 3.0
6495 3.0
6496 3.0
6497 3.0
6498 3.0
6499 3.0
6500 3.0
6501 3.0
6502 3.0
6503 3.0
6504 3.0
6505 3.0
6506 3.0
6507 3.0
6508 3.0
6509 3.0
6510 3.0
6511 3.0
6512 3.0
6513 3.0
6514 3.0
6515 3.0
6516 3.0
6517 3.0
6518 3.0
6519 3.0
6520 3.0
6521 3.0
6522 3.0
6523 3.0
6524 3.0
6525 3.0
6526 3.0
6527 3.0
6528 3.0
6529 3.0
6530 3.0
6531 3.0
6532 3.0
6533 3.0
6534 3.0
6535 3.0
6536 3.0
6537 3.0
6538 3.0
6539 3.0
6540 3.0
6541 3.0
6542 3.0
6543 3.0
6544 3.0
6545 3.0
6546 2.0
6547 2.0
6548 2.0
6549 2.0
6550 2.0
6551 2.0
6552 2.0
6553 2.0
6554 2.0
6555 2.0
6556 2.0
6557 2.0
6558 2.0
6559 2.0
6560 2.0
6561 2.0
6562 2.0
6563 2.0
6564 2.0
6565 2.0
6566 2.0
6567 2.0
6568 2.0
6569 2.0
6570 2.0
6571 2.0
6572 2.0
6573 2.0
6574 2.0
6575 2.0
6576 2.0
6577 2.0
6578 2.0
6579 2.0
6580 2.0
6581 2.0
6582 2.0
6583 2.0
6584 2.0
6585 2.0
6586 2.0
6587 2.0
6588 2.0
6589 2.0
6590 2.0
6591 2.0
6592 2.0
6593 3.0
6594 3.0
6595 2.0
6596 2.0
6597 3.0
6598 3.0
6599 2.0
6600 2.0
6601 3.0
6602 3.0
6603 2.0
6604 2.0
6605 3.0
6606 3.0
6607 2.0
6608 2.0
6609 3.0
6610 3.0
6611 2.0
6612 2.0
6613 3.0
6614 3.0
6615 2.0
6616 2.0
6617 3.0
6618 3.0
6619 2.0
6620 2.0
6621 3.0
6622 3.0
6623 2.0
6624 2.0
6625 3.0
6626 3.0
6627 2.0
6628 2.0
6629 3.0
6630 3.0
6631 2.0
6632 2.0
6633 3.0
6634 3.0
6635 2.0
6636 2.0
6637 3.0
6638 3.0
6639 2.0
6640 2.0
6641 3.0
6642 3.0
6643 2.0
6644 2.0
6645 3.0
6646 3.0
6647 2.0
6648 2.0
6649 3.0
6650 3.0
6651 2.0
6652 2.0
6653 3.0
6654 3.0
6655 2.0
6656 2.0
6657 2.0
6658 3.0
6659 3.0
6660 2.0
6661 3.0
6662 3.0
6663 2.0
6664 3.0
6665 3.0
6666 2.0
6667 3.0
6668 3.0
6669 2.0
6670 3.0
6671 3.0
6672 2.0
6673 3.0
6674 3.0
6675 2.0
6676 3.0
6677 3.0
6678 2.0
6679 3.0
6680 3.0
6681 2.0
6682 3.0
6683 3.0
6684 2.0
6685 3.0
6686 3.0
6687 2.0
6688 3.0
6689 3.0
6690 2.0
6691 3.0
6692 3.0
6693 2.0
6694 3.0
6695 3.0
6696 2.0
6697 3.0
6698 3.0
6699 2.0
6700 3.0
6701 3.0
6702 2.0
6703 3.0
6704 3.0
6705 3.0
6706 3.0
6707 2.0
6708 2.0
6709 2.0
6710 3.0
6711 3.0
6712 2.0
6713 2.0
6714 2.0
6715 3.0
6716 3.0
6717 2.0
6718 2.0
6719 2.0
6720 3.0
6721 3.0
6722 2.0
6723 2.0
6724 2.0
6725 3.0
6726 3.0
6727 2.0
6728 2.0
6729 2.0
6730 3.0
6731 3.0
6732 2.0
6733 2.0
6734 2.0
6735 3.0
6736 3.0
6737 2.0
6738 2.0
6739 2.0
6740 3.0
6741 3.0
6742 2.0
6743 2.0
6744 2.0
6745 3.0
6746 3.0
6747 2.0
6748 2.0
6749 2.0
6750 3.0
6751 3.0
6752 2.0
6753 2.0
6754 2.0
6755 3.0
6756 3.0
6757 2.0
6758 2.0
6759 2.0
6760 3.0
6761 3.0
6762 2.0
6763 2.0
6764 2.0
6765 3.0
6766 3.0
6767 2.0
6768 2.0
6769 2.0
6770 3.0
6771 3.0
6772 2.0
6773 2.0
6774 2.0
6775 3.0
6776 3.0
6777 2.0
6778 2.0
6779 2.0
6780 3.0
6781 3.0
6782 2.0
6783 2.0
6784 2.0
6785 2.0
6786 2.0
6787 2.0
6788 2.0
6789 2.0
6790 2.0
6791 2.0
6792 2.0
6793 2.0
6794 2.0
6795 2.0
6796 2.0
6797 2.0
6798 2.0
6799 2.0
6800 2.0
6801 2.0
6802 2.0
6803 2.0
6804 2.0
6805 2.0
6806 2.0
6807 2.0
6808 2.0
6809 2.0
6810 2.0
6811 2.0
6812 2.0
6813 2.0
6814 2.0
6815 2.0
6816 2.0
6817 2.0
6818 2.0
6819 2.0
6820 2.0
6821 2.0
6822 2.0
6823 2.0
6824 2.0
6825 2.0
6826 2.0
6827 2.0
6828 2.0
6829 2.0
6830 2.0
6831 2.0
6832 2.0
6833 2.0
6834 2.0
6835 2.0
6836 2.0
6837 2.0
6838 2.0
6839 2.0
6840 2.0
6841 2.0
6842 2.0
6843 2.0
6844 2.0
6845 2.0
6846 2.0
6847 2.0
6848 2.0
6849 2.0
6850 2.0
6851 2.0
6852 2.0
6853 2.0
6854 2.0
6855 2.0
6856 2.0
6857 2.0
6858 2.0
6859 2.0
6860 2.0
6861 2.0
6862 2.0
6863 2.0
6864 2.0
6865 2.0
6866 2.0
6867 2.0
6868 2.0
6869 2.0
6870 2.0
6871 2.0
6872 2.0
6873 2.0
6874 2.0
6875 2.0
6876 2.0
6877 2.0
6878 2.0
6879 2.0
6880 2.0
6881 3.0
6882 4.0
6883 3.0
6884 3.0
6885 3.0
6886 3.0
6887 3.0
6888 4.0
6889 3.0
6890 3.0
6891 3.0
6892 3.0
6893 3.0
6894 4.0
6895 3.0
6896 3.0
6897 3.0
6898 3.0
6899 3.0
6900 4.0
6901 3.0
6902 3.0
6903 3.0
6904 3.0
6905 3.0
6906 4.0
6907 3.0
6908 3.0
6909 3.0
6910 3.0
6911 3.0
6912 4.0
6913 3.0
6914 3.0
6915 3.0
6916 3.0
6917 3.0
6918 4.0
6919 3.0
6920 3.0
6921 3.0
6922 3.0
6923 3.0
6924 4.0
6925 3.0
6926 3.0
6927 3.0
6928 3.0
6929 3.0
6930 4.0
6931 3.0
6932 3.0
6933 3.0
6934 3.0
6935 3.0
6936 4.0
6937 3.0
6938 3.0
6939 3.0
6940 3.0
6941 3.0
6942 4.0
6943 3.0
6944 3.0
6945 3.0
6946 3.0
6947 3.0
6948 4.0
6949 3.0
6950 3.0
6951 3.0
6952 3.0
6953 3.0
6954 4.0
6955 3.0
6956 3.0
6957 3.0
6958 3.0
6959 3.0
6960 4.0
6961 3.0
6962 3.0
6963 3.0
6964 3.0
6965 3.0
6966 4.0
6967 3.0
6968 3.0
6969 3.0
6970 3.0
6971 3.0
6972 4.0
6973 3.0
6974 3.0
6975 3.0
6976 3.0
6977 1.0
6978 2.0
6979 2.0
6980 2.0
6981 2.0
6982 2.0
6983 2.0
6984 2.0
6985 2.0
6986 2.0
6987 2.0
6988 2.0
6989 2.0
6990 2.0
6991 2.0
6992 2.0
6993 2.0
6994 2.0
6995 2.0
6996 2.0
6997 2.0
6998 2.0
6999 2.0
7000 2.0
7001 2.0
7002 2.0
7003 2.0
7004 2.0
7005 2.0
7006 2.0
7007 2.0
7008 2.0
7009 2.0
7010 2.0
7011 2.0
7012 2.0
7013 2.0
7014 2.0
7015 2.0
7016 2.0
7017 2.0
7018 2.0
7019 2.0
7020 2.0
7021 2.0
7022 2.0
7023 2.0
7024 2.0
7025 2.0
7026 2.0
7027 2.0
7028 2.0
7029 2.0
7030 2.0
7031 2.0
7032 2.0
7033 2.0
7034 2.0
7035 2.0
7036 2.0
7037 2.0
7038 2.0
7039 2.0
7040 2.0
7041 1.0
7042 3.0
7043 3.0
7044 3.0
7045 3.0
7046 3.0
7047 3.0
7048 3.0
7049 3.0
7050 3.0
7051 3.0
7052 3.0
7053 3.0
7054 3.0
7055 3.0
7056 3.0
7057 3.0
7058 3.0
7059 3.0
7060 3.0
7061 3.0
7062 3.0
7063 3.0
7064 3.0
7065 3.0
7066 3.0
7067 3.0
7068 3.0
7069 3.0
7070 3.0
7071 3.0
7072 3.0
7073 3.0
7074 3.0
7075 3.0
7076 3.0
7077 3.0
7078 3.0
7079 3.0
7080 3.0
7081 3.0
7082 3.0
7083 3.0
7084 3.0
7085 3.0
7086 3.0
7087 3.0
7088 3.0
7089 3.0
7090 3.0
7091 3.0
7092 3.0
7093 3.0
7094 3.0
7095 3.0
7096 3.0
7097 3.0
7098 3.0
7099 3.0
7100 3.0
7101 3.0
7102 3.0
7103 3.0
7104 3.0
7105 3.0
7106 3.0
7107 3.0
7108 3.0
7109 3.0
7110 3.0
7111 3.0
7112 3.0
7113 3.0
7114 3.0
7115 3.0
7116 3.0
7117 3.0
7118 3.0
7119 3.0
7120 3.0
7121 3.0
7122 3.0
7123 3.0
7124 3.0
7125 3.0
7126 3.0
7127 3.0
7128 3.0
7129 3.0
7130 3.0
7131 3.0
7132 3.0
7133 3.0
7134 3.0
7135 3.0
7136 3.0
7137 3.0
7138 2.0
7139 2.0
7140 2.0
7141 2.0
7142 2.0
7143 2.0
7144 2.0
7145 2.0
7146 2.0
7147 2.0
7148 2.0
7149 2.0
7150 2.0
7151 2.0
7152 2.0
7153 2.0
7154 2.0
7155 2.0
7156 2.0
7157 2.0
7158 2.0
7159 2.0
7160 2.0
7161 2.0
7162 2.0
7163 2.0
7164 2.0
7165 2.0
7166 2.0
7167 2.0
7168 2.0
7169 2.0
7170 2.0
7171 2.0
7172 2.0
7173 2.0
7174 2.0
7175 2.0
7176 2.0
7177 2.0
7178 2.0
7179 2.0
7180 2.0
7181 2.0
7182 2.0
7183 2.0
7184 2.0
7185 3.0
7186 3.0
7187 2.0
7188 2.0
7189 3.0
7190 3.0
7191 2.0
7192 2.0
7193 3.0
7194 3.0
7195 2.0
7196 2.0
7197 3.0
7198 3.0
7199 2.0
7200 2.0
7201 3.0
7202 3.0
7203 2.0
7204 2.0
7205 3.0
7206 3.0
7207 2.0
7208 2.0
7209 3.0
7210 3.0
7211 2.0
7212 2.0
7213 3.0
7214 3.0
7215 2.0
7216 2.0
7217 3.0
7218 3.0
7219 2.0
7220 2.0
7221 3.0
7222 3.0
7223 2.0
7224 2.0
7225 3.0
7226 3.0
7227 2.0
7228 2.0
7229 3.0
7230 3.0
7231 2.0
7232 2.0
7233 3.0
7234 3.0
7235 2.0
7236 2.0
7237 3.0
7238 3.0
7239 2.0
7240 2.0
7241 3.0
7242 3.0
7243 2.0
7244 2.0
7245 3.0
7246 3.0
7247 2.0
7248 2.0
7249 2.0
7250 3.0
7251 3.0
7252 2.0
7253 3.0
7254 3.0
7255 2.0
7256 3.0
7257 3.0
7258 2.0
7259 3.0
7260 3.0
7261 2.0
7262 3.0
7263 3.0
7264 2.0
7265 3.0
7266 3.0
7267 2.0
7268 3.0
7269 3.0
7270 2.0
7271 3.0
7272 3.0
7273 2.0
7274 3.0
7275 3.0
7276 2.0
7277 3.0
7278 3.0
7279 2.0
7280 3.0
7281 3.0
7282 2.0
7283 3.0
7284 3.0
7285 2.0
7286 3.0
7287 3.0
7288 2.0
7289 3.0
7290 3.0
7291 2.0
7292 3.0
7293 3.0
7294 2.0
7295 3.0
7296 3.0
7297 3.0
7298 3.0
7299 2.0
7300 2.0
7301 2.0
7302 3.0
7303 3.0
7304 2.0
7305 2.0
7306 2.0
7307 3.0
7308 3.0
7309 2.0
7310 2.0
7311 2.0
7312 3.0
7313 3.0
7314 2.0
7315 2.0
7316 2.0
7317 3.0
7318 3.0
7319 2.0
7320 2.0
7321 2.0
7322 3.0
7323 3.0
7324 2.0
7325 2.0
7326 2.0
7327 3.0
7328 3.0
7329 2.0
7330 2.0
7331 2.0
7332 3.0
7333 3.0
7334 2.0
7335 2.0
7336 2.0
7337 3.0
7338 3.0
7339 2.0
7340 2.0
7341 2.0
7342 3.0
7343 3.0
7344 2.0
7345 2.0
7346 2.0
7347 3.0
7348 3.0
7349 2.0
7350 2.0
7351 2.0
7352 3.0
7353 3.0
7354 2.0
7355 2.0
7356 2.0
7357 3.0
7358 3.0
7359 2.0
7360 2.0
7361 2.0
7362 3.0
7363 3.0
7364 2.0
7365 2.0
7366 2.0
7367 3.0
7368 3.0
7369 2.0
7370 2.0
7371 2.0
7372 3.0
7373 3.0
7374 2.0
7375 2.0
7376 2.0
7377 2.0
7378 2.0
7379 2.0
7380 2.0
7381 2.0
7382 2.0
7383 2.0
7384 2.0
7385 2.0
7386 2.0
7387 2.0
7388 2.0
7389 2.0
7390 2.0
7391 2.0
7392 2.0
7393 2.0
7394 2.0
7395 2.0
7396 2.0
7397 2.0
7398 2.0
7399 2.0
7400 2.0
7401 2.0
7402 2.0
7403 2.0
7404 2.0
7405 2.0
7406 2.0
7407 2.0
7408 2.0
7409 2.0
7410 2.0
7411 2.0
7412 2.0
7413 2.0
7414 2.0
7415 2.0
7416 2.0
7417 2.0
7418 2.0
7419 2.0
7420 2.0
7421 2.0
7422 2.0
7423 2.0
7424 2.0
7425 2.0
7426 2.0
7427 2.0
7428 2.0
7429 2.0
7430 2.0
7431 2.0
7432 2.0
7433 2.0
7434 2.0
7435 2.0
7436 2.0
7437 2.0
7438 2.0
7439 2.0
7440 2.0
7441 2.0
7442 2.0
7443 2.0
7444 2.0
7445 2.0
7446 2.0
7447 2.0
7448 2.0
7449 2.0
7450 2.0
7451 2.0
7452 2.0
7453 2.0
7454 2.0
7455 2.0
7456 2.0
7457 2.0
7458 2.0
7459 2.0
7460 2.0
7461 2.0
7462 2.0
7463 2.0
7464 2.0
7465 2.0
7466 2.0
7467 2.0
7468 2.0
7469 2.0
7470 2.0
7471 2.0
7472 2.0
7473 3.0
7474 4.0
7475 3.0
7476 3.0
7477 3.0
7478 3.0
7479 3.0
7480 4.0
7481 3.0
7482 3.0
7483 3.0
7484 3.0
7485 3.0
7486 4.0
7487 3.0
7488 3.0
7489 3.0
7490 3.0
7491 3.0
7492 4.0
7493 3.0
7494 3.0
7495 3.0
7496 3.0
7497 3.0
7498 4.0
7499 3.0
7500 3.0
7501 3.0
7502 3.0
7503 3.0
7504 4.0
7505 3.0
7506 3.0
7507 3.0
7508 3.0
7509 3.0
7510 4.0
7511 3.0
7512 3.0
7513 3.0
7514 3.0
7515 3.0
7516 4.0
7517 3.0
7518 3.0
7519 3.0
7520 3.0
7521 3.0
7522 4.0
7523 3.0
7524 3.0
7525 3.0
7526 3.0
7527 3.0
7528 4.0
7529 3.0
7530 3.0
7531 3.0
7532 3.0
7533 3.0
7534 4.0
7535 3.0
7536 3.0
7537 3.0
7538 3.0
7539 3.0
7540 4.0
7541 3.0
7542 3.0
7543 3.0
7544 3.0
7545 3.0
7546 4.0
7547 3.0
7548 3.0
7549 3.0
7550 3.0
7551 3.0
7552 4.0
7553 3.0
7554 3.0
7555 3.0
7556 3.0
7557 3.0
7558 4.0
7559 3.0
7560 3.0
7561 3.0
7562 3.0
7563 3.0
7564 4.0
7565 3.0
7566 3.0
7567 3.0
7568 3.0
7569 1.0
7570 2.0
7571 2.0
7572 2.0
7573 2.0
7574 2.0
7575 2.0
7576 2.0
7577 2.0
7578 2.0
7579 2.0
7580 2.0
7581 2.0
7582 2.0
7583 2.0
7584 2.0
7585 2.0
7586 2.0
7587 2.0
7588 2.0
7589 2.0
7590 2.0
7591 2.0
7592 2.0
7593 2.0
7594 2.0
7595 2.0
7596 2.0
7597 2.0
7598 2.0
7599 2.0
7600 2.0
7601 2.0
7602 2.0
7603 2.0
7604 2.0
7605 2.0
7606 2.0
7607 2.0
7608 2.0
7609 2.0
7610 2.0
7611 2.0
7612 2.0
7613 2.0
7614 2.0
7615 2.0
7616 2.0
7617 2.0
7618 2.0
7619 2.0
7620 2.0
7621 2.0
7622 2.0
7623 2.0
7624 2.0
7625 2.0
7626 2.0
7627 2.0
7628 2.0
7629 2.0
7630 2.0
7631 2.0
7632 2.0
7633 1.0
7634 3.0
7635 3.0
7636 3.0
7637 3.0
7638 3.0
7639 3.0
7640 3.0
7641 3.0
7642 3.0
7643 3.0
7644 3.0
7645 3.0
7646 3.0
7647 3.0
7648 3.0
7649 3.0
7650 3.0
7651 3.0
7652 3.0
7653 3.0
7654 3.0
7655 3.0
7656 3.0
7657 3.0
7658 3.0
7659 3.0
7660 3.0
7661 3.0
7662 3.0
7663 3.0
7664 3.0
7665 3.0
7666 3.0
7667 3.0
7668 3.0
7669 3.0
7670 3.0
7671 3.0
7672 3.0
7673 3.0
7674 3.0
7675 3.0
7676 3.0
7677 3.0
7678 3.0
7679 3.0
7680 3.0
7681 3.0
7682 3.0
7683 3.0
7684 3.0
7685 3.0
7686 3.0
7687 3.0
7688 3.0
7689 3.0
7690 3.0
7691 3.0
7692 3.0
7693 3.0
7694 3.0
7695 3.0
7696 3.0
7697 3.0
7698 3.0
7699 3.0
7700 3.0
7701 3.0
7702 3.0
7703 3.0
7704 3.0
7705 3.0
7706 3.0
7707 3.0
7708 3.0
7709 3.0
7710 3.0
7711 3.0
7712 3.0
7713 3.0
7714 3.0
7715 3.0
7716 3.0
7717 3.0
7718 3.0
7719 3.0
7720 3.0
7721 3.0
7722 3.0
7723 3.0
7724 3.0
7725 3.0
7726 3.0
7727 3.0
7728 3.0
7729 3.0
7730 2.0
7731 2.0
7732 2.0
7733 2.0
7734 2.0
7735 2.0
7736 2.0
7737 2.0
7738 2.0
7739 2.0
7740 2.0
7741 2.0
7742 2.0
7743 2.0
7744 2.0
7745 2.0
7746 2.0
7747 2.0
7748 2.0
7749 2.0
7750 2.0
7751 2.0
7752 2.0
7753 2.0
7754 2.0
7755 2.0
7756 2.0
7757 2.0
7758 2.0
7759 2.0
7760 2.0
7761 2.0
7762 2.0
7763 2.0
7764 2.0
7765 2.0
7766 2.0
7767 2.0
7768 2.0
7769 2.0
7770 2.0
7771 2.0
7772 2.0
7773 2.0
7774 2.0
7775 2.0
7776 2.0
7777 3.0
7778 3.0
7779 2.0
7780 2.0
7781 3.0
7782 3.0
7783 2.0
7784 2.0
7785 3.0
7786 3.0
7787 2.0
7788 2.0
7789 3.0
7790 3.0
7791 2.0
7792 2.0
7793 3.0
7794 3.0
7795 2.0
7796 2.0
7797 3.0
7798 3.0
7799 2.0
7800 2.0
7801 3.0
7802 3.0
7803 2.0
7804 2.0
7805 3.0
7806 3.0
7807 2.0
7808 2.0
7809 3.0
7810 3.0
7811 2.0
7812 2.0
7813 3.0
7814 3.0
7815 2.0
7816 2.0
7817 3.0
7818 3.0
7819 2.0
7820 2.0
7821 3.0
7822 3.0
7823 2.0
7824 2.0
7825 3.0
7826 3.0
7827 2.0
7828 2.0
7829 3.0
7830 3.0
7831 2.0
7832 2.0
7833 3.0
7834 3.0
7835 2.0
7836 2.0
7837 3.0
7838 3.0
7839 2.0
7840 2.0
7841 2.0
7842 3.0
7843 3.0
7844 2.0
7845 3.0
7846 3.0
7847 2.0
7848 3.0
7849 3.0
7850 2.0
7851 3.0
7852 3.0
7853 2.0
7854 3.0
7855 3.0
7856 2.0
7857 3.0
7858 3.0
7859 2.0
7860 3.0
7861 3.0
7862 2.0
7863 3.0
7864 3.0
7865 2.0
7866 3.0
7867 3.0
7868 2.0
7869 3.0
7870 3.0
7871 2.0
7872 3.0
7873 3.0
7874 2.0
7875 3.0
7876 3.0
7877 2.0
7878 3.0
7879 3.0
7880 2.0
7881 3.0
7882 3.0
7883 2.0
7884 3.0
7885 3.0
7886 2.0
7887 3.0
7888 3.0
7889 3.0
7890 3.0
7891 2.0
7892 2.0
7893 2.0
7894 3.0
7895 3.0
7896 2.0
7897 2.0
7898 2.0
7899 3.0
7900 3.0
7901 2.0
7902 2.0
7903 2.0
7904 3.0
7905 3.0
7906 2.0
7907 2.0
7908 2.0
7909 3.0
7910 3.0
7911 2.0
7912 2.0
7913 2.0
7914 3.0
7915 3.0
7916 2.0
7917 2.0
7918 2.0
7919 3.0
7920 3.0
7921 2.0
7922 2.0
7923 2.0
7924 3.0
7925 3.0
7926 2.0
7927 2.0
7928 2.0
7929 3.0
7930 3.0
7931 2.0
7932 2.0
7933 2.0
7934 3.0
7935 3.0
7936 2.0
7937 2.0
7938 2.0
7939 3.0
7940 3.0
7941 2.0
7942 2.0
7943 2.0
7944 3.0
7945 3.0
7946 2.0
7947 2.0
7948 2.0
7949 3.0
7950 3.0
7951 2.0
7952 2.0
7953 2.0
7954 3.0
7955 3.0
7956 2.0
7957 2.0
7958 2.0
7959 3.0
7960 3.0
7961 2.0
7962 2.0
7963 2.0
7964 3.0
7965 3.0
7966 2.0
7967 2.0
7968 2.0
7969 2.0
7970 2.0
7971 2.0
7972 2.0
7973 2.0
7974 2.0
7975 2.0
7976 2.0
7977 2.0
7978 2.0
7979 2.0
7980 2.0
7981 2.0
7982 2.0
7983 2.0
7984 2.0
7985 2.0
7986 2.0
7987 2.0
7988 2.0
7989 2.0
7990 2.0
7991 2.0
7992 2.0
7993 2.0
7994 2.0
7995 2.0
7996 2.0
7997 2.0
7998 2.0
7999 2.0
8000 2.0
8001 2.0
8002 2.0
8003 2.0
8004 2.0
8005 2.0
8006 2.0
8007 2.0
8008 2.0
8009 2.0
8010 2.0
8011 2.0
8012 2.0
8013 2.0
8014 2.0
8015 2.0
8016 2.0
8017 2.0
8018 2.0
8019 2.0
8020 2.0
8021 2.0
8022 2.0
8023 2.0
8024 2.0
8025 2.0
8026 2.0
8027 2.0
8028 2.0
8029 2.0
8030 2.0
8031 2.0
8032 2.0
8033 2.0
8034 2.0
8035 2.0
8036 2.0
8037 2.0
8038 2.0
8039 2.0
8040 2.0
8041 2.0
8042 2.0
8043 2.0
8044 2.0
8045 2.0
8046 2.0
8047 2.0
8048 2.0
8049 2.0
8050 2.0
8051 2.0
8052 2.0
8053 2.0
8054 2.0
8055 2.0
8056 2.0
8057 2.0
8058 2.0
8059 2.0
8060 2.0
8061 2.0
8062 2.0
8063 2.0
8064 2.0
8065 3.0
8066 4.0
8067 3.0
8068 3.0
8069 3.0
8070 3.0
8071 3.0
8072 4.0
8073 3.0
8074 3.0
8075 3.0
8076 3.0
8077 3.0
8078 4.0
8079 3.0
8080 3.0
8081 3.0
8082 3.0
8083 3.0
8084 4.0
8085 3.0
8086 3.0
8087 3.0
8088 3.0
8089 3.0
8090 4.0
8091 3.0
8092 3.0
8093 3.0
8094 3.0
8095 3.0
8096 4.0
8097 3.0
8098 3.0
8099 3.0
8100 3.0
8101 3.0
8102 4.0
8103 3.0
8104 3.0
8105 3.0
8106 3.0
8107 3.0
8108 4.0
8109 3.0
8110 3.0
8111 3.0
8112 3.0
8113 3.0
8114 4.0
8115 3.0
8116 3.0
8117 3.0
8118 3.0
8119 3.0
8120 4.0
8121 3.0
8122 3.0
8123 3.0
8124 3.0
8125 3.0
8126 4.0
8127 3.0
8128 3.0
8129 3.0
8130 3.0
8131 3.0
8132 4.0
8133 3.0
8134 3.0
8135 3.0
8136 3.0
8137 3.0
8138 4.0
8139 3.0
8140 3.0
8141 3.0
8142 3.0
8143 3.0
8144 4.0
8145 3.0
8146 3.0
8147 3.0
8148 3.0
8149 3.0
8150 4.0
8151 3.0
8152 3.0
8153 3.0
8154 3.0
8155 3.0
8156 4.0
8157 3.0
8158 3.0
8159 3.0
8160 3.0
8161 1.0
8162 2.0
8163 2.0
8164 2.0
8165 2.0
8166 2.0
8167 2.0
8168 2.0
8169 2.0
8170 2.0
8171 2.0
8172 2.0
8173 2.0
8174 2.0
8175 2.0
8176 2.0
8177 2.0
8178 2.0
8179 2.0
8180 2.0
8181 2.0
8182 2.0
8183 2.0
8184 2.0
8185 2.0
8186 2.0
8187 2.0
8188 2.0
8189 2.0
8190 2.0
8191 2.0
8192 2.0
8193 2.0
8194 2.0
8195 2.0
8196 2.0
8197 2.0
8198 2.0
8199 2.0
8200 2.0
8201 2.0
8202 2.0
8203 2.0
8204 2.0
8205 2.0
8206 2.0
8207 2.0
8208 2.0
8209 2.0
8210 2.0
8211 2.0
8212 2.0
8213 2.0
8214 2.0
8215 2.0
8216 2.0
8217 2.0
8218 2.0
8219 2.0
8220 2.0
8221 2.0
8222 2.0
8223 2.0
8224 2.0
8225 1.0
8226 3.0
8227 3.0
8228 3.0
8229 3.0
8230 3.0
8231 3.0
8232 3.0
8233 3.0
8234 3.0
8235 3.0
8236 3.0
8237 3.0
8238 3.0
8239 3.0
8240 3.0
8241 3.0
8242 3.0
8243 3.0
8244 3.0
8245 3.0
8246 3.0
8247 3.0
8248 3.0
8249 3.0
8250 3.0
8251 3.0
8252 3.0
8253 3.0
8254 3.0
8255 3.0
8256 3.0
8257 3.0
8258 3.0
8259 3.0
8260 3.0
8261 3.0
8262 3.0
8263 3.0
8264 3.0
8265 3.0
8266 3.0
8267 3.0
8268 3.0
8269 3.0
8270 3.0
8271 3.0
8272 3.0
8273 3.0
8274 3.0
8275 3.0
8276 3.0
8277 3.0
8278 3.0
8279 3.0
8280 3.0
8281 3.0
8282 3.0
8283 3.0
8284 3.0
8285 3.0
8286 3.0
8287 3.0
8288 3.0
8289 3.0
8290 3.0
8291 3.0
8292 3.0
8293 3.0
8294 3.0
8295 3.0
8296 3.0
8297 3.0
8298 3.0
8299 3.0
8300 3.0
8301 3.0
8302 3.0
8303 3.0
8304 3.0
8305 3.0
8306 3.0
8307 3.0
8308 3.0
8309 3.0
8310 3.0
8311 3.0
8312 3.0
8313 3.0
8314 3.0
8315 3.0
8316 3.0
8317 3.0
8318 3.0
8319 3.0
8320 3.0
8321 3.0
8322 2.0
8323 2.0
8324 2.0
8325 2.0
8326 2.0
8327 2.0
8328 2.0
8329 2.0
8330 2.0
8331 2.0
8332 2.0
8333 2.0
8334 2.0
8335 2.0
8336 2.0
8337 2.0
8338 2.0
8339 2.0
8340 2.0
8341 2.0
8342 2.0
8343 2.0
8344 2.0
8345 2.0
8346 2.0
8347 2.0
8348 2.0
8349 2.0
8350 2.0
8351 2.0
8352 2.0
8353 2.0
8354 2.0
8355 2.0
8356 2.0
8357 2.0
8358 2.0
8359 2.0
8360 2.0
8361 2.0
8362 2.0
8363 2.0
8364 2.0
8365 2.0
8366 2.0
8367 2.0
8368 2.0
8369 3.0
8370 3.0
8371 2.0
8372 2.0
8373 3.0
8374 3.0
8375 2.0
8376 2.0
8377 3.0
8378 3.0
8379 2.0
8380 2.0
8381 3.0
8382 3.0
8383 2.0
8384 2.0
8385 3.0
8386 3.0
8387 2.0
8388 2.0
8389 3.0
8390 3.0
8391 2.0
8392 2.0
8393 3.0
8394 3.0
8395 2.0
8396 2.0
8397 3.0
8398 3.0
8399 2.0
8400 2.0
8401 3.0
8402 3.0
8403 2.0
8404 2.0
8405 3.0
8406 3.0
8407 2.0
8408 2.0
8409 3.0
8410 3.0
8411 2.0
8412 2.0
8413 3.0
8414 3.0
8415 2.0
8416 2.0
8417 3.0
8418 3.0
8419 2.0
8420 2.0
8421 3.0
8422 3.0
8423 2.0
8424 2.0
8425 3.0
8426 3.0
8427 2.0
8428 2.0
8429 3.0
8430 3.0
8431 2.0
8432 2.0
8433 2.0
8434 3.0
8435 3.0
8436 2.0
8437 3.0
8438 3.0
8439 2.0
8440 3.0
8441 3.0
8442 2.0
8443 3.0
8444 3.0
8445 2.0
8446 3.0
8447 3.0
8448 2.0
8449 3.0
8450 3.0
8451 2.0
8452 3.0
8453 3.0
8454 2.0
8455 3.0
8456 3.0
8457 2.0
8458 3.0
8459 3.0
8460 2.0
8461 3.0
8462 3.0
8463 2.0
8464 3.0
8465 3.0
8466 2.0
8467 3.0
8468 3.0
8469 2.0
8470 3.0
8471 3.0
8472 2.0
8473 3.0
8474 3.0
8475 2.0
8476 3.0
8477 3.0
8478 2.0
8479 3.0
8480 3.0
8481 3.0
8482 3.0
8483 2.0
8484 2.0
8485 2.0
8486 3.0
8487 3.0
8488 2.0
8489 2.0
8490 2.0
8491 3.0
8492 3.0
8493 2.0
8494 2.0
8495 2.0
8496 3.0
8497 3.0
8498 2.0
8499 2.0
8500 2.0
8501 3.0
8502 3.0
8503 2.0
8504 2.0
8505 2.0
8506 3.0
8507 3.0
8508 2.0
8509 2.0
8510 2.0
8511 3.0
8512 3.0
8513 2.0
8514 2.0
8515 2.0
8516 3.0
8517 3.0
8518 2.0
8519 2.0
8520 2.0
8521 3.0
8522 3.0
8523 2.0
8524 2.0
8525 2.0
8526 3.0
8527 3.0
8528 2.0
8529 2.0
8530 2.0
8531 3.0
8532 3.0
8533 2.0
8534 2.0
8535 2.0
8536 3.0
8537 3.0
8538 2.0
8539 2.0
8540 2.0
8541 3.0
8542 3.0
8543 2.0
8544 2.0
8545 2.0
8546 3.0
8547 3.0
8548 2.0
8549 2.0
8550 2.0
8551 3.0
8552 3.0
8553 2.0
8554 2.0
8555 2.0
8556 3.0
8557 3.0
8558 2.0
8559 2.0
8560 2.0
8561 2.0
8562 2.0
8563 2.0
8564 2.0
8565 2.0
8566 2.0
8567 2.0
8568 2.0
8569 2.0
8570 2.0
8571 2.0
8572 2.0
8573 2.0
8574 2.0
8575 2.0
8576 2.0
8577 2.0
8578 2.0
8579 2.0
8580 2.0
8581 2.0
8582 2.0
8583 2.0
8584 2.0
8585 2.0
8586 2.0
8587 2.0
8588 2.0
8589 2.0
8590 2.0
8591 2.0
8592 2.0
8593 2.0
8594 2.0
8595 2.0
8596 2.0
8597 2.0
8598 2.0
8599 2.0
8600 2.0
8601 2.0
8602 2.0
8603 2.0
8604 2.0
8605 2.0
8606 2.0
8607 2.0
8608 2.0
8609 2.0
8610 2.0
8611 2.0
8612 2.0
8613 2.0
8614 2.0
8615 2.0
8616 2.0
8617 2.0
8618 2.0
8619 2.0
8620 2.0
8621 2.0
8622 2.0
8623 2.0
8624 2.0
8625 2.0
8626 2.0
8627 2.0
8628 2.0
8629 2.0
8630 2.0
8631 2.0
8632 2.0
8633 2.0
8634 2.0
8635 2.0
8636 2.0
8637 2.0
8638 2.0
8639 2.0
8640 2.0
8641 2.0
8642 2.0
8643 2.0
8644 2.0
8645 2.0
8646 2.0
8647 2.0
8648 2.0
8649 2.0
8650 2.0
8651 2.0
8652 2.0
8653 2.0
8654 2.0
8655 2.0
8656 2.0
8657 3.0
8658 4.0
8659 3.0
8660 3.0
8661 3.0
8662 3.0
8663 3.0
8664 4.0
8665 3.0
8666 3.0
8667 3.0
8668 3.0
8669 3.0
8670 4.0
8671 3.0
8672 3.0
8673 3.0
8674 3.0
8675 3.0
8676 4.0
8677 3.0
8678 3.0
8679 3.0
8680 3.0
8681 3.0
8682 4.0
8683 3.0
8684 3.0
8685 3.0
8686 3.0
8687 3.0
8688 4.0
8689 3.0
8690 3.0
8691 3.0
8692 3.0
8693 3.0
8694 4.0
8695 3.0
8696 3.0
8697 3.0
8698 3.0
8699 3.0
8700 4.0
8701 3.0
8702 3.0
8703 3.0
8704 3.0
8705 3.0
8706 4.0
8707 3.0
8708 3.0
8709 3.0
8710 3.0
8711 3.0
8712 4.0
8713 3.0
8714 3.0
8715 3.0
8716 3.0
8717 3.0
8718 4.0
8719 3.0
8720 3.0
8721 3.0
8722 3.0
8723 3.0
8724 4.0
8725 3.0
8726 3.0
8727 3.0
8728 3.0
8729 3.0
8730 4.0
8731 3.0
8732 3.0
8733 3.0
8734 3.0
8735 3.0
8736 4.0
8737 3.0
8738 3.0
8739 3.0
8740 3.0
8741 3.0
8742 4.0
8743 3.0
8744 3.0
8745 3.0
8746 3.0
8747 3.0
8748 4.0
8749 3.0
8750 3.0
8751 3.0
8752 3.0
8753 1.0
8754 2.0
8755 2.0
8756 2.0
8757 2.0
8758 2.0
8759 2.0
8760 2.0
8761 2.0
8762 2.0
8763 2.0
8764 2.0
8765 2.0
8766 2.0
8767 2.0
8768 2.0
8769 2.0
8770 2.0
8771 2.0
8772 2.0
8773 2.0
8774 2.0
8775 2.0
8776 2.0
8777 2.0
8778 2.0
8779 2.0
8780 2.0
8781 2.0
8782 2.0
8783 2.0
8784 2.0
8785 2.0
8786 2.0
8787 2.0
8788 2.0
8789 2.0
8790 2.0
8791 2.0
8792 2.0
8793 2.0
8794 2.0
8795 2.0
8796 2.0
8797 2.0
8798 2.0
8799 2.0
8800 2.0
8801 2.0
8802 2.0
8803 2.0
8804 2.0
8805 2.0
8806 2.0
8807 2.0
8808 2.0
8809 2.0
8810 2.0
8811 2.0
8812 2.0
8813 2.0
8814 2.0
8815 2.0
8816 2.0
8817 1.0
8818 3.0
8819 3.0
8820 3.0
8821 3.0
8822 3.0
8823 3.0
8824 3.0
8825 3.0
8826 3.0
8827 3.0
8828 3.0
8829 3.0
8830 3.0
8831 3.0
8832 3.0
8833 3.0
8834 3.0
8835 3.0
8836 3.0
8837 3.0
8838 3.0
8839 3.0
8840 3.0
8841 3.0
8842 3.0
8843 3.0
8844 3.0
8845 3.0
8846 3.0
8847 3.0
8848 3.0
8849 3.0
8850 3.0
8851 3.0
8852 3.0
8853 3.0
8854 3.0
8855 3.0
8856 3.0
8857 3.0
8858 3.0
8859 3.0
8860 3.0
8861 3.0
8862 3.0
8863 3.0
8864 3.0
8865 3.0
8866 3.0
8867 3.0
8868 3.0
8869 3.0
8870 3.0
8871 3.0
8872 3.0
8873 3.0
8874 3.0
8875 3.0
8876 3.0
8877 3.0
8878 3.0
8879 3.0
8880 3.0
8881 3.0
8882 3.0
8883 3.0
8884 3.0
8885 3.0
8886 3.0
8887 3.0
8888 3.0
8889 3.0
8890 3.0
8891 3.0
8892 3.0
8893 3.0
8894 3.0
8895 3.0
8896 3.0
8897 3.0
8898 3.0
8899 3.0
8900 3.0
8901 3.0
8902 3.0
8903 3.0
8904 3.0
8905 3.0
8906 3.0
8907 3.0
8908 3.0
8909 3.0
8910 3.0
8911 3.0
8912 3.0
8913 3.0
8914 2.0
8915 2.0
8916 2.0
8917 2.0
8918 2.0
8919 2.0
8920 2.0
8921 2.0
8922 2.0
8923 2.0
8924 2.0
8925 2.0
8926 2.0
8927 2.0
8928 2.0
8929 2.0
8930 2.0
8931 2.0
8932 2.0
8933 2.0
8934 2.0
8935 2.0
8936 2.0
8937 2.0
8938 2.0
8939 2.0
8940 2.0
8941 2.0
8942 2.0
8943 2.0
8944 2.0
8945 2.0
8946 2.0
8947 2.0
8948 2.0
8949 2.0
8950 2.0
8951 2.0
8952 2.0
8953 2.0
8954 2.0
8955 2.0
8956 2.0
8957 2.0
8958 2.0
8959 2.0
8960 2.0
8961 3.0
8962 3.0
8963 2.0
8964 2.0
8965 3.0
8966 3.0
8967 2.0
8968 2.0
8969 3.0
8970 3.0
8971 2.0
8972 2.0
8973 3.0
8974 3.0
8975 2.0
8976 2.0
8977 3.0
8978 3.0
8979 2.0
8980 2.0
8981 3.0
8982 3.0
8983 2.0
8984 2.0
8985 3.0
8986 3.0
8987 2.0
8988 2.0
8989 3.0
8990 3.0
8991 2.0
8992 2.0
8993 3.0
8994 3.0
8995 2.0
8996 2.0
8997 3.0
8998 3.0
8999 2.0
9000 2.0
9001 3.0
9002 3.0
9003 2.0
9004 2.0
9005 3.0
9006 3.0
9007 2.0
9008 2.0
9009 3.0
9010 3.0
9011 2.0
9012 2.0
9013 3.0
9014 3.0
9015 2.0
9016 2.0
9017 3.0
9018 3.0
9019 2.0
9020 2.0
9021 3.0
9022 3.0
9023 2.0
9024 2.0
9025 2.0
9026 3.0
9027 3.0
9028 2.0
9029 3.0
9030 3.0
9031 2.0
9032 3.0
9033 3.0
9034 2.0
9035 3.0
9036 3.0
9037 2.0
9038 3.0
9039 3.0
9040 2.0
9041 3.0
9042 3.0
9043 2.0
9044 3.0
9045 3.0
9046 2.0
9047 3.0
9048 3.0
9049 2.0
9050 3.0
9051 3.0
9052 2.0
9053 3.0
9054 3.0
9055 2.0
9056 3.0
9057 3.0
9058 2.0
9059 3.0
9060 3.0
9061 2.0
9062 3.0
9063 3.0
9064 2.0
9065 3.0
9066 3.0
9067 2.0
9068 3.0
9069 3.0
9070 2.0
9071 3.0
9072 3.0
9073 3.0
9074 3.0
9075 2.0
9076 2.0
9077 2.0
9078 3.0
9079 3.0
9080 2.0
9081 2.0
9082 2.0
9083 3.0
9084 3.0
9085 2.0
9086 2.0
9087 2.0
9088 3.0
9089 3.0
9090 2.0
9091 2.0
9092 2.0
9093 3.0
9094 3.0
9095 2.0
9096 2.0
9097 2.0
9098 3.0
9099 3.0
9100 2.0
9101 2.0
9102 2.0
9103 3.0
9104 3.0
9105 2.0
9106 2.0
9107 2.0
9108 3.0
9109 3.0
9110 2.0
9111 2.0
9112 2.0
9113 3.0
9114 3.0
9115 2.0
9116 2.0
9117 2.0
9118 3.0
9119 3.0
9120 2.0
9121 2.0
9122 2.0
9123 3.0
9124 3.0
9125 2.0
9126 2.0
9127 2.0
9128 3.0
9129 3.0
9130 2.0
9131 2.0
9132 2.0
9133 3.0
9134 3.0
9135 2.0
9136 2.0
9137 2.0
9138 3.0
9139 3.0
9140 2.0
9141 2.0
9142 2.0
9143 3.0
9144 3.0
9145 2.0
9146 2.0
9147 2.0
9148 3.0
9149 3.0
9150 2.0
9151 2.0
9152 2.0
9153 2.0
9154 2.0
9155 2.0
9156 2.0
9157 2.0
9158 2.0
9159 2.0
9160 2.0
9161 2.0
9162 2.0
9163 2.0
9164 2.0
9165 2.0
9166 2.0
9167 2.0
9168 2.0
9169 2.0
9170 2.0
9171 2.0
9172 2.0
9173 2.0
9174 2.0
9175 2.0
9176 2.0
9177 2.0
9178 2.0
9179 2.0
9180 2.0
9181 2.0
9182 2.0
9183 2.0
9184 2.0
9185 2.0
9186 2.0
9187 2.0
9188 2.0
9189 2.0
9190 2.0
9191 2.0
9192 2.0
9193 2.0
9194 2.0
9195 2.0
9196 2.0
9197 2.0
9198 2.0
9199 2.0
9200 2.0
9201 2.0
9202 2.0
9203 2.0
9204 2.0
9205 2.0
9206 2.0
9207 2.0
9208 2.0
9209 2.0
9210 2.0
9211 2.0
9212 2.0
9213 2.0
9214 2.0
9215 2.0
9216 2.0
9217 2.0
9218 2.0
9219 2.0
9220 2.0
9221 2.0
9222 2.0
9223 2.0
9224 2.0
9225 2.0
9226 2.0
9227 2.0
9228 2.0
9229 2.0
9230 2.0
9231 2.0
9232 2.0
9233 2.0
9234 2.0
9235 2.0
9236 2.0
9237 2.0
9238 2.0
9239 2.0
9240 2.0
9241 2.0
9242 2.0
9243 2.0
9244 2.0
9245 2.0
9246 2.0
9247 2.0
9248 2.0
9249 3.0
9250 4.0
9251 3.0
9252 3.0
9253 3.0
9254 3.0
9255 3.0
9256 4.0
9257 3.0
9258 3.0
9259 3.0
9260 3.0
9261 3.0
9262 4.0
9263 3.0
9264 3.0
9265 3.0
9266 3.0
9267 3.0
9268 4.0
9269 3.0
9270 3.0
9271 3.0
9272 3.0
9273 3.0
9274 4.0
9275 3.0
9276 3.0
9277 3.0
9278 3.0
9279 3.0
9280 4.0
9281 3.0
9282 3.0
9283 3.0
9284 3.0
9285 3.0
9286 4.0
9287 3.0
9288 3.0
9289 3.0
9290 3.0
9291 3.0
9292 4.0
9293 3.0
9294 3.0
9295 3.0
9296 3.0
9297 3.0
9298 4.0
9299 3.0
9300 3.0
9301 3.0
9302 3.0
9303 3.0
9304 4.0
9305 3.0
9306 3.0
9307 3.0
9308 3.0
9309 3.0
9310 4.0
9311 3.0
9312 3.0
9313 3.0
9314 3.0
9315 3.0
9316 4.0
9317 3.0
9318 3.0
9319 3.0
9320 3.0
9321 3.0
9322 4.0
9323 3.0
9324 3.0
9325 3.0
9326 3.0
9327 3.0
9328 4.0
9329 3.0
9330 3.0
9331 3.0
9332 3.0
9333 3.0
9334 4.0
9335 3.0
9336 3.0
9337 3.0
9338 3.0
9339 3.0
9340 4.0
9341 3.0
9342 3.0
9343 3.0
9344 3.0
9345 1.0
9346 2.0
9347 2.0
9348 2.0
9349 2.0
9350 2.0
9351 2.0
9352 2.0
9353 2.0
9354 2.0
9355 2.0
9356 2.0
9357 2.0
9358 2.0
9359 2.0
9360 2.0
9361 2.0
9362 2.0
9363 2.0
9364 2.0
9365 2.0
9366 2.0
9367 2.0
9368 2.0
9369 2.0
9370 2.0
9371 2.0
9372 2.0
9373 2.0
9374 2.0
9375 2.0
9376 2.0
9377 2.0
9378 2.0
9379 2.0
9380 2.0
9381 2.0
9382 2.0
9383 2.0
9384 2.0
9385 2.0
9386 2.0
9387 2.0
9388 2.0
9389 2.0
9390 2.0
9391 2.0
9392 2.0
9393 2.0
9394 2.0
9395 2.0
9396 2.0
9397 2.0
9398 2.0
9399 2.0
9400 2.0
9401 2.0
9402 2.0
9403 2.0
9404 2.0
9405 2.0
9406 2.0
9407 2.0
9408 2.0
9409 1.0
9410 3.0
9411 3.0
9412 3.0
9413 3.0
9414 3.0
9415 3.0
9416 3.0
9417 3.0
9418 3.0
9419 3.0
9420 3.0
9421 3.0
9422 3.0
9423 3.0
9424 3.0
9425 3.0
9426 3.0
9427 3.0
9428 3.0
9429 3.0
9430 3.0
9431 3.0
9432 3.0
9433 3.0
9434 3.0
9435 3.0
9436 3.0
9437 3.0
9438 3.0
9439 3.0
9440 3.0
9441 3.0
9442 3.0
9443 3.0
9444 3.0
9445 3.0
9446 3.0
9447 3.0
9448 3.0
9449 3.0
9450 3.0
9451 3.0
9452 3.0
9453 3.0
9454 3.0
9455 3.0
9456 3.0
9457 3.0
9458 3.0
9459 3.0
9460 3.0
9461 3.0
9462 3.0
9463 3.0
9464 3.0
9465 3.0
9466 3.0
9467 3.0
9468 3.0
9469 3.0
9470 3.0
9471 3.0
9472 3.0
9473 3.0
9474 3.0
9475 3.0
9476 3.0
9477 3.0
9478 3.0
9479 3.0
9480 3.0
9481 3.0
9482 1.0
9483 1.0
9484 1.0
9485 1.0
9486 1.0
9487 1.0
9488 1.0
9489 1.0
9490 1.0
9491 1.0
9492 1.0
9493 1.0
9494 1.0
9495 1.0
9496 1.0
9497 1.0

edges:
1 2
1 47
2 31
3 4
3 50
4 32
5 6
5 53
6 33
7 8
7 56
8 34
9 10
9 59
10 35
11 12
11 62
12 36
13 14
13 65
14 37
15 16
15 68
16 38
17 18
17 71
18 39
19 20
19 74
20 40
21 22
21 77
22 41
23 24
23 80
24 42
25 26
25 83
26 43
27 28
27 86
28 44
29 30
29 89
30 45
31 48
32 51
33 54
34 57
35 60
36 63
37 66
38 69
39 72
40 75
41 78
42 81
43 84
44 87
45 90
46 92
46 93
47 157
47 158
48 159
49 96
49 97
50 160
50 161
51 162
52 100
52 101
53 163
53 164
54 165
55 104
55 105
56 166
56 167
57 168
58 108
58 109
59 169
59 170
60 171
61 112
61 113
62 172
62 173
63 174
64 116
64 117
65 175
65 176
66 177
67 120
67 121
68 178
68 179
69 180
70 124
70 125
71 181
71 182
72 183
73 128
73 129
74 184
74 185
75 186
76 132
76 133
77 187
77 188
78 189
79 136
79 137
80 190
80 191
81 192
82 140
82 141
83 193
83 194
84 195
85 144
85 145
86 196
86 197
87 198
88 148
88 149
89 199
89 200
90 201
91 152
91 153
92 93
92 156
92 204
92 205
93 94
93 204
93 205
94 157
94 205
94 206
95 158
95 207
95 208
96 97
96 159
96 209
96 210
97 98
97 209
97 210
98 160
98 210
98 211
99 161
99 212
99 213
100 101
100 162
100 214
100 215
101 102
101 214
101 215
102 163
102 215
102 216
103 164
103 217
103 218
104 105
104 165
104 219
104 220
105 106
105 219
105 220
106 166
106 220
106 221
107 167
107 222
107 223
108 109
108 168
108 224
108 225
109 110
109 224
109 225
110 169
110 225
110 226
111 170
111 227
111 228
112 113
112 171
112 229
112 230
113 114
113 229
113 230
114 172
114 230
114 231
115 173
115 232
115 233
116 117
116 174
116 234
116 235
117 118
117 234
117 235
118 175
118 235
118 236
119 176
119 237
119 238
120 121
120 177
120 239
120 240
121 122
121 239
121 240
122 178
122 240
122 241
123 179
123 242
123 243
124 125
124 180
124 244
124 245
125 126
125 244
125 245
126 181
126 245
126 246
127 182
127 247
127 248
128 129
128 183
128 249
128 250
129 130
129 249
129 250
130 184
130 250
130 251
131 185
131 252
131 253
132 133
132 186
132 254
132 255
133 134
133 254
133 255
134 187
134 255
134 256
135 188
135 257
135 258
136 137
136 189
136 259
136 260
137 138
137 259
137 260
138 190
138 260
138 261
139 191
139 262
139 263
140 141
140 192
140 264
140 265
141 142
141 264
141 265
142 193
142 265
142 266
143 194
143 267
143 268
144 145
144 195
144 269
144 270
145 146
145 269
145 270
146 196
146 270
146 271
147 197
147 272
147 273
148 149
148 198
148 274
148 275
149 150
149 274
149 275
150 199
150 275
150 276
151 200
151 277
151 278
152 153
152 201
152 279
152 280
153 154
153 279
153 280
154 202
154 280
154 281
155 203
155 282
155 283
156 204
157 158
157 206
157 284
157 285
158 207
158 284
158 285
159 209
160 161
160 211
160 286
160 287
161 212
161 286
161 287
162 214
163 164
163 216
163 288
163 289
164 217
164 288
164 289
165 219
166 167
166 221
166 290
166 291
167 222
167 290
167 291
168 224
169 170
169 226
169 292
169 293
170 227
170 292
170 293
171 229
172 173
172 231
172 294
172 295
173 232
173 294
173 295
174 234
175 176
175 236
175 296
175 297
176 237
176 296
176 297
177 239
178 179
178 241
178 298
178 299
179 242
179 298
179 299
180 244
181 182
181 246
181 300
181 301
182 247
182 300
182 301
183 249
184 185
184 251
184 302
184 303
185 252
185 302
185 303
186 254
187 188
187 256
187 304
187 305
188 257
188 304
188 305
189 259
190 191
190 261
190 306
190 307
191 262
191 306
191 307
192 264
193 194
193 266
193 308
193 309
194 267
194 308
194 309
195 269
196 197
196 271
196 310
196 311
197 272
197 310
197 311
198 274
199 200
199 276
199 312
199 313
200 277
200 312
200 313
201 279
202 203
202 281
202 314
202 315
203 282
203 314
203 315
204 205
204 316
205 316
206 284
206 317
207 285
207 318
208 319
209 210
209 320
210 320
211 286
211 321
212 287
212 322
213 323
214 215
214 324
215 324
216 288
216 325
217 289
217 326
218 327
219 220
219 328
220 328
221 290
221 329
222 291
222 330
223 331
224 225
224 332
225 332
226 292
226 333
227 293
227 334
228 335
229 230
229 336
230 336
231 294
231 337
232 295
232 338
233 339
234 235
234 340
235 340
236 296
236 341
237 297
237 342
238 343
239 240
239 344
240 344
241 298
241 345
242 299
242 346
243 347
244 245
244 348
245 348
246 300
246 349
247 301
247 350
248 351
249 250
249 352
250 352
251 302
251 353
252 303
252 354
253 355
254 255
254 356
255 356
256 304
256 357
257 305
257 358
258 359
259 260
259 360
260 360
261 306
261 361
262 307
262 362
263 363
264 265
264 364
265 364
266 308
266 365
267 309
267 366
268 367
269 270
269 368
270 368
271 310
271 369
272 311
272 370
273 371
274 275
274 372
275 372
276 312
276 373
277 313
277 374
278 375
279 280
279 376
280 376
281 314
281 377
282 315
282 378
283 379
284 285
284 317
285 318
286 287
286 321
287 322
288 289
288 325
289 326
290 291
290 329
291 330
292 293
292 333
293 334
294 295
294 337
295 338
296 297
296 341
297 342
298 299
298 345
299 346
300 301
300 349
301 350
302 303
302 353
303 354
304 305
304 357
305 358
306 307
306 361
307 362
308 309
308 365
309 366
310 311
310 369
311 370
312 313
312 373
313 374
314 315
314 377
315 378
316 380
316 381
317 381
318 382
318 383
319 384
319 385
320 386
320 387
321 387
322 388
322 389
323 390
323 391
324 392
324 393
325 393
326 394
326 395
327 396
327 397
328 398
328 399
329 399
330 400
330 401
331 402
331 403
332 404
332 405
333 405
334 406
334 407
335 408
335 409
336 410
336 411
337 411
338 412
338 413
339 414
339 415
340 416
340 417
341 417
342 418
342 419
343 420
343 421
344 422
344 423
345 423
346 424
346 425
347 426
347 427
348 428
348 429
349 429
350 430
350 431
351 432
351 433
352 434
352 435
353 435
354 436
354 437
355 438
355 439
356 440
356 441
357 441
358 442
358 443
359 444
359 445
360 446
360 447
361 447
362 448
362 449
363 450
363 451
364 452
364 453
365 453
366 454
366 455
367 456
367 457
368 458
368 459
369 459
370 460
370 461
371 462
371 463
372 464
372 465
373 465
374 466
374 467
375 468
375 469
376 470
376 471
377 471
378 472
378 473
379 474
379 475
380 381
380 476
380 541
380 542
381 477
381 541
381 542
382 383
382 478
382 543
382 544
383 479
383 543
383 544
384 385
384 479
384 545
384 546
385 480
385 545
385 546
386 387
386 480
386 547
386 548
387 481
387 547
387 548
388 389
388 482
388 549
388 550
389 483
389 549
389 550
390 391
390 483
390 551
390 552
391 484
391 551
391 552
392 393
392 484
392 553
392 554
393 485
393 553
393 554
394 395
394 486
394 555
394 556
395 487
395 555
395 556
396 397
396 487
396 557
396 558
397 488
397 557
397 558
398 399
398 488
398 559
398 560
399 489
399 559
399 560
400 401
400 490
400 561
400 562
401 491
401 561
401 562
402 403
402 491
402 563
402 564
403 492
403 563
403 564
404 405
404 492
404 565
404 566
405 493
405 565
405 566
406 407
406 494
406 567
406 568
407 495
407 567
407 568
408 409
408 495
408 569
408 570
409 496
409 569
409 570
410 411
410 496
410 571
410 572
411 497
411 571
411 572
412 413
412 498
412 573
412 574
413 499
413 573
413 574
414 415
414 499
414 575
414 576
415 500
415 575
415 576
416 417
416 500
416 577
416 578
417 501
417 577
417 578
418 419
418 502
418 579
418 580
419 503
419 579
419 580
420 421
420 503
420 581
420 582
421 504
421 581
421 582
422 423
422 504
422 583
422 584
423 505
423 583
423 584
424 425
424 506
424 585
424 586
425 507
425 585
425 586
426 427
426 507
426 587
426 588
427 508
427 587
427 588
428 429
428 508
428 589
428 590
429 509
429 589
429 590
430 431
430 510
430 591
430 592
431 511
431 591
431 592
432 433
432 511
432 593
432 594
433 512
433 593
433 594
434 435
434 512
434 595
434 596
435 513
435 595
435 596
436 437
436 514
436 597
436 598
437 515
437 597
437 598
438 439
438 515
438 599
438 600
439 516
439 599
439 600
440 441
440 516
440 601
440 602
441 517
441 601
441 602
442 443
442 518
442 603
442 604
443 519
443 603
443 604
444 445
444 519
444 605
444 606
445 520
445 605
445 606
446 447
446 520
446 607
446 608
447 521
447 607
447 608
448 449
448 522
448 609
448 610
449 523
449 609
449 610
450 451
450 523
450 611
450 612
451 524
451 611
451 612
452 453
452 524
452 613
452 614
453 525
453 613
453 614
454 455
454 526
454 615
454 616
455 527
455 615
455 616
456 457
456 527
456 617
456 618
457 528
457 617
457 618
458 459
458 528
458 619
458 620
459 529
459 619
459 620
460 461
460 530
460 621
460 622
461 531
461 621
461 622
462 463
462 531
462 623
462 624
463 532
463 623
463 624
464 465
464 532
464 625
464 626
465 533
465 625
465 626
466 467
466 534
466 627
466 628
467 535
467 627
467 628
468 469
468 535
468 629
468 630
469 536
469 629
469 630
470 471
470 536
470 631
470 632
471 537
471 631
471 632
472 473
472 538
472 633
472 634
473 539
473 633
473 634
474 475
474 539
475 540
476 541
477 478
477 542
478 543
479 544
479 545
480 546
480 547
481 482
481 548
482 549
483 550
483 551
484 552
484 553
485 486
485 554
486 555
487 556
487 557
488 558
488 559
489 490
489 560
490 561
491 562
491 563
492 564
492 565
493 494
493 566
494 567
495 568
495 569
496 570
496 571
497 498
497 572
498 573
499 574
499 575
500 576
500 577
501 502
501 578
502 579
503 580
503 581
504 582
504 583
505 506
505 584
506 585
507 586
507 587
508 588
508 589
509 510
509 590
510 591
511 592
511 593
512 594
512 595
513 514
513 596
514 597
515 598
515 599
516 600
516 601
517 518
517 602
518 603
519 604
519 605
520 606
520 607
521 522
521 608
522 609
523 610
523 611
524 612
524 613
525 526
525 614
526 615
527 616
527 617
528 618
528 619
529 530
529 620
530 621
531 622
531 623
532 624
532 625
533 534
533 626
534 627
535 628
535 629
536 630
536 631
537 538
537 632
538 633
539 634
541 542
541 635
542 635
543 544
543 636
544 636
545 546
545 637
546 637
547 548
547 638
548 638
549 550
549 639
550 639
551 552
551 640
552 640
553 554
553 641
554 641
555 556
555 642
556 642
557 558
557 643
558 643
559 560
559 644
560 644
561 562
561 645
562 645
563 564
563 646
564 646
565 566
565 647
566 647
567 568
567 648
568 648
569 570
569 649
570 649
571 572
571 650
572 650
573 574
573 651
574 651
575 576
575 652
576 652
577 578
577 653
578 653
579 580
579 654
580 654
581 582
581 655
582 655
583 584
583 656
584 656
585 586
585 657
586 657
587 588
587 658
588 658
589 590
589 659
590 659
591 592
591 660
592 660
593 594
593 661
594 661
595 596
595 662
596 662
597 598
597 663
598 663
599 600
599 664
600 664
601 602
601 665
602 665
603 604
603 666
604 666
605 606
605 667
606 667
607 608
607 668
608 668
609 610
609 669
610 669
611 612
611 670
612 670
613 614
613 671
614 671
615 616
615 672
616 672
617 618
617 673
618 673
619 620
619 674
620 674
621 622
621 675
622 675
623 624
623 676
624 676
625 626
625 677
626 677
627 628
627 678
628 678
629 630
629 679
630 679
631 632
631 680
632 680
633 634
633 681
634 681
635 682
635 683
636 747
636 748
637 749
638 686
638 687
639 750
639 751
640 752
641 690
641 691
642 753
642 754
643 755
644 694
644 695
645 756
645 757
646 758
647 698
647 699
648 759
648 760
649 761
650 702
650 703
651 762
651 763
652 764
653 706
653 707
654 765
654 766
655 767
656 710
656 711
657 768
657 769
658 770
659 714
659 715
660 771
660 772
661 773
662 718
662 719
663 774
663 775
664 776
665 722
665 723
666 777
666 778
667 779
668 726
668 727
669 780
669 781
670 782
671 730
671 731
672 783
672 784
673 785
674 734
674 735
675 786
675 787
676 788
677 738
677 739
678 789
678 790
679 791
680 742
680 743
681 792
681 793
682 683
682 746
682 794
682 795
683 684
683 794
683 795
684 747
684 795
684 796
685 748
685 797
685 798
686 687
686 749
686 799
686 800
687 688
687 799
687 800
688 750
688 800
688 801
689 751
689 802
689 803
690 691
690 752
690 804
690 805
691 692
691 804
691 805
692 753
692 805
692 806
693 754
693 807
693 808
694 695
694 755
694 809
694 810
695 696
695 809
695 810
696 756
696 810
696 811
697 757
697 812
697 813
698 699
698 758
698 814
698 815
699 700
699 814
699 815
700 759
700 815
700 816
701 760
701 817
701 818
702 703
702 761
702 819
702 820
703 704
703 819
703 820
704 762
704 820
704 821
705 763
705 822
705 823
706 707
706 764
706 824
706 825
707 708
707 824
707 825
708 765
708 825
708 826
709 766
709 827
709 828
710 711
710 767
710 829
710 830
711 712
711 829
711 830
712 768
712 830
712 831
713 769
713 832
713 833
714 715
714 770
714 834
714 835
715 716
715 834
715 835
716 771
716 835
716 836
717 772
717 837
717 838
718 719
718 773
718 839
718 840
719 720
719 839
719 840
720 774
720 840
720 841
721 775
721 842
721 843
722 723
722 776
722 844
722 845
723 724
723 844
723 845
724 777
724 845
724 846
725 778
725 847
725 848
726 727
726 779
726 849
726 850
727 728
727 849
727 850
728 780
728 850
728 851
729 781
729 852
729 853
730 731
730 782
730 854
730 855
731 732
731 854
731 855
732 783
732 855
732 856
733 784
733 857
733 858
734 735
734 785
734 859
734 860
735 736
735 859
735 860
736 786
736 860
736 861
737 787
737 862
737 863
738 739
738 788
738 864
738 865
739 740
739 864
739 865
740 789
740 865
740 866
741 790
741 867
741 868
742 743
742 791
742 869
742 870
743 744
743 869
743 870
744 792
744 870
744 871
745 793
745 872
745 873
746 794
747 748
747 796
747 874
747 875
748 797
748 874
748 875
749 799
750 751
750 801
750 876
750 877
751 802
751 876
751 877
752 804
753 754
753 806
753 878
753 879
754 807
754 878
754 879
755 809
756 757
756 811
756 880
756 881
757 812
757 880
757 881
758 814
759 760
759 816
759 882
759 883
760 817
760 882
760 883
761 819
762 763
762 821
762 884
762 885
763 822
763 884
763 885
764 824
765 766
765 826
765 886
765 887
766 827
766 886
766 887
767 829
768 769
768 831
768 888
768 889
769 832
769 888
769 889
770 834
771 772
771 836
771 890
771 891
772 837
772 890
772 891
773 839
774 775
774 841
774 892
774 893
775 842
775 892
775 893
776 844
777 778
777 846
777 894
777 895
778 847
778 894
778 895
779 849
780 781
780 851
780 896
780 897
781 852
781 896
781 897
782 854
783 784
783 856
783 898
783 899
784 857
784 898
784 899
785 859
786 787
786 861
786 900
786 901
787 862
787 900
787 901
788 864
789 790
789 866
789 902
789 903
790 867
790 902
790 903
791 869
792 793
792 871
792 904
792 905
793 872
793 904
793 905
794 795
794 906
795 906
796 874
796 907
797 875
797 908
798 909
799 800
799 910
800 910
801 876
801 911
802 877
802 912
803 913
804 805
804 914
805 914
806 878
806 915
807 879
807 916
808 917
809 810
809 918
810 918
811 880
811 919
812 881
812 920
813 921
814 815
814 922
815 922
816 882
816 923
817 883
817 924
818 925
819 820
819 926
820 926
821 884
821 927
822 885
822 928
823 929
824 825
824 930
825 930
826 886
826 931
827 887
827 932
828 933
829 830
829 934
830 934
831 888
831 935
832 889
832 936
833 937
834 835
834 938
835 938
836 890
836 939
837 891
837 940
838 941
839 840
839 942
840 942
841 892
841 943
842 893
842 944
843 945
844 845
844 946
845 946
846 894
846 947
847 895
847 948
848 949
849 850
849 950
850 950
851 896
851 951
852 897
852 952
853 953
854 855
854 954
855 954
856 898
856 955
857 899
857 956
858 957
859 860
859 958
860 958
861 900
861 959
862 901
862 960
863 961
864 865
864 962
865 962
866 902
866 963
867 903
867 964
868 965
869 870
869 966
870 966
871 904
871 967
872 905
872 968
873 969
874 875
874 907
875 908
876 877
876 911
877 912
878 879
878 915
879 916
880 881
880 919
881 920
882 883
882 923
883 924
884 885
884 927
885 928
886 887
886 931
887 932
888 889
888 935
889 936
890 891
890 939
891 940
892 893
892 943
893 944
894 895
894 947
895 948
896 897
896 951
897 952
898 899
898 955
899 956
900 901
900 959
901 960
902 903
902 963
903 964
904 905
904 967
905 968
906 970
906 971
907 971
908 972
908 973
909 974
909 975
910 976
910 977
911 977
912 978
912 979
913 980
913 981
914 982
914 983
915 983
916 984
916 985
917 986
917 987
918 988
918 989
919 989
920 990
920 991
921 992
921 993
922 994
922 995
923 995
924 996
924 997
925 998
925 999
926 1000
926 1001
927 1001
928 1002
928 1003
929 1004
929 1005
930 1006
930 1007
931 1007
932 1008
932 1009
933 1010
933 1011
934 1012
934 1013
935 1013
936 1014
936 1015
937 1016
937 1017
938 1018
938 1019
939 1019
940 1020
940 1021
941 1022
941 1023
942 1024
942 1025
943 1025
944 1026
944 1027
945 1028
945 1029
946 1030
946 1031
947 1031
948 1032
948 1033
949 1034
949 1035
950 1036
950 1037
951 1037
952 1038
952 1039
953 1040
953 1041
954 1042
954 1043
955 1043
956 1044
956 1045
957 1046
957 1047
958 1048
958 1049
959 1049
960 1050
960 1051
961 1052
961 1053
962 1054
962 1055
963 1055
964 1056
964 1057
965 1058
965 1059
966 1060
966 1061
967 1061
968 1062
968 1063
969 1064
969 1065
970 971
970 1066
970 1131
970 1132
971 1067
971 1131
971 1132
972 973
972 1068
972 1133
972 1134
973 1069
973 1133
973 1134
974 975
974 1069
974 1135
974 1136
975 1070
975 1135
975 1136
976 977
976 1070
976 1137
976 1138
977 1071
977 1137
977 1138
978 979
978 1072
978 1139
978 1140
979 1073
979 1139
979 1140
980 981
980 1073
980 1141
980 1142
981 1074
981 1141
981 1142
982 983
982 1074
982 1143
982 1144
983 1075
983 1143
983 1144
984 985
984 1076
984 1145
984 1146
985 1077
985 1145
985 1146
986 987
986 1077
986 1147
986 1148
987 1078
987 1147
987 1148
988 989
988 1078
988 1149
988 1150
989 1079
989 1149
989 1150
990 991
990 1080
990 1151
990 1152
991 1081
991 1151
991 1152
992 993
992 1081
992 1153
992 1154
993 1082
993 1153
993 1154
994 995
994 1082
994 1155
994 1156
995 1083
995 1155
995 1156
996 997
996 1084
996 1157
996 1158
997 1085
997 1157
997 1158
998 999
998 1085
998 1159
998 1160
999 1086
999 1159
999 1160
1000 1001
1000 1086
1000 1161
1000 1162
1001 1087
1001 1161
1001 1162
1002 1003
1002 1088
1002 1163
1002 1164
1003 1089
1003 1163
1003 1164
1004 1005
1004 1089
1004 1165
1004 1166
1005 1090
1005 1165
1005 1166
1006 1007
1006 1090
1006 1167
1006 1168
1007 1091
1007 1167
1007 1168
1008 1009
1008 1092
1008 1169
1008 1170
1009 1093
1009 1169
1009 1170
1010 1011
1010 1093
1010 1171
1010 1172
1011 1094
1011 1171
1011 1172
1012 1013
1012 1094
1012 1173
1012 1174
1013 1095
1013 1173
1013 1174
1014 1015
1014 1096
1014 1175
1014 1176
1015 1097
1015 1175
1015 1176
1016 1017
1016 1097
1016 1177
1016 1178
1017 1098
1017 1177
1017 1178
1018 1019
1018 1098
1018 1179
1018 1180
1019 1099
1019 1179
1019 1180
1020 1021
1020 1100
1020 1181
1020 1182
1021 1101
1021 1181
1021 1182
1022 1023
1022 1101
1022 1183
1022 1184
1023 1102
1023 1183
1023 1184
1024 1025
1024 1102
1024 1185
1024 1186
1025 1103
1025 1185
1025 1186
1026 1027
1026 1104
1026 1187
1026 1188
1027 1105
1027 1187
1027 1188
1028 1029
1028 1105
1028 1189
1028 1190
1029 1106
1029 1189
1029 1190
1030 1031
1030 1106
1030 1191
1030 1192
1031 1107
1031 1191
1031 1192
1032 1033
1032 1108
1032 1193
1032 1194
1033 1109
1033 1193
1033 1194
1034 1035
1034 1109
1034 1195
1034 1196
1035 1110
1035 1195
1035 1196
1036 1037
1036 1110
1036 1197
1036 1198
1037 1111
1037 1197
1037 1198
1038 1039
1038 1112
1038 1199
1038 1200
1039 1113
1039 1199
1039 1200
1040 1041
1040 1113
1040 1201
1040 1202
1041 1114
1041 1201
1041 1202
1042 1043
1042 1114
1042 1203
1042 1204
1043 1115
1043 1203
1043 1204
1044 1045
1044 1116
1044 1205
1044 1206
1045 1117
1045 1205
1045 1206
1046 1047
1046 1117
1046 1207
1046 1208
1047 1118
1047 1207
1047 1208
1048 1049
1048 1118
1048 1209
1048 1210
1049 1119
1049 1209
1049 1210
1050 1051
1050 1120
1050 1211
1050 1212
1051 1121
1051 1211
1051 1212
1052 1053
1052 1121
1052 1213
1052 1214
1053 1122
1053 1213
1053 1214
1054 1055
1054 1122
1054 1215
1054 1216
1055 1123
1055 1215
1055 1216
1056 1057
1056 1124
1056 1217
1056 1218
1057 1125
1057 1217
1057 1218
1058 1059
1058 1125
1058 1219
1058 1220
1059 1126
1059 1219
1059 1220
1060 1061
1060 1126
1060 1221
1060 1222
1061 1127
1061 1221
1061 1222
1062 1063
1062 1128
1062 1223
1062 1224
1063 1129
1063 1223
1063 1224
1064 1065
1064 1129
1064 1225
1064 1226
1065 1130
1065 1225
1065 1226
1066 1131
1067 1068
1067 1132
1068 1133
1069 1134
1069 1135
1070 1136
1070 1137
1071 1072
1071 1138
1072 1139
1073 1140
1073 1141
1074 1142
1074 1143
1075 1076
1075 1144
1076 1145
1077 1146
1077 1147
1078 1148
1078 1149
1079 1080
1079 1150
1080 1151
1081 1152
1081 1153
1082 1154
1082 1155
1083 1084
1083 1156
1084 1157
1085 1158
1085 1159
1086 1160
1086 1161
1087 1088
1087 1162
1088 1163
1089 1164
1089 1165
1090 1166
1090 1167
1091 1092
1091 1168
1092 1169
1093 1170
1093 1171
1094 1172
1094 1173
1095 1096
1095 1174
1096 1175
1097 1176
1097 1177
1098 1178
1098 1179
1099 1100
1099 1180
1100 1181
1101 1182
1101 1183
1102 1184
1102 1185
1103 1104
1103 1186
1104 1187
1105 1188
1105 1189
1106 1190
1106 1191
1107 1108
1107 1192
1108 1193
1109 1194
1109 1195
1110 1196
1110 1197
1111 1112
1111 1198
1112 1199
1113 1200
1113 1201
1114 1202
1114 1203
1115 1116
1115 1204
1116 1205
1117 1206
1117 1207
1118 1208
1118 1209
1119 1120
1119 1210
1120 1211
1121 1212
1121 1213
1122 1214
1122 1215
1123 1124
1123 1216
1124 1217
1125 1218
1125 1219
1126 1220
1126 1221
1127 1128
1127 1222
1128 1223
1129 1224
1129 1225
1130 1226
1131 1132
1131 1227
1132 1227
1133 1134
1133 1228
1134 1228
1135 1136
1135 1229
1136 1229
1137 1138
1137 1230
1138 1230
1139 1140
1139 1231
1140 1231
1141 1142
1141 1232
1142 1232
1143 1144
1143 1233
1144 1233
1145 1146
1145 1234
1146 1234
1147 1148
1147 1235
1148 1235
1149 1150
1149 1236
1150 1236
1151 1152
1151 1237
1152 1237
1153 1154
1153 1238
1154 1238
1155 1156
1155 1239
1156 1239
1157 1158
1157 1240
1158 1240
1159 1160
1159 1241
1160 1241
1161 1162
1161 1242
1162 1242
1163 1164
1163 1243
1164 1243
1165 1166
1165 1244
1166 1244
1167 1168
1167 1245
1168 1245
1169 1170
1169 1246
1170 1246
1171 1172
1171 1247
1172 1247
1173 1174
1173 1248
1174 1248
1175 1176
1175 1249
1176 1249
1177 1178
1177 1250
1178 1250
1179 1180
1179 1251
1180 1251
1181 1182
1181 1252
1182 1252
1183 1184
1183 1253
1184 1253
1185 1186
1185 1254
1186 1254
1187 1188
1187 1255
1188 1255
1189 1190
1189 1256
1190 1256
1191 1192
1191 1257
1192 1257
1193 1194
1193 1258
1194 1258
1195 1196
1195 1259
1196 1259
1197 1198
1197 1260
1198 1260
1199 1200
1199 1261
1200 1261
1201 1202
1201 1262
1202 1262
1203 1204
1203 1263
1204 1263
1205 1206
1205 1264
1206 1264
1207 1208
1207 1265
1208 1265
1209 1210
1209 1266
1210 1266
1211 1212
1211 1267
1212 1267
1213 1214
1213 1268
1214 1268
1215 1216
1215 1269
1216 1269
1217 1218
1217 1270
1218 1270
1219 1220
1219 1271
1220 1271
1221 1222
1221 1272
1222 1272
1223 1224
1223 1273
1224 1273
1225 1226
1227 1274
1227 1275
1228 1339
1228 1340
1229 1341
1230 1278
1230 1279
1231 1342
1231 1343
1232 1344
1233 1282
1233 1283
1234 1345
1234 1346
1235 1347
1236 1286
1236 1287
1237 1348
1237 1349
1238 1350
1239 1290
1239 1291
1240 1351
1240 1352
1241 1353
1242 1294
1242 1295
1243 1354
1243 1355
1244 1356
1245 1298
1245 1299
1246 1357
1246 1358
1247 1359
1248 1302
1248 1303
1249 1360
1249 1361
1250 1362
1251 1306
1251 1307
1252 1363
1252 1364
1253 1365
1254 1310
1254 1311
1255 1366
1255 1367
1256 1368
1257 1314
1257 1315
1258 1369
1258 1370
1259 1371
1260 1318
1260 1319
1261 1372
1261 1373
1262 1374
1263 1322
1263 1323
1264 1375
1264 1376
1265 1377
1266 1326
1266 1327
1267 1378
1267 1379
1268 1380
1269 1330
1269 1331
1270 1381
1270 1382
1271 1383
1272 1334
1272 1335
1273 1384
1273 1385
1274 1275
1274 1338
1274 1386
1274 1387
1275 1276
1275 1386
1275 1387
1276 1339
1276 1387
1276 1388
1277 1340
1277 1389
1277 1390
1278 1279
1278 1341
1278 1391
1278 1392
1279 1280
1279 1391
1279 1392
1280 1342
1280 1392
1280 1393
1281 1343
1281 1394
1281 1395
1282 1283
1282 1344
1282 1396
1282 1397
1283 1284
1283 1396
1283 1397
1284 1345
1284 1397
1284 1398
1285 1346
1285 1399
1285 1400
1286 1287
1286 1347
1286 1401
1286 1402
1287 1288
1287 1401
1287 1402
1288 1348
1288 1402
1288 1403
1289 1349
1289 1404
1289 1405
1290 1291
1290 1350
1290 1406
1290 1407
1291 1292
1291 1406
1291 1407
1292 1351
1292 1407
1292 1408
1293 1352
1293 1409
1293 1410
1294 1295
1294 1353
1294 1411
1294 1412
1295 1296
1295 1411
1295 1412
1296 1354
1296 1412
1296 1413
1297 1355
1297 1414
1297 1415
1298 1299
1298 1356
1298 1416
1298 1417
1299 1300
1299 1416
1299 1417
1300 1357
1300 1417
1300 1418
1301 1358
1301 1419
1301 1420
1302 1303
1302 1359
1302 1421
1302 1422
1303 1304
1303 1421
1303 1422
1304 1360
1304 1422
1304 1423
1305 1361
1305 1424
1305 1425
1306 1307
1306 1362
1306 1426
1306 1427
1307 1308
1307 1426
1307 1427
1308 1363
1308 1427
1308 1428
1309 1364
1309 1429
1309 1430
1310 1311
1310 1365
1310 1431
1310 1432
1311 1312
1311 1431
1311 1432
1312 1366
1312 1432
1312 1433
1313 1367
1313 1434
1313 1435
1314 1315
1314 1368
1314 1436
1314 1437
1315 1316
1315 1436
1315 1437
1316 1369
1316 1437
1316 1438
1317 1370
1317 1439
1317 1440
1318 1319
1318 1371
1318 1441
1318 1442
1319 1320
1319 1441
1319 1442
1320 1372
1320 1442
1320 1443
1321 1373
1321 1444
1321 1445
1322 1323
1322 1374
1322 1446
1322 1447
1323 1324
1323 1446
1323 1447
1324 1375
1324 1447
1324 1448
1325 1376
1325 1449
1325 1450
1326 1327
1326 1377
1326 1451
1326 1452
1327 1328
1327 1451
1327 1452
1328 1378
1328 1452
1328 1453
1329 1379
1329 1454
1329 1455
1330 1331
1330 1380
1330 1456
1330 1457
1331 1332
1331 1456
1331 1457
1332 1381
1332 1457
1332 1458
1333 1382
1333 1459
1333 1460
1334 1335
1334 1383
1334 1461
1334 1462
1335 1336
1335 1461
1335 1462
1336 1384
1336 1462
1336 1463
1337 1385
1337 1464
1337 1465
1338 1386
1339 1340
1339 1388
1339 1466
1339 1467
1340 1389
1340 1466
1340 1467
1341 1391
1342 1343
1342 1393
1342 1468
1342 1469
1343 1394
1343 1468
1343 1469
1344 1396
1345 1346
1345 1398
1345 1470
1345 1471
1346 1399
1346 1470
1346 1471
1347 1401
1348 1349
1348 1403
1348 1472
1348 1473
1349 1404
1349 1472
1349 1473
1350 1406
1351 1352
1351 1408
1351 1474
1351 1475
1352 1409
1352 1474
1352 1475
1353 1411
1354 1355
1354 1413
1354 1476
1354 1477
1355 1414
1355 1476
1355 1477
1356 1416
1357 1358
1357 1418
1357 1478
1357 1479
1358 1419
1358 1478
1358 1479
1359 1421
1360 1361
1360 1423
1360 1480
1360 1481
1361 1424
1361 1480
1361 1481
1362 1426
1363 1364
1363 1428
1363 1482
1363 1483
1364 1429
1364 1482
1364 1483
1365 1431
1366 1367
1366 1433
1366 1484
1366 1485
1367 1434
1367 1484
1367 1485
1368 1436
1369 1370
1369 1438
1369 1486
1369 1487
1370 1439
1370 1486
1370 1487
1371 1441
1372 1373
1372 1443
1372 1488
1372 1489
1373 1444
1373 1488
1373 1489
1374 1446
1375 1376
1375 1448
1375 1490
1375 1491
1376 1449
1376 1490
1376 1491
1377 1451
1378 1379
1378 1453
1378 1492
1378 1493
1379 1454
1379 1492
1379 1493
1380 1456
1381 1382
1381 1458
1381 1494
1381 1495
1382 1459
1382 1494
1382 1495
1383 1461
1384 1385
1384 1463
1384 1496
1384 1497
1385 1464
1385 1496
1385 1497
1386 1387
1386 1498
1387 1498
1388 1466
1388 1499
1389 1467
1389 1500
1390 1501
1391 1392
1391 1502
1392 1502
1393 1468
1393 1503
1394 1469
1394 1504
1395 1505
1396 1397
1396 1506
1397 1506
1398 1470
1398 1507
1399 1471
1399 1508
1400 1509
1401 1402
1401 1510
1402 1510
1403 1472
1403 1511
1404 1473
1404 1512
1405 1513
1406 1407
1406 1514
1407 1514
1408 1474
1408 1515
1409 1475
1409 1516
1410 1517
1411 1412
1411 1518
1412 1518
1413 1476
1413 1519
1414 1477
1414 1520
1415 1521
1416 1417
1416 1522
1417 1522
1418 1478
1418 1523
1419 1479
1419 1524
1420 1525
1421 1422
1421 1526
1422 1526
1423 1480
1423 1527
1424 1481
1424 1528
1425 1529
1426 1427
1426 1530
1427 1530
1428 1482
1428 1531
1429 1483
1429 1532
1430 1533
1431 1432
1431 1534
1432 1534
1433 1484
1433 1535
1434 1485
1434 1536
1435 1537
1436 1437
1436 1538
1437 1538
1438 1486
1438 1539
1439 1487
1439 1540
1440 1541
1441 1442
1441 1542
1442 1542
1443 1488
1443 1543
1444 1489
1444 1544
1445 1545
1446 1447
1446 1546
1447 1546
1448 1490
1448 1547
1449 1491
1449 1548
1450 1549
1451 1452
1451 1550
1452 1550
1453 1492
1453 1551
1454 1493
1454 1552
1455 1553
1456 1457
1456 1554
1457 1554
1458 1494
1458 1555
1459 1495
1459 1556
1460 1557
1461 1462
1461 1558
1462 1558
1463 1496
1463 1559
1464 1497
1464 1560
1465 1561
1466 1467
1466 1499
1467 1500
1468 1469
1468 1503
1469 1504
1470 1471
1470 1507
1471 1508
1472 1473
1472 1511
1473 1512
1474 1475
1474 1515
1475 1516
1476 1477
1476 1519
1477 1520
1478 1479
1478 1523
1479 1524
1480 1481
1480 1527
1481 1528
1482 1483
1482 1531
1483 1532
1484 1485
1484 1535
1485 1536
1486 1487
1486 1539
1487 1540
1488 1489
1488 1543
1489 1544
1490 1491
1490 1547
1491 1548
1492 1493
1492 1551
1493 1552
1494 1495
1494 1555
1495 1556
1496 1497
1496 1559
1497 1560
1498 1562
1498 1563
1499 1563
1500 1564
1500 1565
1501 1566
1501 1567
1502 1568
1502 1569
1503 1569
1504 1570
1504 1571
1505 1572
1505 1573
1506 1574
1506 1575
1507 1575
1508 1576
1508 1577
1509 1578
1509 1579
1510 1580
1510 1581
1511 1581
1512 1582
1512 1583
1513 1584
1513 1585
1514 1586
1514 1587
1515 1587
1516 1588
1516 1589
1517 1590
1517 1591
1518 1592
1518 1593
1519 1593
1520 1594
1520 1595
1521 1596
1521 1597
1522 1598
1522 1599
1523 1599
1524 1600
1524 1601
1525 1602
1525 1603
1526 1604
1526 1605
1527 1605
1528 1606
1528 1607
1529 1608
1529 1609
1530 1610
1530 1611
1531 1611
1532 1612
1532 1613
1533 1614
1533 1615
1534 1616
1534 1617
1535 1617
1536 1618
1536 1619
1537 1620
1537 1621
1538 1622
1538 1623
1539 1623
1540 1624
1540 1625
1541 1626
1541 1627
1542 1628
1542 1629
1543 1629
1544 1630
1544 1631
1545 1632
1545 1633
1546 1634
1546 1635
1547 1635
1548 1636
1548 1637
1549 1638
1549 1639
1550 1640
1550 1641
1551 1641
1552 1642
1552 1643
1553 1644
1553 1645
1554 1646
1554 1647
1555 1647
1556 1648
1556 1649
1557 1650
1557 1651
1558 1652
1558 1653
1559 1653
1560 1654
1560 1655
1561 1656
1561 1657
1562 1563
1562 1658
1562 1723
1562 1724
1563 1659
1563 1723
1563 1724
1564 1565
1564 1660
1564 1725
1564 1726
1565 1661
1565 1725
1565 1726
1566 1567
1566 1661
1566 1727
1566 1728
1567 1662
1567 1727
1567 1728
1568 1569
1568 1662
1568 1729
1568 1730
1569 1663
1569 1729
1569 1730
1570 1571
1570 1664
1570 1731
1570 1732
1571 1665
1571 1731
1571 1732
1572 1573
1572 1665
1572 1733
1572 1734
1573 1666
1573 1733
1573 1734
1574 1575
1574 1666
1574 1735
1574 1736
1575 1667
1575 1735
1575 1736
1576 1577
1576 1668
1576 1737
1576 1738
1577 1669
1577 1737
1577 1738
1578 1579
1578 1669
1578 1739
1578 1740
1579 1670
1579 1739
1579 1740
1580 1581
1580 1670
1580 1741
1580 1742
1581 1671
1581 1741
1581 1742
1582 1583
1582 1672
1582 1743
1582 1744
1583 1673
1583 1743
1583 1744
1584 1585
1584 1673
1584 1745
1584 1746
1585 1674
1585 1745
1585 1746
1586 1587
1586 1674
1586 1747
1586 1748
1587 1675
1587 1747
1587 1748
1588 1589
1588 1676
1588 1749
1588 1750
1589 1677
1589 1749
1589 1750
1590 1591
1590 1677
1590 1751
1590 1752
1591 1678
1591 1751
1591 1752
1592 1593
1592 1678
1592 1753
1592 1754
1593 1679
1593 1753
1593 1754
1594 1595
1594 1680
1594 1755
1594 1756
1595 1681
1595 1755
1595 1756
1596 1597
1596 1681
1596 1757
1596 1758
1597 1682
1597 1757
1597 1758
1598 1599
1598 1682
1598 1759
1598 1760
1599 1683
1599 1759
1599 1760
1600 1601
1600 1684
1600 1761
1600 1762
1601 1685
1601 1761
1601 1762
1602 1603
1602 1685
1602 1763
1602 1764
1603 1686
1603 1763
1603 1764
1604 1605
1604 1686
1604 1765
1604 1766
1605 1687
1605 1765
1605 1766
1606 1607
1606 1688
1606 1767
1606 1768
1607 1689
1607 1767
1607 1768
1608 1609
1608 1689
1608 1769
1608 1770
1609 1690
1609 1769
1609 1770
1610 1611
1610 1690
1610 1771
1610 1772
1611 1691
1611 1771
1611 1772
1612 1613
1612 1692
1612 1773
1612 1774
1613 1693
1613 1773
1613 1774
1614 1615
1614 1693
1614 1775
1614 1776
1615 1694
1615 1775
1615 1776
1616 1617
1616 1694
1616 1777
1616 1778
1617 1695
1617 1777
1617 1778
1618 1619
1618 1696
1618 1779
1618 1780
1619 1697
1619 1779
1619 1780
1620 1621
1620 1697
1620 1781
1620 1782
1621 1698
1621 1781
1621 1782
1622 1623
1622 1698
1622 1783
1622 1784
1623 1699
1623 1783
1623 1784
1624 1625
1624 1700
1624 1785
1624 1786
1625 1701
1625 1785
1625 1786
1626 1627
1626 1701
1626 1787
1626 1788
1627 1702
1627 1787
1627 1788
1628 1629
1628 1702
1628 1789
1628 1790
1629 1703
1629 1789
1629 1790
1630 1631
1630 1704
1630 1791
1630 1792
1631 1705
1631 1791
1631 1792
1632 1633
1632 1705
1632 1793
1632 1794
1633 1706
1633 1793
1633 1794
1634 1635
1634 1706
1634 1795
1634 1796
1635 1707
1635 1795
1635 1796
1636 1637
1636 1708
1636 1797
1636 1798
1637 1709
1637 1797
1637 1798
1638 1639
1638 1709
1638 1799
1638 1800
1639 1710
1639 1799
1639 1800
1640 1641
1640 1710
1640 1801
1640 1802
1641 1711
1641 1801
1641 1802
1642 1643
1642 1712
1642 1803
1642 1804
1643 1713
1643 1803
1643 1804
1644 1645
1644 1713
1644 1805
1644 1806
1645 1714
1645 1805
1645 1806
1646 1647
1646 1714
1646 1807
1646 1808
1647 1715
1647 1807
1647 1808
1648 1649
1648 1716
1648 1809
1648 1810
1649 1717
1649 1809
1649 1810
1650 1651
1650 1717
1650 1811
1650 1812
1651 1718
1651 1811
1651 1812
1652 1653
1652 1718
1652 1813
1652 1814
1653 1719
1653 1813
1653 1814
1654 1655
1654 1720
1654 1815
1654 1816
1655 1721
1655 1815
1655 1816
1656 1657
1656 1721
1657 1722
1658 1723
1659 1660
1659 1724
1660 1725
1661 1726
1661 1727
1662 1728
1662 1729
1663 1664
1663 1730
1664 1731
1665 1732
1665 1733
1666 1734
1666 1735
1667 1668
1667 1736
1668 1737
1669 1738
1669 1739
1670 1740
1670 1741
1671 1672
1671 1742
1672 1743
1673 1744
1673 1745
1674 1746
1674 1747
1675 1676
1675 1748
1676 1749
1677 1750
1677 1751
1678 1752
1678 1753
1679 1680
1679 1754
1680 1755
1681 1756
1681 1757
1682 1758
1682 1759
1683 1684
1683 1760
1684 1761
1685 1762
1685 1763
1686 1764
1686 1765
1687 1688
1687 1766
1688 1767
1689 1768
1689 1769
1690 1770
1690 1771
1691 1692
1691 1772
1692 1773
1693 1774
1693 1775
1694 1776
1694 1777
1695 1696
1695 1778
1696 1779
1697 1780
1697 1781
1698 1782
1698 1783
1699 1700
1699 1784
1700 1785
1701 1786
1701 1787
1702 1788
1702 1789
1703 1704
1703 1790
1704 1791
1705 1792
1705 1793
1706 1794
1706 1795
1707 1708
1707 1796
1708 1797
1709 1798
1709 1799
1710 1800
1710 1801
1711 1712
1711 1802
1712 1803
1713 1804
1713 1805
1714 1806
1714 1807
1715 1716
1715 1808
1716 1809
1717 1810
1717 1811
1718 1812
1718 1813
1719 1720
1719 1814
1720 1815
1721 1816
1723 1724
1723 1817
1724 1817
1725 1726
1725 1818
1726 1818
1727 1728
1727 1819
1728 1819
1729 1730
1729 1820
1730 1820
1731 1732
1731 1821
1732 1821
1733 1734
1733 1822
1734 1822
1735 1736
1735 1823
1736 1823
1737 1738
1737 1824
1738 1824
1739 1740
1739 1825
1740 1825
1741 1742
1741 1826
1742 1826
1743 1744
1743 1827
1744 1827
1745 1746
1745 1828
1746 1828
1747 1748
1747 1829
1748 1829
1749 1750
1749 1830
1750 1830
1751 1752
1751 1831
1752 1831
1753 1754
1753 1832
1754 1832
1755 1756
1755 1833
1756 1833
1757 1758
1757 1834
1758 1834
1759 1760
1759 1835
1760 1835
1761 1762
1761 1836
1762 1836
1763 1764
1763 1837
1764 1837
1765 1766
1765 1838
1766 1838
1767 1768
1767 1839
1768 1839
1769 1770
1769 1840
1770 1840
1771 1772
1771 1841
1772 1841
1773 1774
1773 1842
1774 1842
1775 1776
1775 1843
1776 1843
1777 1778
1777 1844
1778 1844
1779 1780
1779 1845
1780 1845
1781 1782
1781 1846
1782 1846
1783 1784
1783 1847
1784 1847
1785 1786
1785 1848
1786 1848
1787 1788
1787 1849
1788 1849
1789 1790
1789 1850
1790 1850
1791 1792
1791 1851
1792 1851
1793 1794
1793 1852
1794 1852
1795 1796
1795 1853
1796 1853
1797 1798
1797 1854
1798 1854
1799 1800
1799 1855
1800 1855
1801 1802
1801 1856
1802 1856
1803 1804
1803 1857
1804 1857
1805 1806
1805 1858
1806 1858
1807 1808
1807 1859
1808 1859
1809 1810
1809 1860
1810 1860
1811 1812
1811 1861
1812 1861
1813 1814
1813 1862
1814 1862
1815 1816
1815 1863
1816 1863
1817 1864
1817 1865
1818 1929
1818 1930
1819 1931
1820 1868
1820 1869
1821 1932
1821 1933
1822 1934
1823 1872
1823 1873
1824 1935
1824 1936
1825 1937
1826 1876
1826 1877
1827 1938
1827 1939
1828 1940
1829 1880
1829 1881
1830 1941
1830 1942
1831 1943
1832 1884
1832 1885
1833 1944
1833 1945
1834 1946
1835 1888
1835 1889
1836 1947
1836 1948
1837 1949
1838 1892
1838 1893
1839 1950
1839 1951
1840 1952
1841 1896
1841 1897
1842 1953
1842 1954
1843 1955
1844 1900
1844 1901
1845 1956
1845 1957
1846 1958
1847 1904
1847 1905
1848 1959
1848 1960
1849 1961
1850 1908
1850 1909
1851 1962
1851 1963
1852 1964
1853 1912
1853 1913
1854 1965
1854 1966
1855 1967
1856 1916
1856 1917
1857 1968
1857 1969
1858 1970
1859 1920
1859 1921
1860 1971
1860 1972
1861 1973
1862 1924
1862 1925
1863 1974
1863 1975
1864 1865
1864 1928
1864 1976
1864 1977
1865 1866
1865 1976
1865 1977
1866 1929
1866 1977
1866 1978
1867 1930
1867 1979
1867 1980
1868 1869
1868 1931
1868 1981
1868 1982
1869 1870
1869 1981
1869 1982
1870 1932
1870 1982
1870 1983
1871 1933
1871 1984
1871 1985
1872 1873
1872 1934
1872 1986
1872 1987
1873 1874
1873 1986
1873 1987
1874 1935
1874 1987
1874 1988
1875 1936
1875 1989
1875 1990
1876 1877
1876 1937
1876 1991
1876 1992
1877 1878
1877 1991
1877 1992
1878 1938
1878 1992
1878 1993
1879 1939
1879 1994
1879 1995
1880 1881
1880 1940
1880 1996
1880 1997
1881 1882
1881 1996
1881 1997
1882 1941
1882 1997
1882 1998
1883 1942
1883 1999
1883 2000
1884 1885
1884 1943
1884 2001
1884 2002
1885 1886
1885 2001
1885 2002
1886 1944
1886 2002
1886 2003
1887 1945
1887 2004
1887 2005
1888 1889
1888 1946
1888 2006
1888 2007
1889 1890
1889 2006
1889 2007
1890 1947
1890 2007
1890 2008
1891 1948
1891 2009
1891 2010
1892 1893
1892 1949
1892 2011
1892 2012
1893 1894
1893 2011
1893 2012
1894 1950
1894 2012
1894 2013
1895 1951
1895 2014
1895 2015
1896 1897
1896 1952
1896 2016
1896 2017
1897 1898
1897 2016
1897 2017
1898 1953
1898 2017
1898 2018
1899 1954
1899 2019
1899 2020
1900 1901
1900 1955
1900 2021
1900 2022
1901 1902
1901 2021
1901 2022
1902 1956
1902 2022
1902 2023
1903 1957
1903 2024
1903 2025
1904 1905
1904 1958
1904 2026
1904 2027
1905 1906
1905 2026
1905 2027
1906 1959
1906 2027
1906 2028
1907 1960
1907 2029
1907 2030
1908 1909
1908 1961
1908 2031
1908 2032
1909 1910
1909 2031
1909 2032
1910 1962
1910 2032
1910 2033
1911 1963
1911 2034
1911 2035
1912 1913
1912 1964
1912 2036
1912 2037
1913 1914
1913 2036
1913 2037
1914 1965
1914 2037
1914 2038
1915 1966
1915 2039
1915 2040
1916 1917
1916 1967
1916 2041
1916 2042
1917 1918
1917 2041
1917 2042
1918 1968
1918 2042
1918 2043
1919 1969
1919 2044
1919 2045
1920 1921
1920 1970
1920 2046
1920 2047
1921 1922
1921 2046
1921 2047
1922 1971
1922 2047
1922 2048
1923 1972
1923 2049
1923 2050
1924 1925
1924 1973
1924 2051
1924 2052
1925 1926
1925 2051
1925 2052
1926 1974
1926 2052
1926 2053
1927 1975
1927 2054
1927 2055
1928 1976
1929 1930
1929 1978
1929 2056
1929 2057
1930 1979
1930 2056
1930 2057
1931 1981
1932 1933
1932 1983
1932 2058
1932 2059
1933 1984
1933 2058
1933 2059
1934 1986
1935 1936
1935 1988
1935 2060
1935 2061
1936 1989
1936 2060
1936 2061
1937 1991
1938 1939
1938 1993
1938 2062
1938 2063
1939 1994
1939 2062
1939 2063
1940 1996
1941 1942
1941 1998
1941 2064
1941 2065
1942 1999
1942 2064
1942 2065
1943 2001
1944 1945
1944 2003
1944 2066
1944 2067
1945 2004
1945 2066
1945 2067
1946 2006
1947 1948
1947 2008
1947 2068
1947 2069
1948 2009
1948 2068
1948 2069
1949 2011
1950 1951
1950 2013
1950 2070
1950 2071
1951 2014
1951 2070
1951 2071
1952 2016
1953 1954
1953 2018
1953 2072
1953 2073
1954 2019
1954 2072
1954 2073
1955 2021
1956 1957
1956 2023
1956 2074
1956 2075
1957 2024
1957 2074
1957 2075
1958 2026
1959 1960
1959 2028
1959 2076
1959 2077
1960 2029
1960 2076
1960 2077
1961 2031
1962 1963
1962 2033
1962 2078
1962 2079
1963 2034
1963 2078
1963 2079
1964 2036
1965 1966
1965 2038
1965 2080
1965 2081
1966 2039
1966 2080
1966 2081
1967 2041
1968 1969
1968 2043
1968 2082
1968 2083
1969 2044
1969 2082
1969 2083
1970 2046
1971 1972
1971 2048
1971 2084
1971 2085
1972 2049
1972 2084
1972 2085
1973 2051
1974 1975
1974 2053
1974 2086
1974 2087
1975 2054
1975 2086
1975 2087
1976 1977
1976 2088
1977 2088
1978 2056
1978 2089
1979 2057
1979 2090
1980 2091
1981 1982
1981 2092
1982 2092
1983 2058
1983 2093
1984 2059
1984 2094
1985 2095
1986 1987
1986 2096
1987 2096
1988 2060
1988 2097
1989 2061
1989 2098
1990 2099
1991 1992
1991 2100
1992 2100
1993 2062
1993 2101
1994 2063
1994 2102
1995 2103
1996 1997
1996 2104
1997 2104
1998 2064
1998 2105
1999 2065
1999 2106
2000 2107
2001 2002
2001 2108
2002 2108
2003 2066
2003 2109
2004 2067
2004 2110
2005 2111
2006 2007
2006 2112
2007 2112
2008 2068
2008 2113
2009 2069
2009 2114
2010 2115
2011 2012
2011 2116
2012 2116
2013 2070
2013 2117
2014 2071
2014 2118
2015 2119
2016 2017
2016 2120
2017 2120
2018 2072
2018 2121
2019 2073
2019 2122
2020 2123
2021 2022
2021 2124
2022 2124
2023 2074
2023 2125
2024 2075
2024 2126
2025 2127
2026 2027
2026 2128
2027 2128
2028 2076
2028 2129
2029 2077
2029 2130
2030 2131
2031 2032
2031 2132
2032 2132
2033 2078
2033 2133
2034 2079
2034 2134
2035 2135
2036 2037
2036 2136
2037 2136
2038 2080
2038 2137
2039 2081
2039 2138
2040 2139
2041 2042
2041 2140
2042 2140
2043 2082
2043 2141
2044 2083
2044 2142
2045 2143
2046 2047
2046 2144
2047 2144
2048 2084
2048 2145
2049 2085
2049 2146
2050 2147
2051 2052
2051 2148
2052 2148
2053 2086
2053 2149
2054 2087
2054 2150
2055 2151
2056 2057
2056 2089
2057 2090
2058 2059
2058 2093
2059 2094
2060 2061
2060 2097
2061 2098
2062 2063
2062 2101
2063 2102
2064 2065
2064 2105
2065 2106
2066 2067
2066 2109
2067 2110
2068 2069
2068 2113
2069 2114
2070 2071
2070 2117
2071 2118
2072 2073
2072 2121
2073 2122
2074 2075
2074 2125
2075 2126
2076 2077
2076 2129
2077 2130
2078 2079
2078 2133
2079 2134
2080 2081
2080 2137
2081 2138
2082 2083
2082 2141
2083 2142
2084 2085
2084 2145
2085 2146
2086 2087
2086 2149
2087 2150
2088 2152
2088 2153
2089 2153
2090 2154
2090 2155
2091 2156
2091 2157
2092 2158
2092 2159
2093 2159
2094 2160
2094 2161
2095 2162
2095 2163
2096 2164
2096 2165
2097 2165
2098 2166
2098 2167
2099 2168
2099 2169
2100 2170
2100 2171
2101 2171
2102 2172
2102 2173
2103 2174
2103 2175
2104 2176
2104 2177
2105 2177
2106 2178
2106 2179
2107 2180
2107 2181
2108 2182
2108 2183
2109 2183
2110 2184
2110 2185
2111 2186
2111 2187
2112 2188
2112 2189
2113 2189
2114 2190
2114 2191
2115 2192
2115 2193
2116 2194
2116 2195
2117 2195
2118 2196
2118 2197
2119 2198
2119 2199
2120 2200
2120 2201
2121 2201
2122 2202
2122 2203
2123 2204
2123 2205
2124 2206
2124 2207
2125 2207
2126 2208
2126 2209
2127 2210
2127 2211
2128 2212
2128 2213
2129 2213
2130 2214
2130 2215
2131 2216
2131 2217
2132 2218
2132 2219
2133 2219
2134 2220
2134 2221
2135 2222
2135 2223
2136 2224
2136 2225
2137 2225
2138 2226
2138 2227
2139 2228
2139 2229
2140 2230
2140 2231
2141 2231
2142 2232
2142 2233
2143 2234
2143 2235
2144 2236
2144 2237
2145 2237
2146 2238
2146 2239
2147 2240
2147 2241
2148 2242
2148 2243
2149 2243
2150 2244
2150 2245
2151 2246
2151 2247
2152 2153
2152 2248
2152 2313
2152 2314
2153 2249
2153 2313
2153 2314
2154 2155
2154 2250
2154 2315
2154 2316
2155 2251
2155 2315
2155 2316
2156 2157
2156 2251
2156 2317
2156 2318
2157 2252
2157 2317
2157 2318
2158 2159
2158 2252
2158 2319
2158 2320
2159 2253
2159 2319
2159 2320
2160 2161
2160 2254
2160 2321
2160 2322
2161 2255
2161 2321
2161 2322
2162 2163
2162 2255
2162 2323
2162 2324
2163 2256
2163 2323
2163 2324
2164 2165
2164 2256
2164 2325
2164 2326
2165 2257
2165 2325
2165 2326
2166 2167
2166 2258
2166 2327
2166 2328
2167 2259
2167 2327
2167 2328
2168 2169
2168 2259
2168 2329
2168 2330
2169 2260
2169 2329
2169 2330
2170 2171
2170 2260
2170 2331
2170 2332
2171 2261
2171 2331
2171 2332
2172 2173
2172 2262
2172 2333
2172 2334
2173 2263
2173 2333
2173 2334
2174 2175
2174 2263
2174 2335
2174 2336
2175 2264
2175 2335
2175 2336
2176 2177
2176 2264
2176 2337
2176 2338
2177 2265
2177 2337
2177 2338
2178 2179
2178 2266
2178 2339
2178 2340
2179 2267
2179 2339
2179 2340
2180 2181
2180 2267
2180 2341
2180 2342
2181 2268
2181 2341
2181 2342
2182 2183
2182 2268
2182 2343
2182 2344
2183 2269
2183 2343
2183 2344
2184 2185
2184 2270
2184 2345
2184 2346
2185 2271
2185 2345
2185 2346
2186 2187
2186 2271
2186 2347
2186 2348
2187 2272
2187 2347
2187 2348
2188 2189
2188 2272
2188 2349
2188 2350
2189 2273
2189 2349
2189 2350
2190 2191
2190 2274
2190 2351
2190 2352
2191 2275
2191 2351
2191 2352
2192 2193
2192 2275
2192 2353
2192 2354
2193 2276
2193 2353
2193 2354
2194 2195
2194 2276
2194 2355
2194 2356
2195 2277
2195 2355
2195 2356
2196 2197
2196 2278
2196 2357
2196 2358
2197 2279
2197 2357
2197 2358
2198 2199
2198 2279
2198 2359
2198 2360
2199 2280
2199 2359
2199 2360
2200 2201
2200 2280
2200 2361
2200 2362
2201 2281
2201 2361
2201 2362
2202 2203
2202 2282
2202 2363
2202 2364
2203 2283
2203 2363
2203 2364
2204 2205
2204 2283
2204 2365
2204 2366
2205 2284
2205 2365
2205 2366
2206 2207
2206 2284
2206 2367
2206 2368
2207 2285
2207 2367
2207 2368
2208 2209
2208 2286
2208 2369
2208 2370
2209 2287
2209 2369
2209 2370
2210 2211
2210 2287
2210 2371
2210 2372
2211 2288
2211 2371
2211 2372
2212 2213
2212 2288
2212 2373
2212 2374
2213 2289
2213 2373
2213 2374
2214 2215
2214 2290
2214 2375
2214 2376
2215 2291
2215 2375
2215 2376
2216 2217
2216 2291
2216 2377
2216 2378
2217 2292
2217 2377
2217 2378
2218 2219
2218 2292
2218 2379
2218 2380
2219 2293
2219 2379
2219 2380
2220 2221
2220 2294
2220 2381
2220 2382
2221 2295
2221 2381
2221 2382
2222 2223
2222 2295
2222 2383
2222 2384
2223 2296
2223 2383
2223 2384
2224 2225
2224 2296
2224 2385
2224 2386
2225 2297
2225 2385
2225 2386
2226 2227
2226 2298
2226 2387
2226 2388
2227 2299
2227 2387
2227 2388
2228 2229
2228 2299
2228 2389
2228 2390
2229 2300
2229 2389
2229 2390
2230 2231
2230 2300
2230 2391
2230 2392
2231 2301
2231 2391
2231 2392
2232 2233
2232 2302
2232 2393
2232 2394
2233 2303
2233 2393
2233 2394
2234 2235
2234 2303
2234 2395
2234 2396
2235 2304
2235 2395
2235 2396
2236 2237
2236 2304
2236 2397
2236 2398
2237 2305
2237 2397
2237 2398
2238 2239
2238 2306
2238 2399
2238 2400
2239 2307
2239 2399
2239 2400
2240 2241
2240 2307
2240 2401
2240 2402
2241 2308
2241 2401
2241 2402
2242 2243
2242 2308
2242 2403
2242 2404
2243 2309
2243 2403
2243 2404
2244 2245
2244 2310
2244 2405
2244 2406
2245 2311
2245 2405
2245 2406
2246 2247
2246 2311
2246 2407
2246 2408
2247 2312
2247 2407
2247 2408
2248 2313
2249 2250
2249 2314
2250 2315
2251 2316
2251 2317
2252 2318
2252 2319
2253 2254
2253 2320
2254 2321
2255 2322
2255 2323
2256 2324
2256 2325
2257 2258
2257 2326
2258 2327
2259 2328
2259 2329
2260 2330
2260 2331
2261 2262
2261 2332
2262 2333
2263 2334
2263 2335
2264 2336
2264 2337
2265 2266
2265 2338
2266 2339
2267 2340
2267 2341
2268 2342
2268 2343
2269 2270
2269 2344
2270 2345
2271 2346
2271 2347
2272 2348
2272 2349
2273 2274
2273 2350
2274 2351
2275 2352
2275 2353
2276 2354
2276 2355
2277 2278
2277 2356
2278 2357
2279 2358
2279 2359
2280 2360
2280 2361
2281 2282
2281 2362
2282 2363
2283 2364
2283 2365
2284 2366
2284 2367
2285 2286
2285 2368
2286 2369
2287 2370
2287 2371
2288 2372
2288 2373
2289 2290
2289 2374
2290 2375
2291 2376
2291 2377
2292 2378
2292 2379
2293 2294
2293 2380
2294 2381
2295 2382
2295 2383
2296 2384
2296 2385
2297 2298
2297 2386
2298 2387
2299 2388
2299 2389
2300 2390
2300 2391
2301 2302
2301 2392
2302 2393
2303 2394
2303 2395
2304 2396
2304 2397
2305 2306
2305 2398
2306 2399
2307 2400
2307 2401
2308 2402
2308 2403
2309 2310
2309 2404
2310 2405
2311 2406
2311 2407
2312 2408
2313 2314
2313 2409
2314 2409
2315 2316
2315 2410
2316 2410
2317 2318
2317 2411
2318 2411
2319 2320
2319 2412
2320 2412
2321 2322
2321 2413
2322 2413
2323 2324
2323 2414
2324 2414
2325 2326
2325 2415
2326 2415
2327 2328
2327 2416
2328 2416
2329 2330
2329 2417
2330 2417
2331 2332
2331 2418
2332 2418
2333 2334
2333 2419
2334 2419
2335 2336
2335 2420
2336 2420
2337 2338
2337 2421
2338 2421
2339 2340
2339 2422
2340 2422
2341 2342
2341 2423
2342 2423
2343 2344
2343 2424
2344 2424
2345 2346
2345 2425
2346 2425
2347 2348
2347 2426
2348 2426
2349 2350
2349 2427
2350 2427
2351 2352
2351 2428
2352 2428
2353 2354
2353 2429
2354 2429
2355 2356
2355 2430
2356 2430
2357 2358
2357 2431
2358 2431
2359 2360
2359 2432
2360 2432
2361 2362
2361 2433
2362 2433
2363 2364
2363 2434
2364 2434
2365 2366
2365 2435
2366 2435
2367 2368
2367 2436
2368 2436
2369 2370
2369 2437
2370 2437
2371 2372
2371 2438
2372 2438
2373 2374
2373 2439
2374 2439
2375 2376
2375 2440
2376 2440
2377 2378
2377 2441
2378 2441
2379 2380
2379 2442
2380 2442
2381 2382
2381 2443
2382 2443
2383 2384
2383 2444
2384 2444
2385 2386
2385 2445
2386 2445
2387 2388
2387 2446
2388 2446
2389 2390
2389 2447
2390 2447
2391 2392
2391 2448
2392 2448
2393 2394
2393 2449
2394 2449
2395 2396
2395 2450
2396 2450
2397 2398
2397 2451
2398 2451
2399 2400
2399 2452
2400 2452
2401 2402
2401 2453
2402 2453
2403 2404
2403 2454
2404 2454
2405 2406
2405 2455
2406 2455
2407 2408
2409 2456
2409 2457
2410 2521
2410 2522
2411 2523
2412 2460
2412 2461
2413 2524
2413 2525
2414 2526
2415 2464
2415 2465
2416 2527
2416 2528
2417 2529
2418 2468
2418 2469
2419 2530
2419 2531
2420 2532
2421 2472
2421 2473
2422 2533
2422 2534
2423 2535
2424 2476
2424 2477
2425 2536
2425 2537
2426 2538
2427 2480
2427 2481
2428 2539
2428 2540
2429 2541
2430 2484
2430 2485
2431 2542
2431 2543
2432 2544
2433 2488
2433 2489
2434 2545
2434 2546
2435 2547
2436 2492
2436 2493
2437 2548
2437 2549
2438 2550
2439 2496
2439 2497
2440 2551
2440 2552
2441 2553
2442 2500
2442 2501
2443 2554
2443 2555
2444 2556
2445 2504
2445 2505
2446 2557
2446 2558
2447 2559
2448 2508
2448 2509
2449 2560
2449 2561
2450 2562
2451 2512
2451 2513
2452 2563
2452 2564
2453 2565
2454 2516
2454 2517
2455 2566
2455 2567
2456 2457
2456 2520
2456 2568
2456 2569
2457 2458
2457 2568
2457 2569
2458 2521
2458 2569
2458 2570
2459 2522
2459 2571
2459 2572
2460 2461
2460 2523
2460 2573
2460 2574
2461 2462
2461 2573
2461 2574
2462 2524
2462 2574
2462 2575
2463 2525
2463 2576
2463 2577
2464 2465
2464 2526
2464 2578
2464 2579
2465 2466
2465 2578
2465 2579
2466 2527
2466 2579
2466 2580
2467 2528
2467 2581
2467 2582
2468 2469
2468 2529
2468 2583
2468 2584
2469 2470
2469 2583
2469 2584
2470 2530
2470 2584
2470 2585
2471 2531
2471 2586
2471 2587
2472 2473
2472 2532
2472 2588
2472 2589
2473 2474
2473 2588
2473 2589
2474 2533
2474 2589
2474 2590
2475 2534
2475 2591
2475 2592
2476 2477
2476 2535
2476 2593
2476 2594
2477 2478
2477 2593
2477 2594
2478 2536
2478 2594
2478 2595
2479 2537
2479 2596
2479 2597
2480 2481
2480 2538
2480 2598
2480 2599
2481 2482
2481 2598
2481 2599
2482 2539
2482 2599
2482 2600
2483 2540
2483 2601
2483 2602
2484 2485
2484 2541
2484 2603
2484 2604
2485 2486
2485 2603
2485 2604
2486 2542
2486 2604
2486 2605
2487 2543
2487 2606
2487 2607
2488 2489
2488 2544
2488 2608
2488 2609
2489 2490
2489 2608
2489 2609
2490 2545
2490 2609
2490 2610
2491 2546
2491 2611
2491 2612
2492 2493
2492 2547
2492 2613
2492 2614
2493 2494
2493 2613
2493 2614
2494 2548
2494 2614
2494 2615
2495 2549
2495 2616
2495 2617
2496 2497
2496 2550
2496 2618
2496 2619
2497 2498
2497 2618
2497 2619
2498 2551
2498 2619
2498 2620
2499 2552
2499 2621
2499 2622
2500 2501
2500 2553
2500 2623
2500 2624
2501 2502
2501 2623
2501 2624
2502 2554
2502 2624
2502 2625
2503 2555
2503 2626
2503 2627
2504 2505
2504 2556
2504 2628
2504 2629
2505 2506
2505 2628
2505 2629
2506 2557
2506 2629
2506 2630
2507 2558
2507 2631
2507 2632
2508 2509
2508 2559
2508 2633
2508 2634
2509 2510
2509 2633
2509 2634
2510 2560
2510 2634
2510 2635
2511 2561
2511 2636
2511 2637
2512 2513
2512 2562
2512 2638
2512 2639
2513 2514
2513 2638
2513 2639
2514 2563
2514 2639
2514 2640
2515 2564
2515 2641
2515 2642
2516 2517
2516 2565
2516 2643
2516 2644
2517 2518
2517 2643
2517 2644
2518 2566
2518 2644
2518 2645
2519 2567
2519 2646
2519 2647
2520 2568
2521 2522
2521 2570
2521 2648
2521 2649
2522 2571
2522 2648
2522 2649
2523 2573
2524 2525
2524 2575
2524 2650
2524 2651
2525 2576
2525 2650
2525 2651
2526 2578
2527 2528
2527 2580
2527 2652
2527 2653
2528 2581
2528 2652
2528 2653
2529 2583
2530 2531
2530 2585
2530 2654
2530 2655
2531 2586
2531 2654
2531 2655
2532 2588
2533 2534
2533 2590
2533 2656
2533 2657
2534 2591
2534 2656
2534 2657
2535 2593
2536 2537
2536 2595
2536 2658
2536 2659
2537 2596
2537 2658
2537 2659
2538 2598
2539 2540
2539 2600
2539 2660
2539 2661
2540 2601
2540 2660
2540 2661
2541 2603
2542 2543
2542 2605
2542 2662
2542 2663
2543 2606
2543 2662
2543 2663
2544 2608
2545 2546
2545 2610
2545 2664
2545 2665
2546 2611
2546 2664
2546 2665
2547 2613
2548 2549
2548 2615
2548 2666
2548 2667
2549 2616
2549 2666
2549 2667
2550 2618
2551 2552
2551 2620
2551 2668
2551 2669
2552 2621
2552 2668
2552 2669
2553 2623
2554 2555
2554 2625
2554 2670
2554 2671
2555 2626
2555 2670
2555 2671
2556 2628
2557 2558
2557 2630
2557 2672
2557 2673
2558 2631
2558 2672
2558 2673
2559 2633
2560 2561
2560 2635
2560 2674
2560 2675
2561 2636
2561 2674
2561 2675
2562 2638
2563 2564
2563 2640
2563 2676
2563 2677
2564 2641
2564 2676
2564 2677
2565 2643
2566 2567
2566 2645
2566 2678
2566 2679
2567 2646
2567 2678
2567 2679
2568 2569
2568 2680
2569 2680
2570 2648
2570 2681
2571 2649
2571 2682
2572 2683
2573 2574
2573 2684
2574 2684
2575 2650
2575 2685
2576 2651
2576 2686
2577 2687
2578 2579
2578 2688
2579 2688
2580 2652
2580 2689
2581 2653
2581 2690
2582 2691
2583 2584
2583 2692
2584 2692
2585 2654
2585 2693
2586 2655
2586 2694
2587 2695
2588 2589
2588 2696
2589 2696
2590 2656
2590 2697
2591 2657
2591 2698
2592 2699
2593 2594
2593 2700
2594 2700
2595 2658
2595 2701
2596 2659
2596 2702
2597 2703
2598 2599
2598 2704
2599 2704
2600 2660
2600 2705
2601 2661
2601 2706
2602 2707
2603 2604
2603 2708
2604 2708
2605 2662
2605 2709
2606 2663
2606 2710
2607 2711
2608 2609
2608 2712
2609 2712
2610 2664
2610 2713
2611 2665
2611 2714
2612 2715
2613 2614
2613 2716
2614 2716
2615 2666
2615 2717
2616 2667
2616 2718
2617 2719
2618 2619
2618 2720
2619 2720
2620 2668
2620 2721
2621 2669
2621 2722
2622 2723
2623 2624
2623 2724
2624 2724
2625 2670
2625 2725
2626 2671
2626 2726
2627 2727
2628 2629
2628 2728
2629 2728
2630 2672
2630 2729
2631 2673
2631 2730
2632 2731
2633 2634
2633 2732
2634 2732
2635 2674
2635 2733
2636 2675
2636 2734
2637 2735
2638 2639
2638 2736
2639 2736
2640 2676
2640 2737
2641 2677
2641 2738
2642 2739
2643 2644
2643 2740
2644 2740
2645 2678
2645 2741
2646 2679
2646 2742
2647 2743
2648 2649
2648 2681
2649 2682
2650 2651
2650 2685
2651 2686
2652 2653
2652 2689
2653 2690
2654 2655
2654 2693
2655 2694
2656 2657
2656 2697
2657 2698
2658 2659
2658 2701
2659 2702
2660 2661
2660 2705
2661 2706
2662 2663
2662 2709
2663 2710
2664 2665
2664 2713
2665 2714
2666 2667
2666 2717
2667 2718
2668 2669
2668 2721
2669 2722
2670 2671
2670 2725
2671 2726
2672 2673
2672 2729
2673 2730
2674 2675
2674 2733
2675 2734
2676 2677
2676 2737
2677 2738
2678 2679
2678 2741
2679 2742
2680 2744
2680 2745
2681 2745
2682 2746
2682 2747
2683 2748
2683 2749
2684 2750
2684 2751
2685 2751
2686 2752
2686 2753
2687 2754
2687 2755
2688 2756
2688 2757
2689 2757
2690 2758
2690 2759
2691 2760
2691 2761
2692 2762
2692 2763
2693 2763
2694 2764
2694 2765
2695 2766
2695 2767
2696 2768
2696 2769
2697 2769
2698 2770
2698 2771
2699 2772
2699 2773
2700 2774
2700 2775
2701 2775
2702 2776
2702 2777
2703 2778
2703 2779
2704 2780
2704 2781
2705 2781
2706 2782
2706 2783
2707 2784
2707 2785
2708 2786
2708 2787
2709 2787
2710 2788
2710 2789
2711 2790
2711 2791
2712 2792
2712 2793
2713 2793
2714 2794
2714 2795
2715 2796
2715 2797
2716 2798
2716 2799
2717 2799
2718 2800
2718 2801
2719 2802
2719 2803
2720 2804
2720 2805
2721 2805
2722 2806
2722 2807
2723 2808
2723 2809
2724 2810
2724 2811
2725 2811
2726 2812
2726 2813
2727 2814
2727 2815
2728 2816
2728 2817
2729 2817
2730 2818
2730 2819
2731 2820
2731 2821
2732 2822
2732 2823
2733 2823
2734 2824
2734 2825
2735 2826
2735 2827
2736 2828
2736 2829
2737 2829
2738 2830
2738 2831
2739 2832
2739 2833
2740 2834
2740 2835
2741 2835
2742 2836
2742 2837
2743 2838
2743 2839
2744 2745
2744 2840
2744 2905
2744 2906
2745 2841
2745 2905
2745 2906
2746 2747
2746 2842
2746 2907
2746 2908
2747 2843
2747 2907
2747 2908
2748 2749
2748 2843
2748 2909
2748 2910
2749 2844
2749 2909
2749 2910
2750 2751
2750 2844
2750 2911
2750 2912
2751 2845
2751 2911
2751 2912
2752 2753
2752 2846
2752 2913
2752 2914
2753 2847
2753 2913
2753 2914
2754 2755
2754 2847
2754 2915
2754 2916
2755 2848
2755 2915
2755 2916
2756 2757
2756 2848
2756 2917
2756 2918
2757 2849
2757 2917
2757 2918
2758 2759
2758 2850
2758 2919
2758 2920
2759 2851
2759 2919
2759 2920
2760 2761
2760 2851
2760 2921
2760 2922
2761 2852
2761 2921
2761 2922
2762 2763
2762 2852
2762 2923
2762 2924
2763 2853
2763 2923
2763 2924
2764 2765
2764 2854
2764 2925
2764 2926
2765 2855
2765 2925
2765 2926
2766 2767
2766 2855
2766 2927
2766 2928
2767 2856
2767 2927
2767 2928
2768 2769
2768 2856
2768 2929
2768 2930
2769 2857
2769 2929
2769 2930
2770 2771
2770 2858
2770 2931
2770 2932
2771 2859
2771 2931
2771 2932
2772 2773
2772 2859
2772 2933
2772 2934
2773 2860
2773 2933
2773 2934
2774 2775
2774 2860
2774 2935
2774 2936
2775 2861
2775 2935
2775 2936
2776 2777
2776 2862
2776 2937
2776 2938
2777 2863
2777 2937
2777 2938
2778 2779
2778 2863
2778 2939
2778 2940
2779 2864
2779 2939
2779 2940
2780 2781
2780 2864
2780 2941
2780 2942
2781 2865
2781 2941
2781 2942
2782 2783
2782 2866
2782 2943
2782 2944
2783 2867
2783 2943
2783 2944
2784 2785
2784 2867
2784 2945
2784 2946
2785 2868
2785 2945
2785 2946
2786 2787
2786 2868
2786 2947
2786 2948
2787 2869
2787 2947
2787 2948
2788 2789
2788 2870
2788 2949
2788 2950
2789 2871
2789 2949
2789 2950
2790 2791
2790 2871
2790 2951
2790 2952
2791 2872
2791 2951
2791 2952
2792 2793
2792 2872
2792 2953
2792 2954
2793 2873
2793 2953
2793 2954
2794 2795
2794 2874
2794 2955
2794 2956
2795 2875
2795 2955
2795 2956
2796 2797
2796 2875
2796 2957
2796 2958
2797 2876
2797 2957
2797 2958
2798 2799
2798 2876
2798 2959
2798 2960
2799 2877
2799 2959
2799 2960
2800 2801
2800 2878
2800 2961
2800 2962
2801 2879
2801 2961
2801 2962
2802 2803
2802 2879
2802 2963
2802 2964
2803 2880
2803 2963
2803 2964
2804 2805
2804 2880
2804 2965
2804 2966
2805 2881
2805 2965
2805 2966
2806 2807
2806 2882
2806 2967
2806 2968
2807 2883
2807 2967
2807 2968
2808 2809
2808 2883
2808 2969
2808 2970
2809 2884
2809 2969
2809 2970
2810 2811
2810 2884
2810 2971
2810 2972
2811 2885
2811 2971
2811 2972
2812 2813
2812 2886
2812 2973
2812 2974
2813 2887
2813 2973
2813 2974
2814 2815
2814 2887
2814 2975
2814 2976
2815 2888
2815 2975
2815 2976
2816 2817
2816 2888
2816 2977
2816 2978
2817 2889
2817 2977
2817 2978
2818 2819
2818 2890
2818 2979
2818 2980
2819 2891
2819 2979
2819 2980
2820 2821
2820 2891
2820 2981
2820 2982
2821 2892
2821 2981
2821 2982
2822 2823
2822 2892
2822 2983
2822 2984
2823 2893
2823 2983
2823 2984
2824 2825
2824 2894
2824 2985
2824 2986
2825 2895
2825 2985
2825 2986
2826 2827
2826 2895
2826 2987
2826 2988
2827 2896
2827 2987
2827 2988
2828 2829
2828 2896
2828 2989
2828 2990
2829 2897
2829 2989
2829 2990
2830 2831
2830 2898
2830 2991
2830 2992
2831 2899
2831 2991
2831 2992
2832 2833
2832 2899
2832 2993
2832 2994
2833 2900
2833 2993
2833 2994
2834 2835
2834 2900
2834 2995
2834 2996
2835 2901
2835 2995
2835 2996
2836 2837
2836 2902
2836 2997
2836 2998
2837 2903
2837 2997
2837 2998
2838 2839
2838 2903
2839 2904
2840 2905
2841 2842
2841 2906
2842 2907
2843 2908
2843 2909
2844 2910
2844 2911
2845 2846
2845 2912
2846 2913
2847 2914
2847 2915
2848 2916
2848 2917
2849 2850
2849 2918
2850 2919
2851 2920
2851 2921
2852 2922
2852 2923
2853 2854
2853 2924
2854 2925
2855 2926
2855 2927
2856 2928
2856 2929
2857 2858
2857 2930
2858 2931
2859 2932
2859 2933
2860 2934
2860 2935
2861 2862
2861 2936
2862 2937
2863 2938
2863 2939
2864 2940
2864 2941
2865 2866
2865 2942
2866 2943
2867 2944
2867 2945
2868 2946
2868 2947
2869 2870
2869 2948
2870 2949
2871 2950
2871 2951
2872 2952
2872 2953
2873 2874
2873 2954
2874 2955
2875 2956
2875 2957
2876 2958
2876 2959
2877 2878
2877 2960
2878 2961
2879 2962
2879 2963
2880 2964
2880 2965
2881 2882
2881 2966
2882 2967
2883 2968
2883 2969
2884 2970
2884 2971
2885 2886
2885 2972
2886 2973
2887 2974
2887 2975
2888 2976
2888 2977
2889 2890
2889 2978
2890 2979
2891 2980
2891 2981
2892 2982
2892 2983
2893 2894
2893 2984
2894 2985
2895 2986
2895 2987
2896 2988
2896 2989
2897 2898
2897 2990
2898 2991
2899 2992
2899 2993
2900 2994
2900 2995
2901 2902
2901 2996
2902 2997
2903 2998
2905 2906
2905 2999
2906 2999
2907 2908
2907 3000
2908 3000
2909 2910
2909 3001
2910 3001
2911 2912
2911 3002
2912 3002
2913 2914
2913 3003
2914 3003
2915 2916
2915 3004
2916 3004
2917 2918
2917 3005
2918 3005
2919 2920
2919 3006
2920 3006
2921 2922
2921 3007
2922 3007
2923 2924
2923 3008
2924 3008
2925 2926
2925 3009
2926 3009
2927 2928
2927 3010
2928 3010
2929 2930
2929 3011
2930 3011
2931 2932
2931 3012
2932 3012
2933 2934
2933 3013
2934 3013
2935 2936
2935 3014
2936 3014
2937 2938
2937 3015
2938 3015
2939 2940
2939 3016
2940 3016
2941 2942
2941 3017
2942 3017
2943 2944
2943 3018
2944 3018
2945 2946
2945 3019
2946 3019
2947 2948
2947 3020
2948 3020
2949 2950
2949 3021
2950 3021
2951 2952
2951 3022
2952 3022
2953 2954
2953 3023
2954 3023
2955 2956
2955 3024
2956 3024
2957 2958
2957 3025
2958 3025
2959 2960
2959 3026
2960 3026
2961 2962
2961 3027
2962 3027
2963 2964
2963 3028
2964 3028
2965 2966
2965 3029
2966 3029
2967 2968
2967 3030
2968 3030
2969 2970
2969 3031
2970 3031
2971 2972
2971 3032
2972 3032
2973 2974
2973 3033
2974 3033
2975 2976
2975 3034
2976 3034
2977 2978
2977 3035
2978 3035
2979 2980
2979 3036
2980 3036
2981 2982
2981 3037
2982 3037
2983 2984
2983 3038
2984 3038
2985 2986
2985 3039
2986 3039
2987 2988
2987 3040
2988 3040
2989 2990
2989 3041
2990 3041
2991 2992
2991 3042
2992 3042
2993 2994
2993 3043
2994 3043
2995 2996
2995 3044
2996 3044
2997 2998
2997 3045
2998 3045
2999 3046
2999 3047
3000 3111
3000 3112
3001 3113
3002 3050
3002 3051
3003 3114
3003 3115
3004 3116
3005 3054
3005 3055
3006 3117
3006 3118
3007 3119
3008 3058
3008 3059
3009 3120
3009 3121
3010 3122
3011 3062
3011 3063
3012 3123
3012 3124
3013 3125
3014 3066
3014 3067
3015 3126
3015 3127
3016 3128
3017 3070
3017 3071
3018 3129
3018 3130
3019 3131
3020 3074
3020 3075
3021 3132
3021 3133
3022 3134
3023 3078
3023 3079
3024 3135
3024 3136
3025 3137
3026 3082
3026 3083
3027 3138
3027 3139
3028 3140
3029 3086
3029 3087
3030 3141
3030 3142
3031 3143
3032 3090
3032 3091
3033 3144
3033 3145
3034 3146
3035 3094
3035 3095
3036 3147
3036 3148
3037 3149
3038 3098
3038 3099
3039 3150
3039 3151
3040 3152
3041 3102
3041 3103
3042 3153
3042 3154
3043 3155
3044 3106
3044 3107
3045 3156
3045 3157
3046 3047
3046 3110
3046 3158
3046 3159
3047 3048
3047 3158
3047 3159
3048 3111
3048 3159
3048 3160
3049 3112
3049 3161
3049 3162
3050 3051
3050 3113
3050 3163
3050 3164
3051 3052
3051 3163
3051 3164
3052 3114
3052 3164
3052 3165
3053 3115
3053 3166
3053 3167
3054 3055
3054 3116
3054 3168
3054 3169
3055 3056
3055 3168
3055 3169
3056 3117
3056 3169
3056 3170
3057 3118
3057 3171
3057 3172
3058 3059
3058 3119
3058 3173
3058 3174
3059 3060
3059 3173
3059 3174
3060 3120
3060 3174
3060 3175
3061 3121
3061 3176
3061 3177
3062 3063
3062 3122
3062 3178
3062 3179
3063 3064
3063 3178
3063 3179
3064 3123
3064 3179
3064 3180
3065 3124
3065 3181
3065 3182
3066 3067
3066 3125
3066 3183
3066 3184
3067 3068
3067 3183
3067 3184
3068 3126
3068 3184
3068 3185
3069 3127
3069 3186
3069 3187
3070 3071
3070 3128
3070 3188
3070 3189
3071 3072
3071 3188
3071 3189
3072 3129
3072 3189
3072 3190
3073 3130
3073 3191
3073 3192
3074 3075
3074 3131
3074 3193
3074 3194
3075 3076
3075 3193
3075 3194
3076 3132
3076 3194
3076 3195
3077 3133
3077 3196
3077 3197
3078 3079
3078 3134
3078 3198
3078 3199
3079 3080
3079 3198
3079 3199
3080 3135
3080 3199
3080 3200
3081 3136
3081 3201
3081 3202
3082 3083
3082 3137
3082 3203
3082 3204
3083 3084
3083 3203
3083 3204
3084 3138
3084 3204
3084 3205
3085 3139
3085 3206
3085 3207
3086 3087
3086 3140
3086 3208
3086 3209
3087 3088
3087 3208
3087 3209
3088 3141
3088 3209
3088 3210
3089 3142
3089 3211
3089 3212
3090 3091
3090 3143
3090 3213
3090 3214
3091 3092
3091 3213
3091 3214
3092 3144
3092 3214
3092 3215
3093 3145
3093 3216
3093 3217
3094 3095
3094 3146
3094 3218
3094 3219
3095 3096
3095 3218
3095 3219
3096 3147
3096 3219
3096 3220
3097 3148
3097 3221
3097 3222
3098 3099
3098 3149
3098 3223
3098 3224
3099 3100
3099 3223
3099 3224
3100 3150
3100 3224
3100 3225
3101 3151
3101 3226
3101 3227
3102 3103
3102 3152
3102 3228
3102 3229
3103 3104
3103 3228
3103 3229
3104 3153
3104 3229
3104 3230
3105 3154
3105 3231
3105 3232
3106 3107
3106 3155
3106 3233
3106 3234
3107 3108
3107 3233
3107 3234
3108 3156
3108 3234
3108 3235
3109 3157
3109 3236
3109 3237
3110 3158
3111 3112
3111 3160
3111 3238
3111 3239
3112 3161
3112 3238
3112 3239
3113 3163
3114 3115
3114 3165
3114 3240
3114 3241
3115 3166
3115 3240
3115 3241
3116 3168
3117 3118
3117 3170
3117 3242
3117 3243
3118 3171
3118 3242
3118 3243
3119 3173
3120 3121
3120 3175
3120 3244
3120 3245
3121 3176
3121 3244
3121 3245
3122 3178
3123 3124
3123 3180
3123 3246
3123 3247
3124 3181
3124 3246
3124 3247
3125 3183
3126 3127
3126 3185
3126 3248
3126 3249
3127 3186
3127 3248
3127 3249
3128 3188
3129 3130
3129 3190
3129 3250
3129 3251
3130 3191
3130 3250
3130 3251
3131 3193
3132 3133
3132 3195
3132 3252
3132 3253
3133 3196
3133 3252
3133 3253
3134 3198
3135 3136
3135 3200
3135 3254
3135 3255
3136 3201
3136 3254
3136 3255
3137 3203
3138 3139
3138 3205
3138 3256
3138 3257
3139 3206
3139 3256
3139 3257
3140 3208
3141 3142
3141 3210
3141 3258
3141 3259
3142 3211
3142 3258
3142 3259
3143 3213
3144 3145
3144 3215
3144 3260
3144 3261
3145 3216
3145 3260
3145 3261
3146 3218
3147 3148
3147 3220
3147 3262
3147 3263
3148 3221
3148 3262
3148 3263
3149 3223
3150 3151
3150 3225
3150 3264
3150 3265
3151 3226
3151 3264
3151 3265
3152 3228
3153 3154
3153 3230
3153 3266
3153 3267
3154 3231
3154 3266
3154 3267
3155 3233
3156 3157
3156 3235
3156 3268
3156 3269
3157 3236
3157 3268
3157 3269
3158 3159
3158 3270
3159 3270
3160 3238
3160 3271
3161 3239
3161 3272
3162 3273
3163 3164
3163 3274
3164 3274
3165 3240
3165 3275
3166 3241
3166 3276
3167 3277
3168 3169
3168 3278
3169 3278
3170 3242
3170 3279
3171 3243
3171 3280
3172 3281
3173 3174
3173 3282
3174 3282
3175 3244
3175 3283
3176 3245
3176 3284
3177 3285
3178 3179
3178 3286
3179 3286
3180 3246
3180 3287
3181 3247
3181 3288
3182 3289
3183 3184
3183 3290
3184 3290
3185 3248
3185 3291
3186 3249
3186 3292
3187 3293
3188 3189
3188 3294
3189 3294
3190 3250
3190 3295
3191 3251
3191 3296
3192 3297
3193 3194
3193 3298
3194 3298
3195 3252
3195 3299
3196 3253
3196 3300
3197 3301
3198 3199
3198 3302
3199 3302
3200 3254
3200 3303
3201 3255
3201 3304
3202 3305
3203 3204
3203 3306
3204 3306
3205 3256
3205 3307
3206 3257
3206 3308
3207 3309
3208 3209
3208 3310
3209 3310
3210 3258
3210 3311
3211 3259
3211 3312
3212 3313
3213 3214
3213 3314
3214 3314
3215 3260
3215 3315
3216 3261
3216 3316
3217 3317
3218 3219
3218 3318
3219 3318
3220 3262
3220 3319
3221 3263
3221 3320
3222 3321
3223 3224
3223 3322
3224 3322
3225 3264
3225 3323
3226 3265
3226 3324
3227 3325
3228 3229
3228 3326
3229 3326
3230 3266
3230 3327
3231 3267
3231 3328
3232 3329
3233 3234
3233 3330
3234 3330
3235 3268
3235 3331
3236 3269
3236 3332
3237 3333
3238 3239
3238 3271
3239 3272
3240 3241
3240 3275
3241 3276
3242 3243
3242 3279
3243 3280
3244 3245
3244 3283
3245 3284
3246 3247
3246 3287
3247 3288
3248 3249
3248 3291
3249 3292
3250 3251
3250 3295
3251 3296
3252 3253
3252 3299
3253 3300
3254 3255
3254 3303
3255 3304
3256 3257
3256 3307
3257 3308
3258 3259
3258 3311
3259 3312
3260 3261
3260 3315
3261 3316
3262 3263
3262 3319
3263 3320
3264 3265
3264 3323
3265 3324
3266 3267
3266 3327
3267 3328
3268 3269
3268 3331
3269 3332
3270 3334
3270 3335
3271 3335
3272 3336
3272 3337
3273 3338
3273 3339
3274 3340
3274 3341
3275 3341
3276 3342
3276 3343
3277 3344
3277 3345
3278 3346
3278 3347
3279 3347
3280 3348
3280 3349
3281 3350
3281 3351
3282 3352
3282 3353
3283 3353
3284 3354
3284 3355
3285 3356
3285 3357
3286 3358
3286 3359
3287 3359
3288 3360
3288 3361
3289 3362
3289 3363
3290 3364
3290 3365
3291 3365
3292 3366
3292 3367
3293 3368
3293 3369
3294 3370
3294 3371
3295 3371
3296 3372
3296 3373
3297 3374
3297 3375
3298 3376
3298 3377
3299 3377
3300 3378
3300 3379
3301 3380
3301 3381
3302 3382
3302 3383
3303 3383
3304 3384
3304 3385
3305 3386
3305 3387
3306 3388
3306 3389
3307 3389
3308 3390
3308 3391
3309 3392
3309 3393
3310 3394
3310 3395
3311 3395
3312 3396
3312 3397
3313 3398
3313 3399
3314 3400
3314 3401
3315 3401
3316 3402
3316 3403
3317 3404
3317 3405
3318 3406
3318 3407
3319 3407
3320 3408
3320 3409
3321 3410
3321 3411
3322 3412
3322 3413
3323 3413
3324 3414
3324 3415
3325 3416
3325 3417
3326 3418
3326 3419
3327 3419
3328 3420
3328 3421
3329 3422
3329 3423
3330 3424
3330 3425
3331 3425
3332 3426
3332 3427
3333 3428
3333 3429
3334 3335
3334 3430
3334 3495
3334 3496
3335 3431
3335 3495
3335 3496
3336 3337
3336 3432
3336 3497
3336 3498
3337 3433
3337 3497
3337 3498
3338 3339
3338 3433
3338 3499
3338 3500
3339 3434
3339 3499
3339 3500
3340 3341
3340 3434
3340 3501
3340 3502
3341 3435
3341 3501
3341 3502
3342 3343
3342 3436
3342 3503
3342 3504
3343 3437
3343 3503
3343 3504
3344 3345
3344 3437
3344 3505
3344 3506
3345 3438
3345 3505
3345 3506
3346 3347
3346 3438
3346 3507
3346 3508
3347 3439
3347 3507
3347 3508
3348 3349
3348 3440
3348 3509
3348 3510
3349 3441
3349 3509
3349 3510
3350 3351
3350 3441
3350 3511
3350 3512
3351 3442
3351 3511
3351 3512
3352 3353
3352 3442
3352 3513
3352 3514
3353 3443
3353 3513
3353 3514
3354 3355
3354 3444
3354 3515
3354 3516
3355 3445
3355 3515
3355 3516
3356 3357
3356 3445
3356 3517
3356 3518
3357 3446
3357 3517
3357 3518
3358 3359
3358 3446
3358 3519
3358 3520
3359 3447
3359 3519
3359 3520
3360 3361
3360 3448
3360 3521
3360 3522
3361 3449
3361 3521
3361 3522
3362 3363
3362 3449
3362 3523
3362 3524
3363 3450
3363 3523
3363 3524
3364 3365
3364 3450
3364 3525
3364 3526
3365 3451
3365 3525
3365 3526
3366 3367
3366 3452
3366 3527
3366 3528
3367 3453
3367 3527
3367 3528
3368 3369
3368 3453
3368 3529
3368 3530
3369 3454
3369 3529
3369 3530
3370 3371
3370 3454
3370 3531
3370 3532
3371 3455
3371 3531
3371 3532
3372 3373
3372 3456
3372 3533
3372 3534
3373 3457
3373 3533
3373 3534
3374 3375
3374 3457
3374 3535
3374 3536
3375 3458
3375 3535
3375 3536
3376 3377
3376 3458
3376 3537
3376 3538
3377 3459
3377 3537
3377 3538
3378 3379
3378 3460
3378 3539
3378 3540
3379 3461
3379 3539
3379 3540
3380 3381
3380 3461
3380 3541
3380 3542
3381 3462
3381 3541
3381 3542
3382 3383
3382 3462
3382 3543
3382 3544
3383 3463
3383 3543
3383 3544
3384 3385
3384 3464
3384 3545
3384 3546
3385 3465
3385 3545
3385 3546
3386 3387
3386 3465
3386 3547
3386 3548
3387 3466
3387 3547
3387 3548
3388 3389
3388 3466
3388 3549
3388 3550
3389 3467
3389 3549
3389 3550
3390 3391
3390 3468
3390 3551
3390 3552
3391 3469
3391 3551
3391 3552
3392 3393
3392 3469
3392 3553
3392 3554
3393 3470
3393 3553
3393 3554
3394 3395
3394 3470
3394 3555
3394 3556
3395 3471
3395 3555
3395 3556
3396 3397
3396 3472
3396 3557
3396 3558
3397 3473
3397 3557
3397 3558
3398 3399
3398 3473
3398 3559
3398 3560
3399 3474
3399 3559
3399 3560
3400 3401
3400 3474
3400 3561
3400 3562
3401 3475
3401 3561
3401 3562
3402 3403
3402 3476
3402 3563
3402 3564
3403 3477
3403 3563
3403 3564
3404 3405
3404 3477
3404 3565
3404 3566
3405 3478
3405 3565
3405 3566
3406 3407
3406 3478
3406 3567
3406 3568
3407 3479
3407 3567
3407 3568
3408 3409
3408 3480
3408 3569
3408 3570
3409 3481
3409 3569
3409 3570
3410 3411
3410 3481
3410 3571
3410 3572
3411 3482
3411 3571
3411 3572
3412 3413
3412 3482
3412 3573
3412 3574
3413 3483
3413 3573
3413 3574
3414 3415
3414 3484
3414 3575
3414 3576
3415 3485
3415 3575
3415 3576
3416 3417
3416 3485
3416 3577
3416 3578
3417 3486
3417 3577
3417 3578
3418 3419
3418 3486
3418 3579
3418 3580
3419 3487
3419 3579
3419 3580
3420 3421
3420 3488
3420 3581
3420 3582
3421 3489
3421 3581
3421 3582
3422 3423
3422 3489
3422 3583
3422 3584
3423 3490
3423 3583
3423 3584
3424 3425
3424 3490
3424 3585
3424 3586
3425 3491
3425 3585
3425 3586
3426 3427
3426 3492
3426 3587
3426 3588
3427 3493
3427 3587
3427 3588
3428 3429
3428 3493
3429 3494
3430 3495
3431 3432
3431 3496
3432 3497
3433 3498
3433 3499
3434 3500
3434 3501
3435 3436
3435 3502
3436 3503
3437 3504
3437 3505
3438 3506
3438 3507
3439 3440
3439 3508
3440 3509
3441 3510
3441 3511
3442 3512
3442 3513
3443 3444
3443 3514
3444 3515
3445 3516
3445 3517
3446 3518
3446 3519
3447 3448
3447 3520
3448 3521
3449 3522
3449 3523
3450 3524
3450 3525
3451 3452
3451 3526
3452 3527
3453 3528
3453 3529
3454 3530
3454 3531
3455 3456
3455 3532
3456 3533
3457 3534
3457 3535
3458 3536
3458 3537
3459 3460
3459 3538
3460 3539
3461 3540
3461 3541
3462 3542
3462 3543
3463 3464
3463 3544
3464 3545
3465 3546
3465 3547
3466 3548
3466 3549
3467 3468
3467 3550
3468 3551
3469 3552
3469 3553
3470 3554
3470 3555
3471 3472
3471 3556
3472 3557
3473 3558
3473 3559
3474 3560
3474 3561
3475 3476
3475 3562
3476 3563
3477 3564
3477 3565
3478 3566
3478 3567
3479 3480
3479 3568
3480 3569
3481 3570
3481 3571
3482 3572
3482 3573
3483 3484
3483 3574
3484 3575
3485 3576
3485 3577
3486 3578
3486 3579
3487 3488
3487 3580
3488 3581
3489 3582
3489 3583
3490 3584
3490 3585
3491 3492
3491 3586
3492 3587
3493 3588
3495 3496
3495 3589
3496 3589
3497 3498
3497 3590
3498 3590
3499 3500
3499 3591
3500 3591
3501 3502
3501 3592
3502 3592
3503 3504
3503 3593
3504 3593
3505 3506
3505 3594
3506 3594
3507 3508
3507 3595
3508 3595
3509 3510
3509 3596
3510 3596
3511 3512
3511 3597
3512 3597
3513 3514
3513 3598
3514 3598
3515 3516
3515 3599
3516 3599
3517 3518
3517 3600
3518 3600
3519 3520
3519 3601
3520 3601
3521 3522
3521 3602
3522 3602
3523 3524
3523 3603
3524 3603
3525 3526
3525 3604
3526 3604
3527 3528
3527 3605
3528 3605
3529 3530
3529 3606
3530 3606
3531 3532
3531 3607
3532 3607
3533 3534
3533 3608
3534 3608
3535 3536
3535 3609
3536 3609
3537 3538
3537 3610
3538 3610
3539 3540
3539 3611
3540 3611
3541 3542
3541 3612
3542 3612
3543 3544
3543 3613
3544 3613
3545 3546
3545 3614
3546 3614
3547 3548
3547 3615
3548 3615
3549 3550
3549 3616
3550 3616
3551 3552
3551 3617
3552 3617
3553 3554
3553 3618
3554 3618
3555 3556
3555 3619
3556 3619
3557 3558
3557 3620
3558 3620
3559 3560
3559 3621
3560 3621
3561 3562
3561 3622
3562 3622
3563 3564
3563 3623
3564 3623
3565 3566
3565 3624
3566 3624
3567 3568
3567 3625
3568 3625
3569 3570
3569 3626
3570 3626
3571 3572
3571 3627
3572 3627
3573 3574
3573 3628
3574 3628
3575 3576
3575 3629
3576 3629
3577 3578
3577 3630
3578 3630
3579 3580
3579 3631
3580 3631
3581 3582
3581 3632
3582 3632
3583 3584
3583 3633
3584 3633
3585 3586
3585 3634
3586 3634
3587 3588
3587 3635
3588 3635
3589 3636
3589 3637
3590 3701
3590 3702
3591 3703
3592 3640
3592 3641
3593 3704
3593 3705
3594 3706
3595 3644
3595 3645
3596 3707
3596 3708
3597 3709
3598 3648
3598 3649
3599 3710
3599 3711
3600 3712
3601 3652
3601 3653
3602 3713
3602 3714
3603 3715
3604 3656
3604 3657
3605 3716
3605 3717
3606 3718
3607 3660
3607 3661
3608 3719
3608 3720
3609 3721
3610 3664
3610 3665
3611 3722
3611 3723
3612 3724
3613 3668
3613 3669
3614 3725
3614 3726
3615 3727
3616 3672
3616 3673
3617 3728
3617 3729
3618 3730
3619 3676
3619 3677
3620 3731
3620 3732
3621 3733
3622 3680
3622 3681
3623 3734
3623 3735
3624 3736
3625 3684
3625 3685
3626 3737
3626 3738
3627 3739
3628 3688
3628 3689
3629 3740
3629 3741
3630 3742
3631 3692
3631 3693
3632 3743
3632 3744
3633 3745
3634 3696
3634 3697
3635 3746
3635 3747
3636 3637
3636 3700
3636 3748
3636 3749
3637 3638
3637 3748
3637 3749
3638 3701
3638 3749
3638 3750
3639 3702
3639 3751
3639 3752
3640 3641
3640 3703
3640 3753
3640 3754
3641 3642
3641 3753
3641 3754
3642 3704
3642 3754
3642 3755
3643 3705
3643 3756
3643 3757
3644 3645
3644 3706
3644 3758
3644 3759
3645 3646
3645 3758
3645 3759
3646 3707
3646 3759
3646 3760
3647 3708
3647 3761
3647 3762
3648 3649
3648 3709
3648 3763
3648 3764
3649 3650
3649 3763
3649 3764
3650 3710
3650 3764
3650 3765
3651 3711
3651 3766
3651 3767
3652 3653
3652 3712
3652 3768
3652 3769
3653 3654
3653 3768
3653 3769
3654 3713
3654 3769
3654 3770
3655 3714
3655 3771
3655 3772
3656 3657
3656 3715
3656 3773
3656 3774
3657 3658
3657 3773
3657 3774
3658 3716
3658 3774
3658 3775
3659 3717
3659 3776
3659 3777
3660 3661
3660 3718
3660 3778
3660 3779
3661 3662
3661 3778
3661 3779
3662 3719
3662 3779
3662 3780
3663 3720
3663 3781
3663 3782
3664 3665
3664 3721
3664 3783
3664 3784
3665 3666
3665 3783
3665 3784
3666 3722
3666 3784
3666 3785
3667 3723
3667 3786
3667 3787
3668 3669
3668 3724
3668 3788
3668 3789
3669 3670
3669 3788
3669 3789
3670 3725
3670 3789
3670 3790
3671 3726
3671 3791
3671 3792
3672 3673
3672 3727
3672 3793
3672 3794
3673 3674
3673 3793
3673 3794
3674 3728
3674 3794
3674 3795
3675 3729
3675 3796
3675 3797
3676 3677
3676 3730
3676 3798
3676 3799
3677 3678
3677 3798
3677 3799
3678 3731
3678 3799
3678 3800
3679 3732
3679 3801
3679 3802
3680 3681
3680 3733
3680 3803
3680 3804
3681 3682
3681 3803
3681 3804
3682 3734
3682 3804
3682 3805
3683 3735
3683 3806
3683 3807
3684 3685
3684 3736
3684 3808
3684 3809
3685 3686
3685 3808
3685 3809
3686 3737
3686 3809
3686 3810
3687 3738
3687 3811
3687 3812
3688 3689
3688 3739
3688 3813
3688 3814
3689 3690
3689 3813
3689 3814
3690 3740
3690 3814
3690 3815
3691 3741
3691 3816
3691 3817
3692 3693
3692 3742
3692 3818
3692 3819
3693 3694
3693 3818
3693 3819
3694 3743
3694 3819
3694 3820
3695 3744
3695 3821
3695 3822
3696 3697
3696 3745
3696 3823
3696 3824
3697 3698
3697 3823
3697 3824
3698 3746
3698 3824
3698 3825
3699 3747
3699 3826
3699 3827
3700 3748
3701 3702
3701 3750
3701 3828
3701 3829
3702 3751
3702 3828
3702 3829
3703 3753
3704 3705
3704 3755
3704 3830
3704 3831
3705 3756
3705 3830
3705 3831
3706 3758
3707 3708
3707 3760
3707 3832
3707 3833
3708 3761
3708 3832
3708 3833
3709 3763
3710 3711
3710 3765
3710 3834
3710 3835
3711 3766
3711 3834
3711 3835
3712 3768
3713 3714
3713 3770
3713 3836
3713 3837
3714 3771
3714 3836
3714 3837
3715 3773
3716 3717
3716 3775
3716 3838
3716 3839
3717 3776
3717 3838
3717 3839
3718 3778
3719 3720
3719 3780
3719 3840
3719 3841
3720 3781
3720 3840
3720 3841
3721 3783
3722 3723
3722 3785
3722 3842
3722 3843
3723 3786
3723 3842
3723 3843
3724 3788
3725 3726
3725 3790
3725 3844
3725 3845
3726 3791
3726 3844
3726 3845
3727 3793
3728 3729
3728 3795
3728 3846
3728 3847
3729 3796
3729 3846
3729 3847
3730 3798
3731 3732
3731 3800
3731 3848
3731 3849
3732 3801
3732 3848
3732 3849
3733 3803
3734 3735
3734 3805
3734 3850
3734 3851
3735 3806
3735 3850
3735 3851
3736 3808
3737 3738
3737 3810
3737 3852
3737 3853
3738 3811
3738 3852
3738 3853
3739 3813
3740 3741
3740 3815
3740 3854
3740 3855
3741 3816
3741 3854
3741 3855
3742 3818
3743 3744
3743 3820
3743 3856
3743 3857
3744 3821
3744 3856
3744 3857
3745 3823
3746 3747
3746 3825
3746 3858
3746 3859
3747 3826
3747 3858
3747 3859
3748 3749
3748 3860
3749 3860
3750 3828
3750 3861
3751 3829
3751 3862
3752 3863
3753 3754
3753 3864
3754 3864
3755 3830
3755 3865
3756 3831
3756 3866
3757 3867
3758 3759
3758 3868
3759 3868
3760 3832
3760 3869
3761 3833
3761 3870
3762 3871
3763 3764
3763 3872
3764 3872
3765 3834
3765 3873
3766 3835
3766 3874
3767 3875
3768 3769
3768 3876
3769 3876
3770 3836
3770 3877
3771 3837
3771 3878
3772 3879
3773 3774
3773 3880
3774 3880
3775 3838
3775 3881
3776 3839
3776 3882
3777 3883
3778 3779
3778 3884
3779 3884
3780 3840
3780 3885
3781 3841
3781 3886
3782 3887
3783 3784
3783 3888
3784 3888
3785 3842
3785 3889
3786 3843
3786 3890
3787 3891
3788 3789
3788 3892
3789 3892
3790 3844
3790 3893
3791 3845
3791 3894
3792 3895
3793 3794
3793 3896
3794 3896
3795 3846
3795 3897
3796 3847
3796 3898
3797 3899
3798 3799
3798 3900
3799 3900
3800 3848
3800 3901
3801 3849
3801 3902
3802 3903
3803 3804
3803 3904
3804 3904
3805 3850
3805 3905
3806 3851
3806 3906
3807 3907
3808 3809
3808 3908
3809 3908
3810 3852
3810 3909
3811 3853
3811 3910
3812 3911
3813 3814
3813 3912
3814 3912
3815 3854
3815 3913
3816 3855
3816 3914
3817 3915
3818 3819
3818 3916
3819 3916
3820 3856
3820 3917
3821 3857
3821 3918
3822 3919
3823 3824
3823 3920
3824 3920
3825 3858
3825 3921
3826 3859
3826 3922
3827 3923
3828 3829
3828 3861
3829 3862
3830 3831
3830 3865
3831 3866
3832 3833
3832 3869
3833 3870
3834 3835
3834 3873
3835 3874
3836 3837
3836 3877
3837 3878
3838 3839
3838 3881
3839 3882
3840 3841
3840 3885
3841 3886
3842 3843
3842 3889
3843 3890
3844 3845
3844 3893
3845 3894
3846 3847
3846 3897
3847 3898
3848 3849
3848 3901
3849 3902
3850 3851
3850 3905
3851 3906
3852 3853
3852 3909
3853 3910
3854 3855
3854 3913
3855 3914
3856 3857
3856 3917
3857 3918
3858 3859
3858 3921
3859 3922
3860 3924
3860 3925
3861 3925
3862 3926
3862 3927
3863 3928
3863 3929
3864 3930
3864 3931
3865 3931
3866 3932
3866 3933
3867 3934
3867 3935
3868 3936
3868 3937
3869 3937
3870 3938
3870 3939
3871 3940
3871 3941
3872 3942
3872 3943
3873 3943
3874 3944
3874 3945
3875 3946
3875 3947
3876 3948
3876 3949
3877 3949
3878 3950
3878 3951
3879 3952
3879 3953
3880 3954
3880 3955
3881 3955
3882 3956
3882 3957
3883 3958
3883 3959
3884 3960
3884 3961
3885 3961
3886 3962
3886 3963
3887 3964
3887 3965
3888 3966
3888 3967
3889 3967
3890 3968
3890 3969
3891 3970
3891 3971
3892 3972
3892 3973
3893 3973
3894 3974
3894 3975
3895 3976
3895 3977
3896 3978
3896 3979
3897 3979
3898 3980
3898 3981
3899 3982
3899 3983
3900 3984
3900 3985
3901 3985
3902 3986
3902 3987
3903 3988
3903 3989
3904 3990
3904 3991
3905 3991
3906 3992
3906 3993
3907 3994
3907 3995
3908 3996
3908 3997
3909 3997
3910 3998
3910 3999
3911 4000
3911 4001
3912 4002
3912 4003
3913 4003
3914 4004
3914 4005
3915 4006
3915 4007
3916 4008
3916 4009
3917 4009
3918 4010
3918 4011
3919 4012
3919 4013
3920 4014
3920 4015
3921 4015
3922 4016
3922 4017
3923 4018
3923 4019
3924 3925
3924 4020
3924 4085
3924 4086
3925 4021
3925 4085
3925 4086
3926 3927
3926 4022
3926 4087
3926 4088
3927 4023
3927 4087
3927 4088
3928 3929
3928 4023
3928 4089
3928 4090
3929 4024
3929 4089
3929 4090
3930 3931
3930 4024
3930 4091
3930 4092
3931 4025
3931 4091
3931 4092
3932 3933
3932 4026
3932 4093
3932 4094
3933 4027
3933 4093
3933 4094
3934 3935
3934 4027
3934 4095
3934 4096
3935 4028
3935 4095
3935 4096
3936 3937
3936 4028
3936 4097
3936 4098
3937 4029
3937 4097
3937 4098
3938 3939
3938 4030
3938 4099
3938 4100
3939 4031
3939 4099
3939 4100
3940 3941
3940 4031
3940 4101
3940 4102
3941 4032
3941 4101
3941 4102
3942 3943
3942 4032
3942 4103
3942 4104
3943 4033
3943 4103
3943 4104
3944 3945
3944 4034
3944 4105
3944 4106
3945 4035
3945 4105
3945 4106
3946 3947
3946 4035
3946 4107
3946 4108
3947 4036
3947 4107
3947 4108
3948 3949
3948 4036
3948 4109
3948 4110
3949 4037
3949 4109
3949 4110
3950 3951
3950 4038
3950 4111
3950 4112
3951 4039
3951 4111
3951 4112
3952 3953
3952 4039
3952 4113
3952 4114
3953 4040
3953 4113
3953 4114
3954 3955
3954 4040
3954 4115
3954 4116
3955 4041
3955 4115
3955 4116
3956 3957
3956 4042
3956 4117
3956 4118
3957 4043
3957 4117
3957 4118
3958 3959
3958 4043
3958 4119
3958 4120
3959 4044
3959 4119
3959 4120
3960 3961
3960 4044
3960 4121
3960 4122
3961 4045
3961 4121
3961 4122
3962 3963
3962 4046
3962 4123
3962 4124
3963 4047
3963 4123
3963 4124
3964 3965
3964 4047
3964 4125
3964 4126
3965 4048
3965 4125
3965 4126
3966 3967
3966 4048
3966 4127
3966 4128
3967 4049
3967 4127
3967 4128
3968 3969
3968 4050
3968 4129
3968 4130
3969 4051
3969 4129
3969 4130
3970 3971
3970 4051
3970 4131
3970 4132
3971 4052
3971 4131
3971 4132
3972 3973
3972 4052
3972 4133
3972 4134
3973 4053
3973 4133
3973 4134
3974 3975
3974 4054
3974 4135
3974 4136
3975 4055
3975 4135
3975 4136
3976 3977
3976 4055
3976 4137
3976 4138
3977 4056
3977 4137
3977 4138
3978 3979
3978 4056
3978 4139
3978 4140
3979 4057
3979 4139
3979 4140
3980 3981
3980 4058
3980 4141
3980 4142
3981 4059
3981 4141
3981 4142
3982 3983
3982 4059
3982 4143
3982 4144
3983 4060
3983 4143
3983 4144
3984 3985
3984 4060
3984 4145
3984 4146
3985 4061
3985 4145
3985 4146
3986 3987
3986 4062
3986 4147
3986 4148
3987 4063
3987 4147
3987 4148
3988 3989
3988 4063
3988 4149
3988 4150
3989 4064
3989 4149
3989 4150
3990 3991
3990 4064
3990 4151
3990 4152
3991 4065
3991 4151
3991 4152
3992 3993
3992 4066
3992 4153
3992 4154
3993 4067
3993 4153
3993 4154
3994 3995
3994 4067
3994 4155
3994 4156
3995 4068
3995 4155
3995 4156
3996 3997
3996 4068
3996 4157
3996 4158
3997 4069
3997 4157
3997 4158
3998 3999
3998 4070
3998 4159
3998 4160
3999 4071
3999 4159
3999 4160
4000 4001
4000 4071
4000 4161
4000 4162
4001 4072
4001 4161
4001 4162
4002 4003
4002 4072
4002 4163
4002 4164
4003 4073
4003 4163
4003 4164
4004 4005
4004 4074
4004 4165
4004 4166
4005 4075
4005 4165
4005 4166
4006 4007
4006 4075
4006 4167
4006 4168
4007 4076
4007 4167
4007 4168
4008 4009
4008 4076
4008 4169
4008 4170
4009 4077
4009 4169
4009 4170
4010 4011
4010 4078
4010 4171
4010 4172
4011 4079
4011 4171
4011 4172
4012 4013
4012 4079
4012 4173
4012 4174
4013 4080
4013 4173
4013 4174
4014 4015
4014 4080
4014 4175
4014 4176
4015 4081
4015 4175
4015 4176
4016 4017
4016 4082
4016 4177
4016 4178
4017 4083
4017 4177
4017 4178
4018 4019
4018 4083
4018 4179
4018 4180
4019 4084
4019 4179
4019 4180
4020 4085
4021 4022
4021 4086
4022 4087
4023 4088
4023 4089
4024 4090
4024 4091
4025 4026
4025 4092
4026 4093
4027 4094
4027 4095
4028 4096
4028 4097
4029 4030
4029 4098
4030 4099
4031 4100
4031 4101
4032 4102
4032 4103
4033 4034
4033 4104
4034 4105
4035 4106
4035 4107
4036 4108
4036 4109
4037 4038
4037 4110
4038 4111
4039 4112
4039 4113
4040 4114
4040 4115
4041 4042
4041 4116
4042 4117
4043 4118
4043 4119
4044 4120
4044 4121
4045 4046
4045 4122
4046 4123
4047 4124
4047 4125
4048 4126
4048 4127
4049 4050
4049 4128
4050 4129
4051 4130
4051 4131
4052 4132
4052 4133
4053 4054
4053 4134
4054 4135
4055 4136
4055 4137
4056 4138
4056 4139
4057 4058
4057 4140
4058 4141
4059 4142
4059 4143
4060 4144
4060 4145
4061 4062
4061 4146
4062 4147
4063 4148
4063 4149
4064 4150
4064 4151
4065 4066
4065 4152
4066 4153
4067 4154
4067 4155
4068 4156
4068 4157
4069 4070
4069 4158
4070 4159
4071 4160
4071 4161
4072 4162
4072 4163
4073 4074
4073 4164
4074 4165
4075 4166
4075 4167
4076 4168
4076 4169
4077 4078
4077 4170
4078 4171
4079 4172
4079 4173
4080 4174
4080 4175
4081 4082
4081 4176
4082 4177
4083 4178
4083 4179
4084 4180
4085 4086
4085 4181
4086 4181
4087 4088
4087 4182
4088 4182
4089 4090
4089 4183
4090 4183
4091 4092
4091 4184
4092 4184
4093 4094
4093 4185
4094 4185
4095 4096
4095 4186
4096 4186
4097 4098
4097 4187
4098 4187
4099 4100
4099 4188
4100 4188
4101 4102
4101 4189
4102 4189
4103 4104
4103 4190
4104 4190
4105 4106
4105 4191
4106 4191
4107 4108
4107 4192
4108 4192
4109 4110
4109 4193
4110 4193
4111 4112
4111 4194
4112 4194
4113 4114
4113 4195
4114 4195
4115 4116
4115 4196
4116 4196
4117 4118
4117 4197
4118 4197
4119 4120
4119 4198
4120 4198
4121 4122
4121 4199
4122 4199
4123 4124
4123 4200
4124 4200
4125 4126
4125 4201
4126 4201
4127 4128
4127 4202
4128 4202
4129 4130
4129 4203
4130 4203
4131 4132
4131 4204
4132 4204
4133 4134
4133 4205
4134 4205
4135 4136
4135 4206
4136 4206
4137 4138
4137 4207
4138 4207
4139 4140
4139 4208
4140 4208
4141 4142
4141 4209
4142 4209
4143 4144
4143 4210
4144 4210
4145 4146
4145 4211
4146 4211
4147 4148
4147 4212
4148 4212
4149 4150
4149 4213
4150 4213
4151 4152
4151 4214
4152 4214
4153 4154
4153 4215
4154 4215
4155 4156
4155 4216
4156 4216
4157 4158
4157 4217
4158 4217
4159 4160
4159 4218
4160 4218
4161 4162
4161 4219
4162 4219
4163 4164
4163 4220
4164 4220
4165 4166
4165 4221
4166 4221
4167 4168
4167 4222
4168 4222
4169 4170
4169 4223
4170 4223
4171 4172
4171 4224
4172 4224
4173 4174
4173 4225
4174 4225
4175 4176
4175 4226
4176 4226
4177 4178
4177 4227
4178 4227
4179 4180
4181 4228
4181 4229
4182 4293
4182 4294
4183 4295
4184 4232
4184 4233
4185 4296
4185 4297
4186 4298
4187 4236
4187 4237
4188 4299
4188 4300
4189 4301
4190 4240
4190 4241
4191 4302
4191 4303
4192 4304
4193 4244
4193 4245
4194 4305
4194 4306
4195 4307
4196 4248
4196 4249
4197 4308
4197 4309
4198 4310
4199 4252
4199 4253
4200 4311
4200 4312
4201 4313
4202 4256
4202 4257
4203 4314
4203 4315
4204 4316
4205 4260
4205 4261
4206 4317
4206 4318
4207 4319
4208 4264
4208 4265
4209 4320
4209 4321
4210 4322
4211 4268
4211 4269
4212 4323
4212 4324
4213 4325
4214 4272
4214 4273
4215 4326
4215 4327
4216 4328
4217 4276
4217 4277
4218 4329
4218 4330
4219 4331
4220 4280
4220 4281
4221 4332
4221 4333
4222 4334
4223 4284
4223 4285
4224 4335
4224 4336
4225 4337
4226 4288
4226 4289
4227 4338
4227 4339
4228 4229
4228 4292
4228 4340
4228 4341
4229 4230
4229 4340
4229 4341
4230 4293
4230 4341
4230 4342
4231 4294
4231 4343
4231 4344
4232 4233
4232 4295
4232 4345
4232 4346
4233 4234
4233 4345
4233 4346
4234 4296
4234 4346
4234 4347
4235 4297
4235 4348
4235 4349
4236 4237
4236 4298
4236 4350
4236 4351
4237 4238
4237 4350
4237 4351
4238 4299
4238 4351
4238 4352
4239 4300
4239 4353
4239 4354
4240 4241
4240 4301
4240 4355
4240 4356
4241 4242
4241 4355
4241 4356
4242 4302
4242 4356
4242 4357
4243 4303
4243 4358
4243 4359
4244 4245
4244 4304
4244 4360
4244 4361
4245 4246
4245 4360
4245 4361
4246 4305
4246 4361
4246 4362
4247 4306
4247 4363
4247 4364
4248 4249
4248 4307
4248 4365
4248 4366
4249 4250
4249 4365
4249 4366
4250 4308
4250 4366
4250 4367
4251 4309
4251 4368
4251 4369
4252 4253
4252 4310
4252 4370
4252 4371
4253 4254
4253 4370
4253 4371
4254 4311
4254 4371
4254 4372
4255 4312
4255 4373
4255 4374
4256 4257
4256 4313
4256 4375
4256 4376
4257 4258
4257 4375
4257 4376
4258 4314
4258 4376
4258 4377
4259 4315
4259 4378
4259 4379
4260 4261
4260 4316
4260 4380
4260 4381
4261 4262
4261 4380
4261 4381
4262 4317
4262 4381
4262 4382
4263 4318
4263 4383
4263 4384
4264 4265
4264 4319
4264 4385
4264 4386
4265 4266
4265 4385
4265 4386
4266 4320
4266 4386
4266 4387
4267 4321
4267 4388
4267 4389
4268 4269
4268 4322
4268 4390
4268 4391
4269 4270
4269 4390
4269 4391
4270 4323
4270 4391
4270 4392
4271 4324
4271 4393
4271 4394
4272 4273
4272 4325
4272 4395
4272 4396
4273 4274
4273 4395
4273 4396
4274 4326
4274 4396
4274 4397
4275 4327
4275 4398
4275 4399
4276 4277
4276 4328
4276 4400
4276 4401
4277 4278
4277 4400
4277 4401
4278 4329
4278 4401
4278 4402
4279 4330
4279 4403
4279 4404
4280 4281
4280 4331
4280 4405
4280 4406
4281 4282
4281 4405
4281 4406
4282 4332
4282 4406
4282 4407
4283 4333
4283 4408
4283 4409
4284 4285
4284 4334
4284 4410
4284 4411
4285 4286
4285 4410
4285 4411
4286 4335
4286 4411
4286 4412
4287 4336
4287 4413
4287 4414
4288 4289
4288 4337
4288 4415
4288 4416
4289 4290
4289 4415
4289 4416
4290 4338
4290 4416
4290 4417
4291 4339
4291 4418
4291 4419
4292 4340
4293 4294
4293 4342
4293 4420
4293 4421
4294 4343
4294 4420
4294 4421
4295 4345
4296 4297
4296 4347
4296 4422
4296 4423
4297 4348
4297 4422
4297 4423
4298 4350
4299 4300
4299 4352
4299 4424
4299 4425
4300 4353
4300 4424
4300 4425
4301 4355
4302 4303
4302 4357
4302 4426
4302 4427
4303 4358
4303 4426
4303 4427
4304 4360
4305 4306
4305 4362
4305 4428
4305 4429
4306 4363
4306 4428
4306 4429
4307 4365
4308 4309
4308 4367
4308 4430
4308 4431
4309 4368
4309 4430
4309 4431
4310 4370
4311 4312
4311 4372
4311 4432
4311 4433
4312 4373
4312 4432
4312 4433
4313 4375
4314 4315
4314 4377
4314 4434
4314 4435
4315 4378
4315 4434
4315 4435
4316 4380
4317 4318
4317 4382
4317 4436
4317 4437
4318 4383
4318 4436
4318 4437
4319 4385
4320 4321
4320 4387
4320 4438
4320 4439
4321 4388
4321 4438
4321 4439
4322 4390
4323 4324
4323 4392
4323 4440
4323 4441
4324 4393
4324 4440
4324 4441
4325 4395
4326 4327
4326 4397
4326 4442
4326 4443
4327 4398
4327 4442
4327 4443
4328 4400
4329 4330
4329 4402
4329 4444
4329 4445
4330 4403
4330 4444
4330 4445
4331 4405
4332 4333
4332 4407
4332 4446
4332 4447
4333 4408
4333 4446
4333 4447
4334 4410
4335 4336
4335 4412
4335 4448
4335 4449
4336 4413
4336 4448
4336 4449
4337 4415
4338 4339
4338 4417
4338 4450
4338 4451
4339 4418
4339 4450
4339 4451
4340 4341
4340 4452
4341 4452
4342 4420
4342 4453
4343 4421
4343 4454
4344 4455
4345 4346
4345 4456
4346 4456
4347 4422
4347 4457
4348 4423
4348 4458
4349 4459
4350 4351
4350 4460
4351 4460
4352 4424
4352 4461
4353 4425
4353 4462
4354 4463
4355 4356
4355 4464
4356 4464
4357 4426
4357 4465
4358 4427
4358 4466
4359 4467
4360 4361
4360 4468
4361 4468
4362 4428
4362 4469
4363 4429
4363 4470
4364 4471
4365 4366
4365 4472
4366 4472
4367 4430
4367 4473
4368 4431
4368 4474
4369 4475
4370 4371
4370 4476
4371 4476
4372 4432
4372 4477
4373 4433
4373 4478
4374 4479
4375 4376
4375 4480
4376 4480
4377 4434
4377 4481
4378 4435
4378 4482
4379 4483
4380 4381
4380 4484
4381 4484
4382 4436
4382 4485
4383 4437
4383 4486
4384 4487
4385 4386
4385 4488
4386 4488
4387 4438
4387 4489
4388 4439
4388 4490
4389 4491
4390 4391
4390 4492
4391 4492
4392 4440
4392 4493
4393 4441
4393 4494
4394 4495
4395 4396
4395 4496
4396 4496
4397 4442
4397 4497
4398 4443
4398 4498
4399 4499
4400 4401
4400 4500
4401 4500
4402 4444
4402 4501
4403 4445
4403 4502
4404 4503
4405 4406
4405 4504
4406 4504
4407 4446
4407 4505
4408 4447
4408 4506
4409 4507
4410 4411
4410 4508
4411 4508
4412 4448
4412 4509
4413 4449
4413 4510
4414 4511
4415 4416
4415 4512
4416 4512
4417 4450
4417 4513
4418 4451
4418 4514
4419 4515
4420 4421
4420 4453
4421 4454
4422 4423
4422 4457
4423 4458
4424 4425
4424 4461
4425 4462
4426 4427
4426 4465
4427 4466
4428 4429
4428 4469
4429 4470
4430 4431
4430 4473
4431 4474
4432 4433
4432 4477
4433 4478
4434 4435
4434 4481
4435 4482
4436 4437
4436 4485
4437 4486
4438 4439
4438 4489
4439 4490
4440 4441
4440 4493
4441 4494
4442 4443
4442 4497
4443 4498
4444 4445
4444 4501
4445 4502
4446 4447
4446 4505
4447 4506
4448 4449
4448 4509
4449 4510
4450 4451
4450 4513
4451 4514
4452 4516
4452 4517
4453 4517
4454 4518
4454 4519
4455 4520
4455 4521
4456 4522
4456 4523
4457 4523
4458 4524
4458 4525
4459 4526
4459 4527
4460 4528
4460 4529
4461 4529
4462 4530
4462 4531
4463 4532
4463 4533
4464 4534
4464 4535
4465 4535
4466 4536
4466 4537
4467 4538
4467 4539
4468 4540
4468 4541
4469 4541
4470 4542
4470 4543
4471 4544
4471 4545
4472 4546
4472 4547
4473 4547
4474 4548
4474 4549
4475 4550
4475 4551
4476 4552
4476 4553
4477 4553
4478 4554
4478 4555
4479 4556
4479 4557
4480 4558
4480 4559
4481 4559
4482 4560
4482 4561
4483 4562
4483 4563
4484 4564
4484 4565
4485 4565
4486 4566
4486 4567
4487 4568
4487 4569
4488 4570
4488 4571
4489 4571
4490 4572
4490 4573
4491 4574
4491 4575
4492 4576
4492 4577
4493 4577
4494 4578
4494 4579
4495 4580
4495 4581
4496 4582
4496 4583
4497 4583
4498 4584
4498 4585
4499 4586
4499 4587
4500 4588
4500 4589
4501 4589
4502 4590
4502 4591
4503 4592
4503 4593
4504 4594
4504 4595
4505 4595
4506 4596
4506 4597
4507 4598
4507 4599
4508 4600
4508 4601
4509 4601
4510 4602
4510 4603
4511 4604
4511 4605
4512 4606
4512 4607
4513 4607
4514 4608
4514 4609
4515 4610
4515 4611
4516 4517
4516 4612
4516 4677
4516 4678
4517 4613
4517 4677
4517 4678
4518 4519
4518 4614
4518 4679
4518 4680
4519 4615
4519 4679
4519 4680
4520 4521
4520 4615
4520 4681
4520 4682
4521 4616
4521 4681
4521 4682
4522 4523
4522 4616
4522 4683
4522 4684
4523 4617
4523 4683
4523 4684
4524 4525
4524 4618
4524 4685
4524 4686
4525 4619
4525 4685
4525 4686
4526 4527
4526 4619
4526 4687
4526 4688
4527 4620
4527 4687
4527 4688
4528 4529
4528 4620
4528 4689
4528 4690
4529 4621
4529 4689
4529 4690
4530 4531
4530 4622
4530 4691
4530 4692
4531 4623
4531 4691
4531 4692
4532 4533
4532 4623
4532 4693
4532 4694
4533 4624
4533 4693
4533 4694
4534 4535
4534 4624
4534 4695
4534 4696
4535 4625
4535 4695
4535 4696
4536 4537
4536 4626
4536 4697
4536 4698
4537 4627
4537 4697
4537 4698
4538 4539
4538 4627
4538 4699
4538 4700
4539 4628
4539 4699
4539 4700
4540 4541
4540 4628
4540 4701
4540 4702
4541 4629
4541 4701
4541 4702
4542 4543
4542 4630
4542 4703
4542 4704
4543 4631
4543 4703
4543 4704
4544 4545
4544 4631
4544 4705
4544 4706
4545 4632
4545 4705
4545 4706
4546 4547
4546 4632
4546 4707
4546 4708
4547 4633
4547 4707
4547 4708
4548 4549
4548 4634
4548 4709
4548 4710
4549 4635
4549 4709
4549 4710
4550 4551
4550 4635
4550 4711
4550 4712
4551 4636
4551 4711
4551 4712
4552 4553
4552 4636
4552 4713
4552 4714
4553 4637
4553 4713
4553 4714
4554 4555
4554 4638
4554 4715
4554 4716
4555 4639
4555 4715
4555 4716
4556 4557
4556 4639
4556 4717
4556 4718
4557 4640
4557 4717
4557 4718
4558 4559
4558 4640
4558 4719
4558 4720
4559 4641
4559 4719
4559 4720
4560 4561
4560 4642
4560 4721
4560 4722
4561 4643
4561 4721
4561 4722
4562 4563
4562 4643
4562 4723
4562 4724
4563 4644
4563 4723
4563 4724
4564 4565
4564 4644
4564 4725
4564 4726
4565 4645
4565 4725
4565 4726
4566 4567
4566 4646
4566 4727
4566 4728
4567 4647
4567 4727
4567 4728
4568 4569
4568 4647
4568 4729
4568 4730
4569 4648
4569 4729
4569 4730
4570 4571
4570 4648
4570 4731
4570 4732
4571 4649
4571 4731
4571 4732
4572 4573
4572 4650
4572 4733
4572 4734
4573 4651
4573 4733
4573 4734
4574 4575
4574 4651
4574 4735
4574 4736
4575 4652
4575 4735
4575 4736
4576 4577
4576 4652
4576 4737
4576 4738
4577 4653
4577 4737
4577 4738
4578 4579
4578 4654
4578 4739
4578 4740
4579 4655
4579 4739
4579 4740
4580 4581
4580 4655
4580 4741
4580 4742
4581 4656
4581 4741
4581 4742
4582 4583
4582 4656
4582 4743
4582 4744
4583 4657
4583 4743
4583 4744
4584 4585
4584 4658
4584 4745
4584 4746
4585 4659
4585 4745
4585 4746
4586 4587
4586 4659
4586 4747
4586 4748
4587 4660
4587 4747
4587 4748
4588 4589
4588 4660
4588 4749
4588 4750
4589 4661
4589 4749
4589 4750
4590 4591
4590 4662
4590 4751
4590 4752
4591 4663
4591 4751
4591 4752
4592 4593
4592 4663
4592 4753
4592 4754
4593 4664
4593 4753
4593 4754
4594 4595
4594 4664
4594 4755
4594 4756
4595 4665
4595 4755
4595 4756
4596 4597
4596 4666
4596 4757
4596 4758
4597 4667
4597 4757
4597 4758
4598 4599
4598 4667
4598 4759
4598 4760
4599 4668
4599 4759
4599 4760
4600 4601
4600 4668
4600 4761
4600 4762
4601 4669
4601 4761
4601 4762
4602 4603
4602 4670
4602 4763
4602 4764
4603 4671
4603 4763
4603 4764
4604 4605
4604 4671
4604 4765
4604 4766
4605 4672
4605 4765
4605 4766
4606 4607
4606 4672
4606 4767
4606 4768
4607 4673
4607 4767
4607 4768
4608 4609
4608 4674
4608 4769
4608 4770
4609 4675
4609 4769
4609 4770
4610 4611
4610 4675
4611 4676
4612 4677
4613 4614
4613 4678
4614 4679
4615 4680
4615 4681
4616 4682
4616 4683
4617 4618
4617 4684
4618 4685
4619 4686
4619 4687
4620 4688
4620 4689
4621 4622
4621 4690
4622 4691
4623 4692
4623 4693
4624 4694
4624 4695
4625 4626
4625 4696
4626 4697
4627 4698
4627 4699
4628 4700
4628 4701
4629 4630
4629 4702
4630 4703
4631 4704
4631 4705
4632 4706
4632 4707
4633 4634
4633 4708
4634 4709
4635 4710
4635 4711
4636 4712
4636 4713
4637 4638
4637 4714
4638 4715
4639 4716
4639 4717
4640 4718
4640 4719
4641 4642
4641 4720
4642 4721
4643 4722
4643 4723
4644 4724
4644 4725
4645 4646
4645 4726
4646 4727
4647 4728
4647 4729
4648 4730
4648 4731
4649 4650
4649 4732
4650 4733
4651 4734
4651 4735
4652 4736
4652 4737
4653 4654
4653 4738
4654 4739
4655 4740
4655 4741
4656 4742
4656 4743
4657 4658
4657 4744
4658 4745
4659 4746
4659 4747
4660 4748
4660 4749
4661 4662
4661 4750
4662 4751
4663 4752
4663 4753
4664 4754
4664 4755
4665 4666
4665 4756
4666 4757
4667 4758
4667 4759
4668 4760
4668 4761
4669 4670
4669 4762
4670 4763
4671 4764
4671 4765
4672 4766
4672 4767
4673 4674
4673 4768
4674 4769
4675 4770
4677 4678
4677 4771
4678 4771
4679 4680
4679 4772
4680 4772
4681 4682
4681 4773
4682 4773
4683 4684
4683 4774
4684 4774
4685 4686
4685 4775
4686 4775
4687 4688
4687 4776
4688 4776
4689 4690
4689 4777
4690 4777
4691 4692
4691 4778
4692 4778
4693 4694
4693 4779
4694 4779
4695 4696
4695 4780
4696 4780
4697 4698
4697 4781
4698 4781
4699 4700
4699 4782
4700 4782
4701 4702
4701 4783
4702 4783
4703 4704
4703 4784
4704 4784
4705 4706
4705 4785
4706 4785
4707 4708
4707 4786
4708 4786
4709 4710
4709 4787
4710 4787
4711 4712
4711 4788
4712 4788
4713 4714
4713 4789
4714 4789
4715 4716
4715 4790
4716 4790
4717 4718
4717 4791
4718 4791
4719 4720
4719 4792
4720 4792
4721 4722
4721 4793
4722 4793
4723 4724
4723 4794
4724 4794
4725 4726
4725 4795
4726 4795
4727 4728
4727 4796
4728 4796
4729 4730
4729 4797
4730 4797
4731 4732
4731 4798
4732 4798
4733 4734
4733 4799
4734 4799
4735 4736
4735 4800
4736 4800
4737 4738
4737 4801
4738 4801
4739 4740
4739 4802
4740 4802
4741 4742
4741 4803
4742 4803
4743 4744
4743 4804
4744 4804
4745 4746
4745 4805
4746 4805
4747 4748
4747 4806
4748 4806
4749 4750
4749 4807
4750 4807
4751 4752
4751 4808
4752 4808
4753 4754
4753 4809
4754 4809
4755 4756
4755 4810
4756 4810
4757 4758
4757 4811
4758 4811
4759 4760
4759 4812
4760 4812
4761 4762
4761 4813
4762 4813
4763 4764
4763 4814
4764 4814
4765 4766
4765 4815
4766 4815
4767 4768
4767 4816
4768 4816
4769 4770
4769 4817
4770 4817
4771 4818
4771 4819
4772 4883
4772 4884
4773 4885
4774 4822
4774 4823
4775 4886
4775 4887
4776 4888
4777 4826
4777 4827
4778 4889
4778 4890
4779 4891
4780 4830
4780 4831
4781 4892
4781 4893
4782 4894
4783 4834
4783 4835
4784 4895
4784 4896
4785 4897
4786 4838
4786 4839
4787 4898
4787 4899
4788 4900
4789 4842
4789 4843
4790 4901
4790 4902
4791 4903
4792 4846
4792 4847
4793 4904
4793 4905
4794 4906
4795 4850
4795 4851
4796 4907
4796 4908
4797 4909
4798 4854
4798 4855
4799 4910
4799 4911
4800 4912
4801 4858
4801 4859
4802 4913
4802 4914
4803 4915
4804 4862
4804 4863
4805 4916
4805 4917
4806 4918
4807 4866
4807 4867
4808 4919
4808 4920
4809 4921
4810 4870
4810 4871
4811 4922
4811 4923
4812 4924
4813 4874
4813 4875
4814 4925
4814 4926
4815 4927
4816 4878
4816 4879
4817 4928
4817 4929
4818 4819
4818 4882
4818 4930
4818 4931
4819 4820
4819 4930
4819 4931
4820 4883
4820 4931
4820 4932
4821 4884
4821 4933
4821 4934
4822 4823
4822 4885
4822 4935
4822 4936
4823 4824
4823 4935
4823 4936
4824 4886
4824 4936
4824 4937
4825 4887
4825 4938
4825 4939
4826 4827
4826 4888
4826 4940
4826 4941
4827 4828
4827 4940
4827 4941
4828 4889
4828 4941
4828 4942
4829 4890
4829 4943
4829 4944
4830 4831
4830 4891
4830 4945
4830 4946
4831 4832
4831 4945
4831 4946
4832 4892
4832 4946
4832 4947
4833 4893
4833 4948
4833 4949
4834 4835
4834 4894
4834 4950
4834 4951
4835 4836
4835 4950
4835 4951
4836 4895
4836 4951
4836 4952
4837 4896
4837 4953
4837 4954
4838 4839
4838 4897
4838 4955
4838 4956
4839 4840
4839 4955
4839 4956
4840 4898
4840 4956
4840 4957
4841 4899
4841 4958
4841 4959
4842 4843
4842 4900
4842 4960
4842 4961
4843 4844
4843 4960
4843 4961
4844 4901
4844 4961
4844 4962
4845 4902
4845 4963
4845 4964
4846 4847
4846 4903
4846 4965
4846 4966
4847 4848
4847 4965
4847 4966
4848 4904
4848 4966
4848 4967
4849 4905
4849 4968
4849 4969
4850 4851
4850 4906
4850 4970
4850 4971
4851 4852
4851 4970
4851 4971
4852 4907
4852 4971
4852 4972
4853 4908
4853 4973
4853 4974
4854 4855
4854 4909
4854 4975
4854 4976
4855 4856
4855 4975
4855 4976
4856 4910
4856 4976
4856 4977
4857 4911
4857 4978
4857 4979
4858 4859
4858 4912
4858 4980
4858 4981
4859 4860
4859 4980
4859 4981
4860 4913
4860 4981
4860 4982
4861 4914
4861 4983
4861 4984
4862 4863
4862 4915
4862 4985
4862 4986
4863 4864
4863 4985
4863 4986
4864 4916
4864 4986
4864 4987
4865 4917
4865 4988
4865 4989
4866 4867
4866 4918
4866 4990
4866 4991
4867 4868
4867 4990
4867 4991
4868 4919
4868 4991
4868 4992
4869 4920
4869 4993
4869 4994
4870 4871
4870 4921
4870 4995
4870 4996
4871 4872
4871 4995
4871 4996
4872 4922
4872 4996
4872 4997
4873 4923
4873 4998
4873 4999
4874 4875
4874 4924
4874 5000
4874 5001
4875 4876
4875 5000
4875 5001
4876 4925
4876 5001
4876 5002
4877 4926
4877 5003
4877 5004
4878 4879
4878 4927
4878 5005
4878 5006
4879 4880
4879 5005
4879 5006
4880 4928
4880 5006
4880 5007
4881 4929
4881 5008
4881 5009
4882 4930
4883 4884
4883 4932
4883 5010
4883 5011
4884 4933
4884 5010
4884 5011
4885 4935
4886 4887
4886 4937
4886 5012
4886 5013
4887 4938
4887 5012
4887 5013
4888 4940
4889 4890
4889 4942
4889 5014
4889 5015
4890 4943
4890 5014
4890 5015
4891 4945
4892 4893
4892 4947
4892 5016
4892 5017
4893 4948
4893 5016
4893 5017
4894 4950
4895 4896
4895 4952
4895 5018
4895 5019
4896 4953
4896 5018
4896 5019
4897 4955
4898 4899
4898 4957
4898 5020
4898 5021
4899 4958
4899 5020
4899 5021
4900 4960
4901 4902
4901 4962
4901 5022
4901 5023
4902 4963
4902 5022
4902 5023
4903 4965
4904 4905
4904 4967
4904 5024
4904 5025
4905 4968
4905 5024
4905 5025
4906 4970
4907 4908
4907 4972
4907 5026
4907 5027
4908 4973
4908 5026
4908 5027
4909 4975
4910 4911
4910 4977
4910 5028
4910 5029
4911 4978
4911 5028
4911 5029
4912 4980
4913 4914
4913 4982
4913 5030
4913 5031
4914 4983
4914 5030
4914 5031
4915 4985
4916 4917
4916 4987
4916 5032
4916 5033
4917 4988
4917 5032
4917 5033
4918 4990
4919 4920
4919 4992
4919 5034
4919 5035
4920 4993
4920 5034
4920 5035
4921 4995
4922 4923
4922 4997
4922 5036
4922 5037
4923 4998
4923 5036
4923 5037
4924 5000
4925 4926
4925 5002
4925 5038
4925 5039
4926 5003
4926 5038
4926 5039
4927 5005
4928 4929
4928 5007
4928 5040
4928 5041
4929 5008
4929 5040
4929 5041
4930 4931
4930 5042
4931 5042
4932 5010
4932 5043
4933 5011
4933 5044
4934 5045
4935 4936
4935 5046
4936 5046
4937 5012
4937 5047
4938 5013
4938 5048
4939 5049
4940 4941
4940 5050
4941 5050
4942 5014
4942 5051
4943 5015
4943 5052
4944 5053
4945 4946
4945 5054
4946 5054
4947 5016
4947 5055
4948 5017
4948 5056
4949 5057
4950 4951
4950 5058
4951 5058
4952 5018
4952 5059
4953 5019
4953 5060
4954 5061
4955 4956
4955 5062
4956 5062
4957 5020
4957 5063
4958 5021
4958 5064
4959 5065
4960 4961
4960 5066
4961 5066
4962 5022
4962 5067
4963 5023
4963 5068
4964 5069
4965 4966
4965 5070
4966 5070
4967 5024
4967 5071
4968 5025
4968 5072
4969 5073
4970 4971
4970 5074
4971 5074
4972 5026
4972 5075
4973 5027
4973 5076
4974 5077
4975 4976
4975 5078
4976 5078
4977 5028
4977 5079
4978 5029
4978 5080
4979 5081
4980 4981
4980 5082
4981 5082
4982 5030
4982 5083
4983 5031
4983 5084
4984 5085
4985 4986
4985 5086
4986 5086
4987 5032
4987 5087
4988 5033
4988 5088
4989 5089
4990 4991
4990 5090
4991 5090
4992 5034
4992 5091
4993 5035
4993 5092
4994 5093
4995 4996
4995 5094
4996 5094
4997 5036
4997 5095
4998 5037
4998 5096
4999 5097
5000 5001
5000 5098
5001 5098
5002 5038
5002 5099
5003 5039
5003 5100
5004 5101
5005 5006
5005 5102
5006 5102
5007 5040
5007 5103
5008 5041
5008 5104
5009 5105
5010 5011
5010 5043
5011 5044
5012 5013
5012 5047
5013 5048
5014 5015
5014 5051
5015 5052
5016 5017
5016 5055
5017 5056
5018 5019
5018 5059
5019 5060
5020 5021
5020 5063
5021 5064
5022 5023
5022 5067
5023 5068
5024 5025
5024 5071
5025 5072
5026 5027
5026 5075
5027 5076
5028 5029
5028 5079
5029 5080
5030 5031
5030 5083
5031 5084
5032 5033
5032 5087
5033 5088
5034 5035
5034 5091
5035 5092
5036 5037
5036 5095
5037 5096
5038 5039
5038 5099
5039 5100
5040 5041
5040 5103
5041 5104
5042 5106
5042 5107
5043 5107
5044 5108
5044 5109
5045 5110
5045 5111
5046 5112
5046 5113
5047 5113
5048 5114
5048 5115
5049 5116
5049 5117
5050 5118
5050 5119
5051 5119
5052 5120
5052 5121
5053 5122
5053 5123
5054 5124
5054 5125
5055 5125
5056 5126
5056 5127
5057 5128
5057 5129
5058 5130
5058 5131
5059 5131
5060 5132
5060 5133
5061 5134
5061 5135
5062 5136
5062 5137
5063 5137
5064 5138
5064 5139
5065 5140
5065 5141
5066 5142
5066 5143
5067 5143
5068 5144
5068 5145
5069 5146
5069 5147
5070 5148
5070 5149
5071 5149
5072 5150
5072 5151
5073 5152
5073 5153
5074 5154
5074 5155
5075 5155
5076 5156
5076 5157
5077 5158
5077 5159
5078 5160
5078 5161
5079 5161
5080 5162
5080 5163
5081 5164
5081 5165
5082 5166
5082 5167
5083 5167
5084 5168
5084 5169
5085 5170
5085 5171
5086 5172
5086 5173
5087 5173
5088 5174
5088 5175
5089 5176
5089 5177
5090 5178
5090 5179
5091 5179
5092 5180
5092 5181
5093 5182
5093 5183
5094 5184
5094 5185
5095 5185
5096 5186
5096 5187
5097 5188
5097 5189
5098 5190
5098 5191
5099 5191
5100 5192
5100 5193
5101 5194
5101 5195
5102 5196
5102 5197
5103 5197
5104 5198
5104 5199
5105 5200
5105 5201
5106 5107
5106 5202
5106 5267
5106 5268
5107 5203
5107 5267
5107 5268
5108 5109
5108 5204
5108 5269
5108 5270
5109 5205
5109 5269
5109 5270
5110 5111
5110 5205
5110 5271
5110 5272
5111 5206
5111 5271
5111 5272
5112 5113
5112 5206
5112 5273
5112 5274
5113 5207
5113 5273
5113 5274
5114 5115
5114 5208
5114 5275
5114 5276
5115 5209
5115 5275
5115 5276
5116 5117
5116 5209
5116 5277
5116 5278
5117 5210
5117 5277
5117 5278
5118 5119
5118 5210
5118 5279
5118 5280
5119 5211
5119 5279
5119 5280
5120 5121
5120 5212
5120 5281
5120 5282
5121 5213
5121 5281
5121 5282
5122 5123
5122 5213
5122 5283
5122 5284
5123 5214
5123 5283
5123 5284
5124 5125
5124 5214
5124 5285
5124 5286
5125 5215
5125 5285
5125 5286
5126 5127
5126 5216
5126 5287
5126 5288
5127 5217
5127 5287
5127 5288
5128 5129
5128 5217
5128 5289
5128 5290
5129 5218
5129 5289
5129 5290
5130 5131
5130 5218
5130 5291
5130 5292
5131 5219
5131 5291
5131 5292
5132 5133
5132 5220
5132 5293
5132 5294
5133 5221
5133 5293
5133 5294
5134 5135
5134 5221
5134 5295
5134 5296
5135 5222
5135 5295
5135 5296
5136 5137
5136 5222
5136 5297
5136 5298
5137 5223
5137 5297
5137 5298
5138 5139
5138 5224
5138 5299
5138 5300
5139 5225
5139 5299
5139 5300
5140 5141
5140 5225
5140 5301
5140 5302
5141 5226
5141 5301
5141 5302
5142 5143
5142 5226
5142 5303
5142 5304
5143 5227
5143 5303
5143 5304
5144 5145
5144 5228
5144 5305
5144 5306
5145 5229
5145 5305
5145 5306
5146 5147
5146 5229
5146 5307
5146 5308
5147 5230
5147 5307
5147 5308
5148 5149
5148 5230
5148 5309
5148 5310
5149 5231
5149 5309
5149 5310
5150 5151
5150 5232
5150 5311
5150 5312
5151 5233
5151 5311
5151 5312
5152 5153
5152 5233
5152 5313
5152 5314
5153 5234
5153 5313
5153 5314
5154 5155
5154 5234
5154 5315
5154 5316
5155 5235
5155 5315
5155 5316
5156 5157
5156 5236
5156 5317
5156 5318
5157 5237
5157 5317
5157 5318
5158 5159
5158 5237
5158 5319
5158 5320
5159 5238
5159 5319
5159 5320
5160 5161
5160 5238
5160 5321
5160 5322
5161 5239
5161 5321
5161 5322
5162 5163
5162 5240
5162 5323
5162 5324
5163 5241
5163 5323
5163 5324
5164 5165
5164 5241
5164 5325
5164 5326
5165 5242
5165 5325
5165 5326
5166 5167
5166 5242
5166 5327
5166 5328
5167 5243
5167 5327
5167 5328
5168 5169
5168 5244
5168 5329
5168 5330
5169 5245
5169 5329
5169 5330
5170 5171
5170 5245
5170 5331
5170 5332
5171 5246
5171 5331
5171 5332
5172 5173
5172 5246
5172 5333
5172 5334
5173 5247
5173 5333
5173 5334
5174 5175
5174 5248
5174 5335
5174 5336
5175 5249
5175 5335
5175 5336
5176 5177
5176 5249
5176 5337
5176 5338
5177 5250
5177 5337
5177 5338
5178 5179
5178 5250
5178 5339
5178 5340
5179 5251
5179 5339
5179 5340
5180 5181
5180 5252
5180 5341
5180 5342
5181 5253
5181 5341
5181 5342
5182 5183
5182 5253
5182 5343
5182 5344
5183 5254
5183 5343
5183 5344
5184 5185
5184 5254
5184 5345
5184 5346
5185 5255
5185 5345
5185 5346
5186 5187
5186 5256
5186 5347
5186 5348
5187 5257
5187 5347
5187 5348
5188 5189
5188 5257
5188 5349
5188 5350
5189 5258
5189 5349
5189 5350
5190 5191
5190 5258
5190 5351
5190 5352
5191 5259
5191 5351
5191 5352
5192 5193
5192 5260
5192 5353
5192 5354
5193 5261
5193 5353
5193 5354
5194 5195
5194 5261
5194 5355
5194 5356
5195 5262
5195 5355
5195 5356
5196 5197
5196 5262
5196 5357
5196 5358
5197 5263
5197 5357
5197 5358
5198 5199
5198 5264
5198 5359
5198 5360
5199 5265
5199 5359
5199 5360
5200 5201
5200 5265
5200 5361
5200 5362
5201 5266
5201 5361
5201 5362
5202 5267
5203 5204
5203 5268
5204 5269
5205 5270
5205 5271
5206 5272
5206 5273
5207 5208
5207 5274
5208 5275
5209 5276
5209 5277
5210 5278
5210 5279
5211 5212
5211 5280
5212 5281
5213 5282
5213 5283
5214 5284
5214 5285
5215 5216
5215 5286
5216 5287
5217 5288
5217 5289
5218 5290
5218 5291
5219 5220
5219 5292
5220 5293
5221 5294
5221 5295
5222 5296
5222 5297
5223 5224
5223 5298
5224 5299
5225 5300
5225 5301
5226 5302
5226 5303
5227 5228
5227 5304
5228 5305
5229 5306
5229 5307
5230 5308
5230 5309
5231 5232
5231 5310
5232 5311
5233 5312
5233 5313
5234 5314
5234 5315
5235 5236
5235 5316
5236 5317
5237 5318
5237 5319
5238 5320
5238 5321
5239 5240
5239 5322
5240 5323
5241 5324
5241 5325
5242 5326
5242 5327
5243 5244
5243 5328
5244 5329
5245 5330
5245 5331
5246 5332
5246 5333
5247 5248
5247 5334
5248 5335
5249 5336
5249 5337
5250 5338
5250 5339
5251 5252
5251 5340
5252 5341
5253 5342
5253 5343
5254 5344
5254 5345
5255 5256
5255 5346
5256 5347
5257 5348
5257 5349
5258 5350
5258 5351
5259 5260
5259 5352
5260 5353
5261 5354
5261 5355
5262 5356
5262 5357
5263 5264
5263 5358
5264 5359
5265 5360
5265 5361
5266 5362
5267 5268
5267 5363
5268 5363
5269 5270
5269 5364
5270 5364
5271 5272
5271 5365
5272 5365
5273 5274
5273 5366
5274 5366
5275 5276
5275 5367
5276 5367
5277 5278
5277 5368
5278 5368
5279 5280
5279 5369
5280 5369
5281 5282
5281 5370
5282 5370
5283 5284
5283 5371
5284 5371
5285 5286
5285 5372
5286 5372
5287 5288
5287 5373
5288 5373
5289 5290
5289 5374
5290 5374
5291 5292
5291 5375
5292 5375
5293 5294
5293 5376
5294 5376
5295 5296
5295 5377
5296 5377
5297 5298
5297 5378
5298 5378
5299 5300
5299 5379
5300 5379
5301 5302
5301 5380
5302 5380
5303 5304
5303 5381
5304 5381
5305 5306
5305 5382
5306 5382
5307 5308
5307 5383
5308 5383
5309 5310
5309 5384
5310 5384
5311 5312
5311 5385
5312 5385
5313 5314
5313 5386
5314 5386
5315 5316
5315 5387
5316 5387
5317 5318
5317 5388
5318 5388
5319 5320
5319 5389
5320 5389
5321 5322
5321 5390
5322 5390
5323 5324
5323 5391
5324 5391
5325 5326
5325 5392
5326 5392
5327 5328
5327 5393
5328 5393
5329 5330
5329 5394
5330 5394
5331 5332
5331 5395
5332 5395
5333 5334
5333 5396
5334 5396
5335 5336
5335 5397
5336 5397
5337 5338
5337 5398
5338 5398
5339 5340
5339 5399
5340 5399
5341 5342
5341 5400
5342 5400
5343 5344
5343 5401
5344 5401
5345 5346
5345 5402
5346 5402
5347 5348
5347 5403
5348 5403
5349 5350
5349 5404
5350 5404
5351 5352
5351 5405
5352 5405
5353 5354
5353 5406
5354 5406
5355 5356
5355 5407
5356 5407
5357 5358
5357 5408
5358 5408
5359 5360
5359 5409
5360 5409
5361 5362
5363 5410
5363 5411
5364 5475
5364 5476
5365 5477
5366 5414
5366 5415
5367 5478
5367 5479
5368 5480
5369 5418
5369 5419
5370 5481
5370 5482
5371 5483
5372 5422
5372 5423
5373 5484
5373 5485
5374 5486
5375 5426
5375 5427
5376 5487
5376 5488
5377 5489
5378 5430
5378 5431
5379 5490
5379 5491
5380 5492
5381 5434
5381 5435
5382 5493
5382 5494
5383 5495
5384 5438
5384 5439
5385 5496
5385 5497
5386 5498
5387 5442
5387 5443
5388 5499
5388 5500
5389 5501
5390 5446
5390 5447
5391 5502
5391 5503
5392 5504
5393 5450
5393 5451
5394 5505
5394 5506
5395 5507
5396 5454
5396 5455
5397 5508
5397 5509
5398 5510
5399 5458
5399 5459
5400 5511
5400 5512
5401 5513
5402 5462
5402 5463
5403 5514
5403 5515
5404 5516
5405 5466
5405 5467
5406 5517
5406 5518
5407 5519
5408 5470
5408 5471
5409 5520
5409 5521
5410 5411
5410 5474
5410 5522
5410 5523
5411 5412
5411 5522
5411 5523
5412 5475
5412 5523
5412 5524
5413 5476
5413 5525
5413 5526
5414 5415
5414 5477
5414 5527
5414 5528
5415 5416
5415 5527
5415 5528
5416 5478
5416 5528
5416 5529
5417 5479
5417 5530
5417 5531
5418 5419
5418 5480
5418 5532
5418 5533
5419 5420
5419 5532
5419 5533
5420 5481
5420 5533
5420 5534
5421 5482
5421 5535
5421 5536
5422 5423
5422 5483
5422 5537
5422 5538
5423 5424
5423 5537
5423 5538
5424 5484
5424 5538
5424 5539
5425 5485
5425 5540
5425 5541
5426 5427
5426 5486
5426 5542
5426 5543
5427 5428
5427 5542
5427 5543
5428 5487
5428 5543
5428 5544
5429 5488
5429 5545
5429 5546
5430 5431
5430 5489
5430 5547
5430 5548
5431 5432
5431 5547
5431 5548
5432 5490
5432 5548
5432 5549
5433 5491
5433 5550
5433 5551
5434 5435
5434 5492
5434 5552
5434 5553
5435 5436
5435 5552
5435 5553
5436 5493
5436 5553
5436 5554
5437 5494
5437 5555
5437 5556
5438 5439
5438 5495
5438 5557
5438 5558
5439 5440
5439 5557
5439 5558
5440 5496
5440 5558
5440 5559
5441 5497
5441 5560
5441 5561
5442 5443
5442 5498
5442 5562
5442 5563
5443 5444
5443 5562
5443 5563
5444 5499
5444 5563
5444 5564
5445 5500
5445 5565
5445 5566
5446 5447
5446 5501
5446 5567
5446 5568
5447 5448
5447 5567
5447 5568
5448 5502
5448 5568
5448 5569
5449 5503
5449 5570
5449 5571
5450 5451
5450 5504
5450 5572
5450 5573
5451 5452
5451 5572
5451 5573
5452 5505
5452 5573
5452 5574
5453 5506
5453 5575
5453 5576
5454 5455
5454 5507
5454 5577
5454 5578
5455 5456
5455 5577
5455 5578
5456 5508
5456 5578
5456 5579
5457 5509
5457 5580
5457 5581
5458 5459
5458 5510
5458 5582
5458 5583
5459 5460
5459 5582
5459 5583
5460 5511
5460 5583
5460 5584
5461 5512
5461 5585
5461 5586
5462 5463
5462 5513
5462 5587
5462 5588
5463 5464
5463 5587
5463 5588
5464 5514
5464 5588
5464 5589
5465 5515
5465 5590
5465 5591
5466 5467
5466 5516
5466 5592
5466 5593
5467 5468
5467 5592
5467 5593
5468 5517
5468 5593
5468 5594
5469 5518
5469 5595
5469 5596
5470 5471
5470 5519
5470 5597
5470 5598
5471 5472
5471 5597
5471 5598
5472 5520
5472 5598
5472 5599
5473 5521
5473 5600
5473 5601
5474 5522
5475 5476
5475 5524
5475 5602
5475 5603
5476 5525
5476 5602
5476 5603
5477 5527
5478 5479
5478 5529
5478 5604
5478 5605
5479 5530
5479 5604
5479 5605
5480 5532
5481 5482
5481 5534
5481 5606
5481 5607
5482 5535
5482 5606
5482 5607
5483 5537
5484 5485
5484 5539
5484 5608
5484 5609
5485 5540
5485 5608
5485 5609
5486 5542
5487 5488
5487 5544
5487 5610
5487 5611
5488 5545
5488 5610
5488 5611
5489 5547
5490 5491
5490 5549
5490 5612
5490 5613
5491 5550
5491 5612
5491 5613
5492 5552
5493 5494
5493 5554
5493 5614
5493 5615
5494 5555
5494 5614
5494 5615
5495 5557
5496 5497
5496 5559
5496 5616
5496 5617
5497 5560
5497 5616
5497 5617
5498 5562
5499 5500
5499 5564
5499 5618
5499 5619
5500 5565
5500 5618
5500 5619
5501 5567
5502 5503
5502 5569
5502 5620
5502 5621
5503 5570
5503 5620
5503 5621
5504 5572
5505 5506
5505 5574
5505 5622
5505 5623
5506 5575
5506 5622
5506 5623
5507 5577
5508 5509
5508 5579
5508 5624
5508 5625
5509 5580
5509 5624
5509 5625
5510 5582
5511 5512
5511 5584
5511 5626
5511 5627
5512 5585
5512 5626
5512 5627
5513 5587
5514 5515
5514 5589
5514 5628
5514 5629
5515 5590
5515 5628
5515 5629
5516 5592
5517 5518
5517 5594
5517 5630
5517 5631
5518 5595
5518 5630
5518 5631
5519 5597
5520 5521
5520 5599
5520 5632
5520 5633
5521 5600
5521 5632
5521 5633
5522 5523
5522 5634
5523 5634
5524 5602
5524 5635
5525 5603
5525 5636
5526 5637
5527 5528
5527 5638
5528 5638
5529 5604
5529 5639
5530 5605
5530 5640
5531 5641
5532 5533
5532 5642
5533 5642
5534 5606
5534 5643
5535 5607
5535 5644
5536 5645
5537 5538
5537 5646
5538 5646
5539 5608
5539 5647
5540 5609
5540 5648
5541 5649
5542 5543
5542 5650
5543 5650
5544 5610
5544 5651
5545 5611
5545 5652
5546 5653
5547 5548
5547 5654
5548 5654
5549 5612
5549 5655
5550 5613
5550 5656
5551 5657
5552 5553
5552 5658
5553 5658
5554 5614
5554 5659
5555 5615
5555 5660
5556 5661
5557 5558
5557 5662
5558 5662
5559 5616
5559 5663
5560 5617
5560 5664
5561 5665
5562 5563
5562 5666
5563 5666
5564 5618
5564 5667
5565 5619
5565 5668
5566 5669
5567 5568
5567 5670
5568 5670
5569 5620
5569 5671
5570 5621
5570 5672
5571 5673
5572 5573
5572 5674
5573 5674
5574 5622
5574 5675
5575 5623
5575 5676
5576 5677
5577 5578
5577 5678
5578 5678
5579 5624
5579 5679
5580 5625
5580 5680
5581 5681
5582 5583
5582 5682
5583 5682
5584 5626
5584 5683
5585 5627
5585 5684
5586 5685
5587 5588
5587 5686
5588 5686
5589 5628
5589 5687
5590 5629
5590 5688
5591 5689
5592 5593
5592 5690
5593 5690
5594 5630
5594 5691
5595 5631
5595 5692
5596 5693
5597 5598
5597 5694
5598 5694
5599 5632
5599 5695
5600 5633
5600 5696
5601 5697
5602 5603
5602 5635
5603 5636
5604 5605
5604 5639
5605 5640
5606 5607
5606 5643
5607 5644
5608 5609
5608 5647
5609 5648
5610 5611
5610 5651
5611 5652
5612 5613
5612 5655
5613 5656
5614 5615
5614 5659
5615 5660
5616 5617
5616 5663
5617 5664
5618 5619
5618 5667
5619 5668
5620 5621
5620 5671
5621 5672
5622 5623
5622 5675
5623 5676
5624 5625
5624 5679
5625 5680
5626 5627
5626 5683
5627 5684
5628 5629
5628 5687
5629 5688
5630 5631
5630 5691
5631 5692
5632 5633
5632 5695
5633 5696
5634 5698
5634 5699
5635 5699
5636 5700
5636 5701
5637 5702
5637 5703
5638 5704
5638 5705
5639 5705
5640 5706
5640 5707
5641 5708
5641 5709
5642 5710
5642 5711
5643 5711
5644 5712
5644 5713
5645 5714
5645 5715
5646 5716
5646 5717
5647 5717
5648 5718
5648 5719
5649 5720
5649 5721
5650 5722
5650 5723
5651 5723
5652 5724
5652 5725
5653 5726
5653 5727
5654 5728
5654 5729
5655 5729
5656 5730
5656 5731
5657 5732
5657 5733
5658 5734
5658 5735
5659 5735
5660 5736
5660 5737
5661 5738
5661 5739
5662 5740
5662 5741
5663 5741
5664 5742
5664 5743
5665 5744
5665 5745
5666 5746
5666 5747
5667 5747
5668 5748
5668 5749
5669 5750
5669 5751
5670 5752
5670 5753
5671 5753
5672 5754
5672 5755
5673 5756
5673 5757
5674 5758
5674 5759
5675 5759
5676 5760
5676 5761
5677 5762
5677 5763
5678 5764
5678 5765
5679 5765
5680 5766
5680 5767
5681 5768
5681 5769
5682 5770
5682 5771
5683 5771
5684 5772
5684 5773
5685 5774
5685 5775
5686 5776
5686 5777
5687 5777
5688 5778
5688 5779
5689 5780
5689 5781
5690 5782
5690 5783
5691 5783
5692 5784
5692 5785
5693 5786
5693 5787
5694 5788
5694 5789
5695 5789
5696 5790
5696 5791
5697 5792
5697 5793
5698 5699
5698 5794
5698 5859
5698 5860
5699 5795
5699 5859
5699 5860
5700 5701
5700 5796
5700 5861
5700 5862
5701 5797
5701 5861
5701 5862
5702 5703
5702 5797
5702 5863
5702 5864
5703 5798
5703 5863
5703 5864
5704 5705
5704 5798
5704 5865
5704 5866
5705 5799
5705 5865
5705 5866
5706 5707
5706 5800
5706 5867
5706 5868
5707 5801
5707 5867
5707 5868
5708 5709
5708 5801
5708 5869
5708 5870
5709 5802
5709 5869
5709 5870
5710 5711
5710 5802
5710 5871
5710 5872
5711 5803
5711 5871
5711 5872
5712 5713
5712 5804
5712 5873
5712 5874
5713 5805
5713 5873
5713 5874
5714 5715
5714 5805
5714 5875
5714 5876
5715 5806
5715 5875
5715 5876
5716 5717
5716 5806
5716 5877
5716 5878
5717 5807
5717 5877
5717 5878
5718 5719
5718 5808
5718 5879
5718 5880
5719 5809
5719 5879
5719 5880
5720 5721
5720 5809
5720 5881
5720 5882
5721 5810
5721 5881
5721 5882
5722 5723
5722 5810
5722 5883
5722 5884
5723 5811
5723 5883
5723 5884
5724 5725
5724 5812
5724 5885
5724 5886
5725 5813
5725 5885
5725 5886
5726 5727
5726 5813
5726 5887
5726 5888
5727 5814
5727 5887
5727 5888
5728 5729
5728 5814
5728 5889
5728 5890
5729 5815
5729 5889
5729 5890
5730 5731
5730 5816
5730 5891
5730 5892
5731 5817
5731 5891
5731 5892
5732 5733
5732 5817
5732 5893
5732 5894
5733 5818
5733 5893
5733 5894
5734 5735
5734 5818
5734 5895
5734 5896
5735 5819
5735 5895
5735 5896
5736 5737
5736 5820
5736 5897
5736 5898
5737 5821
5737 5897
5737 5898
5738 5739
5738 5821
5738 5899
5738 5900
5739 5822
5739 5899
5739 5900
5740 5741
5740 5822
5740 5901
5740 5902
5741 5823
5741 5901
5741 5902
5742 5743
5742 5824
5742 5903
5742 5904
5743 5825
5743 5903
5743 5904
5744 5745
5744 5825
5744 5905
5744 5906
5745 5826
5745 5905
5745 5906
5746 5747
5746 5826
5746 5907
5746 5908
5747 5827
5747 5907
5747 5908
5748 5749
5748 5828
5748 5909
5748 5910
5749 5829
5749 5909
5749 5910
5750 5751
5750 5829
5750 5911
5750 5912
5751 5830
5751 5911
5751 5912
5752 5753
5752 5830
5752 5913
5752 5914
5753 5831
5753 5913
5753 5914
5754 5755
5754 5832
5754 5915
5754 5916
5755 5833
5755 5915
5755 5916
5756 5757
5756 5833
5756 5917
5756 5918
5757 5834
5757 5917
5757 5918
5758 5759
5758 5834
5758 5919
5758 5920
5759 5835
5759 5919
5759 5920
5760 5761
5760 5836
5760 5921
5760 5922
5761 5837
5761 5921
5761 5922
5762 5763
5762 5837
5762 5923
5762 5924
5763 5838
5763 5923
5763 5924
5764 5765
5764 5838
5764 5925
5764 5926
5765 5839
5765 5925
5765 5926
5766 5767
5766 5840
5766 5927
5766 5928
5767 5841
5767 5927
5767 5928
5768 5769
5768 5841
5768 5929
5768 5930
5769 5842
5769 5929
5769 5930
5770 5771
5770 5842
5770 5931
5770 5932
5771 5843
5771 5931
5771 5932
5772 5773
5772 5844
5772 5933
5772 5934
5773 5845
5773 5933
5773 5934
5774 5775
5774 5845
5774 5935
5774 5936
5775 5846
5775 5935
5775 5936
5776 5777
5776 5846
5776 5937
5776 5938
5777 5847
5777 5937
5777 5938
5778 5779
5778 5848
5778 5939
5778 5940
5779 5849
5779 5939
5779 5940
5780 5781
5780 5849
5780 5941
5780 5942
5781 5850
5781 5941
5781 5942
5782 5783
5782 5850
5782 5943
5782 5944
5783 5851
5783 5943
5783 5944
5784 5785
5784 5852
5784 5945
5784 5946
5785 5853
5785 5945
5785 5946
5786 5787
5786 5853
5786 5947
5786 5948
5787 5854
5787 5947
5787 5948
5788 5789
5788 5854
5788 5949
5788 5950
5789 5855
5789 5949
5789 5950
5790 5791
5790 5856
5790 5951
5790 5952
5791 5857
5791 5951
5791 5952
5792 5793
5792 5857
5792 5953
5792 5954
5793 5858
5793 5953
5793 5954
5794 5859
5795 5796
5795 5860
5796 5861
5797 5862
5797 5863
5798 5864
5798 5865
5799 5800
5799 5866
5800 5867
5801 5868
5801 5869
5802 5870
5802 5871
5803 5804
5803 5872
5804 5873
5805 5874
5805 5875
5806 5876
5806 5877
5807 5808
5807 5878
5808 5879
5809 5880
5809 5881
5810 5882
5810 5883
5811 5812
5811 5884
5812 5885
5813 5886
5813 5887
5814 5888
5814 5889
5815 5816
5815 5890
5816 5891
5817 5892
5817 5893
5818 5894
5818 5895
5819 5820
5819 5896
5820 5897
5821 5898
5821 5899
5822 5900
5822 5901
5823 5824
5823 5902
5824 5903
5825 5904
5825 5905
5826 5906
5826 5907
5827 5828
5827 5908
5828 5909
5829 5910
5829 5911
5830 5912
5830 5913
5831 5832
5831 5914
5832 5915
5833 5916
5833 5917
5834 5918
5834 5919
5835 5836
5835 5920
5836 5921
5837 5922
5837 5923
5838 5924
5838 5925
5839 5840
5839 5926
5840 5927
5841 5928
5841 5929
5842 5930
5842 5931
5843 5844
5843 5932
5844 5933
5845 5934
5845 5935
5846 5936
5846 5937
5847 5848
5847 5938
5848 5939
5849 5940
5849 5941
5850 5942
5850 5943
5851 5852
5851 5944
5852 5945
5853 5946
5853 5947
5854 5948
5854 5949
5855 5856
5855 5950
5856 5951
5857 5952
5857 5953
5858 5954
5859 5860
5859 5955
5860 5955
5861 5862
5861 5956
5862 5956
5863 5864
5863 5957
5864 5957
5865 5866
5865 5958
5866 5958
5867 5868
5867 5959
5868 5959
5869 5870
5869 5960
5870 5960
5871 5872
5871 5961
5872 5961
5873 5874
5873 5962
5874 5962
5875 5876
5875 5963
5876 5963
5877 5878
5877 5964
5878 5964
5879 5880
5879 5965
5880 5965
5881 5882
5881 5966
5882 5966
5883 5884
5883 5967
5884 5967
5885 5886
5885 5968
5886 5968
5887 5888
5887 5969
5888 5969
5889 5890
5889 5970
5890 5970
5891 5892
5891 5971
5892 5971
5893 5894
5893 5972
5894 5972
5895 5896
5895 5973
5896 5973
5897 5898
5897 5974
5898 5974
5899 5900
5899 5975
5900 5975
5901 5902
5901 5976
5902 5976
5903 5904
5903 5977
5904 5977
5905 5906
5905 5978
5906 5978
5907 5908
5907 5979
5908 5979
5909 5910
5909 5980
5910 5980
5911 5912
5911 5981
5912 5981
5913 5914
5913 5982
5914 5982
5915 5916
5915 5983
5916 5983
5917 5918
5917 5984
5918 5984
5919 5920
5919 5985
5920 5985
5921 5922
5921 5986
5922 5986
5923 5924
5923 5987
5924 5987
5925 5926
5925 5988
5926 5988
5927 5928
5927 5989
5928 5989
5929 5930
5929 5990
5930 5990
5931 5932
5931 5991
5932 5991
5933 5934
5933 5992
5934 5992
5935 5936
5935 5993
5936 5993
5937 5938
5937 5994
5938 5994
5939 5940
5939 5995
5940 5995
5941 5942
5941 5996
5942 5996
5943 5944
5943 5997
5944 5997
5945 5946
5945 5998
5946 5998
5947 5948
5947 5999
5948 5999
5949 5950
5949 6000
5950 6000
5951 5952
5951 6001
5952 6001
5953 5954
5955 6002
5955 6003
5956 6067
5956 6068
5957 6069
5958 6006
5958 6007
5959 6070
5959 6071
5960 6072
5961 6010
5961 6011
5962 6073
5962 6074
5963 6075
5964 6014
5964 6015
5965 6076
5965 6077
5966 6078
5967 6018
5967 6019
5968 6079
5968 6080
5969 6081
5970 6022
5970 6023
5971 6082
5971 6083
5972 6084
5973 6026
5973 6027
5974 6085
5974 6086
5975 6087
5976 6030
5976 6031
5977 6088
5977 6089
5978 6090
5979 6034
5979 6035
5980 6091
5980 6092
5981 6093
5982 6038
5982 6039
5983 6094
5983 6095
5984 6096
5985 6042
5985 6043
5986 6097
5986 6098
5987 6099
5988 6046
5988 6047
5989 6100
5989 6101
5990 6102
5991 6050
5991 6051
5992 6103
5992 6104
5993 6105
5994 6054
5994 6055
5995 6106
5995 6107
5996 6108
5997 6058
5997 6059
5998 6109
5998 6110
5999 6111
6000 6062
6000 6063
6001 6112
6001 6113
6002 6003
6002 6066
6002 6114
6002 6115
6003 6004
6003 6114
6003 6115
6004 6067
6004 6115
6004 6116
6005 6068
6005 6117
6005 6118
6006 6007
6006 6069
6006 6119
6006 6120
6007 6008
6007 6119
6007 6120
6008 6070
6008 6120
6008 6121
6009 6071
6009 6122
6009 6123
6010 6011
6010 6072
6010 6124
6010 6125
6011 6012
6011 6124
6011 6125
6012 6073
6012 6125
6012 6126
6013 6074
6013 6127
6013 6128
6014 6015
6014 6075
6014 6129
6014 6130
6015 6016
6015 6129
6015 6130
6016 6076
6016 6130
6016 6131
6017 6077
6017 6132
6017 6133
6018 6019
6018 6078
6018 6134
6018 6135
6019 6020
6019 6134
6019 6135
6020 6079
6020 6135
6020 6136
6021 6080
6021 6137
6021 6138
6022 6023
6022 6081
6022 6139
6022 6140
6023 6024
6023 6139
6023 6140
6024 6082
6024 6140
6024 6141
6025 6083
6025 6142
6025 6143
6026 6027
6026 6084
6026 6144
6026 6145
6027 6028
6027 6144
6027 6145
6028 6085
6028 6145
6028 6146
6029 6086
6029 6147
6029 6148
6030 6031
6030 6087
6030 6149
6030 6150
6031 6032
6031 6149
6031 6150
6032 6088
6032 6150
6032 6151
6033 6089
6033 6152
6033 6153
6034 6035
6034 6090
6034 6154
6034 6155
6035 6036
6035 6154
6035 6155
6036 6091
6036 6155
6036 6156
6037 6092
6037 6157
6037 6158
6038 6039
6038 6093
6038 6159
6038 6160
6039 6040
6039 6159
6039 6160
6040 6094
6040 6160
6040 6161
6041 6095
6041 6162
6041 6163
6042 6043
6042 6096
6042 6164
6042 6165
6043 6044
6043 6164
6043 6165
6044 6097
6044 6165
6044 6166
6045 6098
6045 6167
6045 6168
6046 6047
6046 6099
6046 6169
6046 6170
6047 6048
6047 6169
6047 6170
6048 6100
6048 6170
6048 6171
6049 6101
6049 6172
6049 6173
6050 6051
6050 6102
6050 6174
6050 6175
6051 6052
6051 6174
6051 6175
6052 6103
6052 6175
6052 6176
6053 6104
6053 6177
6053 6178
6054 6055
6054 6105
6054 6179
6054 6180
6055 6056
6055 6179
6055 6180
6056 6106
6056 6180
6056 6181
6057 6107
6057 6182
6057 6183
6058 6059
6058 6108
6058 6184
6058 6185
6059 6060
6059 6184
6059 6185
6060 6109
6060 6185
6060 6186
6061 6110
6061 6187
6061 6188
6062 6063
6062 6111
6062 6189
6062 6190
6063 6064
6063 6189
6063 6190
6064 6112
6064 6190
6064 6191
6065 6113
6065 6192
6065 6193
6066 6114
6067 6068
6067 6116
6067 6194
6067 6195
6068 6117
6068 6194
6068 6195
6069 6119
6070 6071
6070 6121
6070 6196
6070 6197
6071 6122
6071 6196
6071 6197
6072 6124
6073 6074
6073 6126
6073 6198
6073 6199
6074 6127
6074 6198
6074 6199
6075 6129
6076 6077
6076 6131
6076 6200
6076 6201
6077 6132
6077 6200
6077 6201
6078 6134
6079 6080
6079 6136
6079 6202
6079 6203
6080 6137
6080 6202
6080 6203
6081 6139
6082 6083
6082 6141
6082 6204
6082 6205
6083 6142
6083 6204
6083 6205
6084 6144
6085 6086
6085 6146
6085 6206
6085 6207
6086 6147
6086 6206
6086 6207
6087 6149
6088 6089
6088 6151
6088 6208
6088 6209
6089 6152
6089 6208
6089 6209
6090 6154
6091 6092
6091 6156
6091 6210
6091 6211
6092 6157
6092 6210
6092 6211
6093 6159
6094 6095
6094 6161
6094 6212
6094 6213
6095 6162
6095 6212
6095 6213
6096 6164
6097 6098
6097 6166
6097 6214
6097 6215
6098 6167
6098 6214
6098 6215
6099 6169
6100 6101
6100 6171
6100 6216
6100 6217
6101 6172
6101 6216
6101 6217
6102 6174
6103 6104
6103 6176
6103 6218
6103 6219
6104 6177
6104 6218
6104 6219
6105 6179
6106 6107
6106 6181
6106 6220
6106 6221
6107 6182
6107 6220
6107 6221
6108 6184
6109 6110
6109 6186
6109 6222
6109 6223
6110 6187
6110 6222
6110 6223
6111 6189
6112 6113
6112 6191
6112 6224
6112 6225
6113 6192
6113 6224
6113 6225
6114 6115
6114 6226
6115 6226
6116 6194
6116 6227
6117 6195
6117 6228
6118 6229
6119 6120
6119 6230
6120 6230
6121 6196
6121 6231
6122 6197
6122 6232
6123 6233
6124 6125
6124 6234
6125 6234
6126 6198
6126 6235
6127 6199
6127 6236
6128 6237
6129 6130
6129 6238
6130 6238
6131 6200
6131 6239
6132 6201
6132 6240
6133 6241
6134 6135
6134 6242
6135 6242
6136 6202
6136 6243
6137 6203
6137 6244
6138 6245
6139 6140
6139 6246
6140 6246
6141 6204
6141 6247
6142 6205
6142 6248
6143 6249
6144 6145
6144 6250
6145 6250
6146 6206
6146 6251
6147 6207
6147 6252
6148 6253
6149 6150
6149 6254
6150 6254
6151 6208
6151 6255
6152 6209
6152 6256
6153 6257
6154 6155
6154 6258
6155 6258
6156 6210
6156 6259
6157 6211
6157 6260
6158 6261
6159 6160
6159 6262
6160 6262
6161 6212
6161 6263
6162 6213
6162 6264
6163 6265
6164 6165
6164 6266
6165 6266
6166 6214
6166 6267
6167 6215
6167 6268
6168 6269
6169 6170
6169 6270
6170 6270
6171 6216
6171 6271
6172 6217
6172 6272
6173 6273
6174 6175
6174 6274
6175 6274
6176 6218
6176 6275
6177 6219
6177 6276
6178 6277
6179 6180
6179 6278
6180 6278
6181 6220
6181 6279
6182 6221
6182 6280
6183 6281
6184 6185
6184 6282
6185 6282
6186 6222
6186 6283
6187 6223
6187 6284
6188 6285
6189 6190
6189 6286
6190 6286
6191 6224
6191 6287
6192 6225
6192 6288
6193 6289
6194 6195
6194 6227
6195 6228
6196 6197
6196 6231
6197 6232
6198 6199
6198 6235
6199 6236
6200 6201
6200 6239
6201 6240
6202 6203
6202 6243
6203 6244
6204 6205
6204 6247
6205 6248
6206 6207
6206 6251
6207 6252
6208 6209
6208 6255
6209 6256
6210 6211
6210 6259
6211 6260
6212 6213
6212 6263
6213 6264
6214 6215
6214 6267
6215 6268
6216 6217
6216 6271
6217 6272
6218 6219
6218 6275
6219 6276
6220 6221
6220 6279
6221 6280
6222 6223
6222 6283
6223 6284
6224 6225
6224 6287
6225 6288
6226 6290
6226 6291
6227 6291
6228 6292
6228 6293
6229 6294
6229 6295
6230 6296
6230 6297
6231 6297
6232 6298
6232 6299
6233 6300
6233 6301
6234 6302
6234 6303
6235 6303
6236 6304
6236 6305
6237 6306
6237 6307
6238 6308
6238 6309
6239 6309
6240 6310
6240 6311
6241 6312
6241 6313
6242 6314
6242 6315
6243 6315
6244 6316
6244 6317
6245 6318
6245 6319
6246 6320
6246 6321
6247 6321
6248 6322
6248 6323
6249 6324
6249 6325
6250 6326
6250 6327
6251 6327
6252 6328
6252 6329
6253 6330
6253 6331
6254 6332
6254 6333
6255 6333
6256 6334
6256 6335
6257 6336
6257 6337
6258 6338
6258 6339
6259 6339
6260 6340
6260 6341
6261 6342
6261 6343
6262 6344
6262 6345
6263 6345
6264 6346
6264 6347
6265 6348
6265 6349
6266 6350
6266 6351
6267 6351
6268 6352
6268 6353
6269 6354
6269 6355
6270 6356
6270 6357
6271 6357
6272 6358
6272 6359
6273 6360
6273 6361
6274 6362
6274 6363
6275 6363
6276 6364
6276 6365
6277 6366
6277 6367
6278 6368
6278 6369
6279 6369
6280 6370
6280 6371
6281 6372
6281 6373
6282 6374
6282 6375
6283 6375
6284 6376
6284 6377
6285 6378
6285 6379
6286 6380
6286 6381
6287 6381
6288 6382
6288 6383
6289 6384
6289 6385
6290 6291
6290 6386
6290 6451
6290 6452
6291 6387
6291 6451
6291 6452
6292 6293
6292 6388
6292 6453
6292 6454
6293 6389
6293 6453
6293 6454
6294 6295
6294 6389
6294 6455
6294 6456
6295 6390
6295 6455
6295 6456
6296 6297
6296 6390
6296 6457
6296 6458
6297 6391
6297 6457
6297 6458
6298 6299
6298 6392
6298 6459
6298 6460
6299 6393
6299 6459
6299 6460
6300 6301
6300 6393
6300 6461
6300 6462
6301 6394
6301 6461
6301 6462
6302 6303
6302 6394
6302 6463
6302 6464
6303 6395
6303 6463
6303 6464
6304 6305
6304 6396
6304 6465
6304 6466
6305 6397
6305 6465
6305 6466
6306 6307
6306 6397
6306 6467
6306 6468
6307 6398
6307 6467
6307 6468
6308 6309
6308 6398
6308 6469
6308 6470
6309 6399
6309 6469
6309 6470
6310 6311
6310 6400
6310 6471
6310 6472
6311 6401
6311 6471
6311 6472
6312 6313
6312 6401
6312 6473
6312 6474
6313 6402
6313 6473
6313 6474
6314 6315
6314 6402
6314 6475
6314 6476
6315 6403
6315 6475
6315 6476
6316 6317
6316 6404
6316 6477
6316 6478
6317 6405
6317 6477
6317 6478
6318 6319
6318 6405
6318 6479
6318 6480
6319 6406
6319 6479
6319 6480
6320 6321
6320 6406
6320 6481
6320 6482
6321 6407
6321 6481
6321 6482
6322 6323
6322 6408
6322 6483
6322 6484
6323 6409
6323 6483
6323 6484
6324 6325
6324 6409
6324 6485
6324 6486
6325 6410
6325 6485
6325 6486
6326 6327
6326 6410
6326 6487
6326 6488
6327 6411
6327 6487
6327 6488
6328 6329
6328 6412
6328 6489
6328 6490
6329 6413
6329 6489
6329 6490
6330 6331
6330 6413
6330 6491
6330 6492
6331 6414
6331 6491
6331 6492
6332 6333
6332 6414
6332 6493
6332 6494
6333 6415
6333 6493
6333 6494
6334 6335
6334 6416
6334 6495
6334 6496
6335 6417
6335 6495
6335 6496
6336 6337
6336 6417
6336 6497
6336 6498
6337 6418
6337 6497
6337 6498
6338 6339
6338 6418
6338 6499
6338 6500
6339 6419
6339 6499
6339 6500
6340 6341
6340 6420
6340 6501
6340 6502
6341 6421
6341 6501
6341 6502
6342 6343
6342 6421
6342 6503
6342 6504
6343 6422
6343 6503
6343 6504
6344 6345
6344 6422
6344 6505
6344 6506
6345 6423
6345 6505
6345 6506
6346 6347
6346 6424
6346 6507
6346 6508
6347 6425
6347 6507
6347 6508
6348 6349
6348 6425
6348 6509
6348 6510
6349 6426
6349 6509
6349 6510
6350 6351
6350 6426
6350 6511
6350 6512
6351 6427
6351 6511
6351 6512
6352 6353
6352 6428
6352 6513
6352 6514
6353 6429
6353 6513
6353 6514
6354 6355
6354 6429
6354 6515
6354 6516
6355 6430
6355 6515
6355 6516
6356 6357
6356 6430
6356 6517
6356 6518
6357 6431
6357 6517
6357 6518
6358 6359
6358 6432
6358 6519
6358 6520
6359 6433
6359 6519
6359 6520
6360 6361
6360 6433
6360 6521
6360 6522
6361 6434
6361 6521
6361 6522
6362 6363
6362 6434
6362 6523
6362 6524
6363 6435
6363 6523
6363 6524
6364 6365
6364 6436
6364 6525
6364 6526
6365 6437
6365 6525
6365 6526
6366 6367
6366 6437
6366 6527
6366 6528
6367 6438
6367 6527
6367 6528
6368 6369
6368 6438
6368 6529
6368 6530
6369 6439
6369 6529
6369 6530
6370 6371
6370 6440
6370 6531
6370 6532
6371 6441
6371 6531
6371 6532
6372 6373
6372 6441
6372 6533
6372 6534
6373 6442
6373 6533
6373 6534
6374 6375
6374 6442
6374 6535
6374 6536
6375 6443
6375 6535
6375 6536
6376 6377
6376 6444
6376 6537
6376 6538
6377 6445
6377 6537
6377 6538
6378 6379
6378 6445
6378 6539
6378 6540
6379 6446
6379 6539
6379 6540
6380 6381
6380 6446
6380 6541
6380 6542
6381 6447
6381 6541
6381 6542
6382 6383
6382 6448
6382 6543
6382 6544
6383 6449
6383 6543
6383 6544
6384 6385
6384 6449
6384 6545
6384 6546
6385 6450
6385 6545
6385 6546
6386 6451
6387 6388
6387 6452
6388 6453
6389 6454
6389 6455
6390 6456
6390 6457
6391 6392
6391 6458
6392 6459
6393 6460
6393 6461
6394 6462
6394 6463
6395 6396
6395 6464
6396 6465
6397 6466
6397 6467
6398 6468
6398 6469
6399 6400
6399 6470
6400 6471
6401 6472
6401 6473
6402 6474
6402 6475
6403 6404
6403 6476
6404 6477
6405 6478
6405 6479
6406 6480
6406 6481
6407 6408
6407 6482
6408 6483
6409 6484
6409 6485
6410 6486
6410 6487
6411 6412
6411 6488
6412 6489
6413 6490
6413 6491
6414 6492
6414 6493
6415 6416
6415 6494
6416 6495
6417 6496
6417 6497
6418 6498
6418 6499
6419 6420
6419 6500
6420 6501
6421 6502
6421 6503
6422 6504
6422 6505
6423 6424
6423 6506
6424 6507
6425 6508
6425 6509
6426 6510
6426 6511
6427 6428
6427 6512
6428 6513
6429 6514
6429 6515
6430 6516
6430 6517
6431 6432
6431 6518
6432 6519
6433 6520
6433 6521
6434 6522
6434 6523
6435 6436
6435 6524
6436 6525
6437 6526
6437 6527
6438 6528
6438 6529
6439 6440
6439 6530
6440 6531
6441 6532
6441 6533
6442 6534
6442 6535
6443 6444
6443 6536
6444 6537
6445 6538
6445 6539
6446 6540
6446 6541
6447 6448
6447 6542
6448 6543
6449 6544
6449 6545
6450 6546
6451 6452
6451 6547
6452 6547
6453 6454
6453 6548
6454 6548
6455 6456
6455 6549
6456 6549
6457 6458
6457 6550
6458 6550
6459 6460
6459 6551
6460 6551
6461 6462
6461 6552
6462 6552
6463 6464
6463 6553
6464 6553
6465 6466
6465 6554
6466 6554
6467 6468
6467 6555
6468 6555
6469 6470
6469 6556
6470 6556
6471 6472
6471 6557
6472 6557
6473 6474
6473 6558
6474 6558
6475 6476
6475 6559
6476 6559
6477 6478
6477 6560
6478 6560
6479 6480
6479 6561
6480 6561
6481 6482
6481 6562
6482 6562
6483 6484
6483 6563
6484 6563
6485 6486
6485 6564
6486 6564
6487 6488
6487 6565
6488 6565
6489 6490
6489 6566
6490 6566
6491 6492
6491 6567
6492 6567
6493 6494
6493 6568
6494 6568
6495 6496
6495 6569
6496 6569
6497 6498
6497 6570
6498 6570
6499 6500
6499 6571
6500 6571
6501 6502
6501 6572
6502 6572
6503 6504
6503 6573
6504 6573
6505 6506
6505 6574
6506 6574
6507 6508
6507 6575
6508 6575
6509 6510
6509 6576
6510 6576
6511 6512
6511 6577
6512 6577
6513 6514
6513 6578
6514 6578
6515 6516
6515 6579
6516 6579
6517 6518
6517 6580
6518 6580
6519 6520
6519 6581
6520 6581
6521 6522
6521 6582
6522 6582
6523 6524
6523 6583
6524 6583
6525 6526
6525 6584
6526 6584
6527 6528
6527 6585
6528 6585
6529 6530
6529 6586
6530 6586
6531 6532
6531 6587
6532 6587
6533 6534
6533 6588
6534 6588
6535 6536
6535 6589
6536 6589
6537 6538
6537 6590
6538 6590
6539 6540
6539 6591
6540 6591
6541 6542
6541 6592
6542 6592
6543 6544
6543 6593
6544 6593
6545 6546
6547 6594
6547 6595
6548 6659
6548 6660
6549 6661
6550 6598
6550 6599
6551 6662
6551 6663
6552 6664
6553 6602
6553 6603
6554 6665
6554 6666
6555 6667
6556 6606
6556 6607
6557 6668
6557 6669
6558 6670
6559 6610
6559 6611
6560 6671
6560 6672
6561 6673
6562 6614
6562 6615
6563 6674
6563 6675
6564 6676
6565 6618
6565 6619
6566 6677
6566 6678
6567 6679
6568 6622
6568 6623
6569 6680
6569 6681
6570 6682
6571 6626
6571 6627
6572 6683
6572 6684
6573 6685
6574 6630
6574 6631
6575 6686
6575 6687
6576 6688
6577 6634
6577 6635
6578 6689
6578 6690
6579 6691
6580 6638
6580 6639
6581 6692
6581 6693
6582 6694
6583 6642
6583 6643
6584 6695
6584 6696
6585 6697
6586 6646
6586 6647
6587 6698
6587 6699
6588 6700
6589 6650
6589 6651
6590 6701
6590 6702
6591 6703
6592 6654
6592 6655
6593 6704
6593 6705
6594 6595
6594 6658
6594 6706
6594 6707
6595 6596
6595 6706
6595 6707
6596 6659
6596 6707
6596 6708
6597 6660
6597 6709
6597 6710
6598 6599
6598 6661
6598 6711
6598 6712
6599 6600
6599 6711
6599 6712
6600 6662
6600 6712
6600 6713
6601 6663
6601 6714
6601 6715
6602 6603
6602 6664
6602 6716
6602 6717
6603 6604
6603 6716
6603 6717
6604 6665
6604 6717
6604 6718
6605 6666
6605 6719
6605 6720
6606 6607
6606 6667
6606 6721
6606 6722
6607 6608
6607 6721
6607 6722
6608 6668
6608 6722
6608 6723
6609 6669
6609 6724
6609 6725
6610 6611
6610 6670
6610 6726
6610 6727
6611 6612
6611 6726
6611 6727
6612 6671
6612 6727
6612 6728
6613 6672
6613 6729
6613 6730
6614 6615
6614 6673
6614 6731
6614 6732
6615 6616
6615 6731
6615 6732
6616 6674
6616 6732
6616 6733
6617 6675
6617 6734
6617 6735
6618 6619
6618 6676
6618 6736
6618 6737
6619 6620
6619 6736
6619 6737
6620 6677
6620 6737
6620 6738
6621 6678
6621 6739
6621 6740
6622 6623
6622 6679
6622 6741
6622 6742
6623 6624
6623 6741
6623 6742
6624 6680
6624 6742
6624 6743
6625 6681
6625 6744
6625 6745
6626 6627
6626 6682
6626 6746
6626 6747
6627 6628
6627 6746
6627 6747
6628 6683
6628 6747
6628 6748
6629 6684
6629 6749
6629 6750
6630 6631
6630 6685
6630 6751
6630 6752
6631 6632
6631 6751
6631 6752
6632 6686
6632 6752
6632 6753
6633 6687
6633 6754
6633 6755
6634 6635
6634 6688
6634 6756
6634 6757
6635 6636
6635 6756
6635 6757
6636 6689
6636 6757
6636 6758
6637 6690
6637 6759
6637 6760
6638 6639
6638 6691
6638 6761
6638 6762
6639 6640
6639 6761
6639 6762
6640 6692
6640 6762
6640 6763
6641 6693
6641 6764
6641 6765
6642 6643
6642 6694
6642 6766
6642 6767
6643 6644
6643 6766
6643 6767
6644 6695
6644 6767
6644 6768
6645 6696
6645 6769
6645 6770
6646 6647
6646 6697
6646 6771
6646 6772
6647 6648
6647 6771
6647 6772
6648 6698
6648 6772
6648 6773
6649 6699
6649 6774
6649 6775
6650 6651
6650 6700
6650 6776
6650 6777
6651 6652
6651 6776
6651 6777
6652 6701
6652 6777
6652 6778
6653 6702
6653 6779
6653 6780
6654 6655
6654 6703
6654 6781
6654 6782
6655 6656
6655 6781
6655 6782
6656 6704
6656 6782
6656 6783
6657 6705
6657 6784
6657 6785
6658 6706
6659 6660
6659 6708
6659 6786
6659 6787
6660 6709
6660 6786
6660 6787
6661 6711
6662 6663
6662 6713
6662 6788
6662 6789
6663 6714
6663 6788
6663 6789
6664 6716
6665 6666
6665 6718
6665 6790
6665 6791
6666 6719
6666 6790
6666 6791
6667 6721
6668 6669
6668 6723
6668 6792
6668 6793
6669 6724
6669 6792
6669 6793
6670 6726
6671 6672
6671 6728
6671 6794
6671 6795
6672 6729
6672 6794
6672 6795
6673 6731
6674 6675
6674 6733
6674 6796
6674 6797
6675 6734
6675 6796
6675 6797
6676 6736
6677 6678
6677 6738
6677 6798
6677 6799
6678 6739
6678 6798
6678 6799
6679 6741
6680 6681
6680 6743
6680 6800
6680 6801
6681 6744
6681 6800
6681 6801
6682 6746
6683 6684
6683 6748
6683 6802
6683 6803
6684 6749
6684 6802
6684 6803
6685 6751
6686 6687
6686 6753
6686 6804
6686 6805
6687 6754
6687 6804
6687 6805
6688 6756
6689 6690
6689 6758
6689 6806
6689 6807
6690 6759
6690 6806
6690 6807
6691 6761
6692 6693
6692 6763
6692 6808
6692 6809
6693 6764
6693 6808
6693 6809
6694 6766
6695 6696
6695 6768
6695 6810
6695 6811
6696 6769
6696 6810
6696 6811
6697 6771
6698 6699
6698 6773
6698 6812
6698 6813
6699 6774
6699 6812
6699 6813
6700 6776
6701 6702
6701 6778
6701 6814
6701 6815
6702 6779
6702 6814
6702 6815
6703 6781
6704 6705
6704 6783
6704 6816
6704 6817
6705 6784
6705 6816
6705 6817
6706 6707
6706 6818
6707 6818
6708 6786
6708 6819
6709 6787
6709 6820
6710 6821
6711 6712
6711 6822
6712 6822
6713 6788
6713 6823
6714 6789
6714 6824
6715 6825
6716 6717
6716 6826
6717 6826
6718 6790
6718 6827
6719 6791
6719 6828
6720 6829
6721 6722
6721 6830
6722 6830
6723 6792
6723 6831
6724 6793
6724 6832
6725 6833
6726 6727
6726 6834
6727 6834
6728 6794
6728 6835
6729 6795
6729 6836
6730 6837
6731 6732
6731 6838
6732 6838
6733 6796
6733 6839
6734 6797
6734 6840
6735 6841
6736 6737
6736 6842
6737 6842
6738 6798
6738 6843
6739 6799
6739 6844
6740 6845
6741 6742
6741 6846
6742 6846
6743 6800
6743 6847
6744 6801
6744 6848
6745 6849
6746 6747
6746 6850
6747 6850
6748 6802
6748 6851
6749 6803
6749 6852
6750 6853
6751 6752
6751 6854
6752 6854
6753 6804
6753 6855
6754 6805
6754 6856
6755 6857
6756 6757
6756 6858
6757 6858
6758 6806
6758 6859
6759 6807
6759 6860
6760 6861
6761 6762
6761 6862
6762 6862
6763 6808
6763 6863
6764 6809
6764 6864
6765 6865
6766 6767
6766 6866
6767 6866
6768 6810
6768 6867
6769 6811
6769 6868
6770 6869
6771 6772
6771 6870
6772 6870
6773 6812
6773 6871
6774 6813
6774 6872
6775 6873
6776 6777
6776 6874
6777 6874
6778 6814
6778 6875
6779 6815
6779 6876
6780 6877
6781 6782
6781 6878
6782 6878
6783 6816
6783 6879
6784 6817
6784 6880
6785 6881
6786 6787
6786 6819
6787 6820
6788 6789
6788 6823
6789 6824
6790 6791
6790 6827
6791 6828
6792 6793
6792 6831
6793 6832
6794 6795
6794 6835
6795 6836
6796 6797
6796 6839
6797 6840
6798 6799
6798 6843
6799 6844
6800 6801
6800 6847
6801 6848
6802 6803
6802 6851
6803 6852
6804 6805
6804 6855
6805 6856
6806 6807
6806 6859
6807 6860
6808 6809
6808 6863
6809 6864
6810 6811
6810 6867
6811 6868
6812 6813
6812 6871
6813 6872
6814 6815
6814 6875
6815 6876
6816 6817
6816 6879
6817 6880
6818 6882
6818 6883
6819 6883
6820 6884
6820 6885
6821 6886
6821 6887
6822 6888
6822 6889
6823 6889
6824 6890
6824 6891
6825 6892
6825 6893
6826 6894
6826 6895
6827 6895
6828 6896
6828 6897
6829 6898
6829 6899
6830 6900
6830 6901
6831 6901
6832 6902
6832 6903
6833 6904
6833 6905
6834 6906
6834 6907
6835 6907
6836 6908
6836 6909
6837 6910
6837 6911
6838 6912
6838 6913
6839 6913
6840 6914
6840 6915
6841 6916
6841 6917
6842 6918
6842 6919
6843 6919
6844 6920
6844 6921
6845 6922
6845 6923
6846 6924
6846 6925
6847 6925
6848 6926
6848 6927
6849 6928
6849 6929
6850 6930
6850 6931
6851 6931
6852 6932
6852 6933
6853 6934
6853 6935
6854 6936
6854 6937
6855 6937
6856 6938
6856 6939
6857 6940
6857 6941
6858 6942
6858 6943
6859 6943
6860 6944
6860 6945
6861 6946
6861 6947
6862 6948
6862 6949
6863 6949
6864 6950
6864 6951
6865 6952
6865 6953
6866 6954
6866 6955
6867 6955
6868 6956
6868 6957
6869 6958
6869 6959
6870 6960
6870 6961
6871 6961
6872 6962
6872 6963
6873 6964
6873 6965
6874 6966
6874 6967
6875 6967
6876 6968
6876 6969
6877 6970
6877 6971
6878 6972
6878 6973
6879 6973
6880 6974
6880 6975
6881 6976
6881 6977
6882 6883
6882 6978
6882 7043
6882 7044
6883 6979
6883 7043
6883 7044
6884 6885
6884 6980
6884 7045
6884 7046
6885 6981
6885 7045
6885 7046
6886 6887
6886 6981
6886 7047
6886 7048
6887 6982
6887 7047
6887 7048
6888 6889
6888 6982
6888 7049
6888 7050
6889 6983
6889 7049
6889 7050
6890 6891
6890 6984
6890 7051
6890 7052
6891 6985
6891 7051
6891 7052
6892 6893
6892 6985
6892 7053
6892 7054
6893 6986
6893 7053
6893 7054
6894 6895
6894 6986
6894 7055
6894 7056
6895 6987
6895 7055
6895 7056
6896 6897
6896 6988
6896 7057
6896 7058
6897 6989
6897 7057
6897 7058
6898 6899
6898 6989
6898 7059
6898 7060
6899 6990
6899 7059
6899 7060
6900 6901
6900 6990
6900 7061
6900 7062
6901 6991
6901 7061
6901 7062
6902 6903
6902 6992
6902 7063
6902 7064
6903 6993
6903 7063
6903 7064
6904 6905
6904 6993
6904 7065
6904 7066
6905 6994
6905 7065
6905 7066
6906 6907
6906 6994
6906 7067
6906 7068
6907 6995
6907 7067
6907 7068
6908 6909
6908 6996
6908 7069
6908 7070
6909 6997
6909 7069
6909 7070
6910 6911
6910 6997
6910 7071
6910 7072
6911 6998
6911 7071
6911 7072
6912 6913
6912 6998
6912 7073
6912 7074
6913 6999
6913 7073
6913 7074
6914 6915
6914 7000
6914 7075
6914 7076
6915 7001
6915 7075
6915 7076
6916 6917
6916 7001
6916 7077
6916 7078
6917 7002
6917 7077
6917 7078
6918 6919
6918 7002
6918 7079
6918 7080
6919 7003
6919 7079
6919 7080
6920 6921
6920 7004
6920 7081
6920 7082
6921 7005
6921 7081
6921 7082
6922 6923
6922 7005
6922 7083
6922 7084
6923 7006
6923 7083
6923 7084
6924 6925
6924 7006
6924 7085
6924 7086
6925 7007
6925 7085
6925 7086
6926 6927
6926 7008
6926 7087
6926 7088
6927 7009
6927 7087
6927 7088
6928 6929
6928 7009
6928 7089
6928 7090
6929 7010
6929 7089
6929 7090
6930 6931
6930 7010
6930 7091
6930 7092
6931 7011
6931 7091
6931 7092
6932 6933
6932 7012
6932 7093
6932 7094
6933 7013
6933 7093
6933 7094
6934 6935
6934 7013
6934 7095
6934 7096
6935 7014
6935 7095
6935 7096
6936 6937
6936 7014
6936 7097
6936 7098
6937 7015
6937 7097
6937 7098
6938 6939
6938 7016
6938 7099
6938 7100
6939 7017
6939 7099
6939 7100
6940 6941
6940 7017
6940 7101
6940 7102
6941 7018
6941 7101
6941 7102
6942 6943
6942 7018
6942 7103
6942 7104
6943 7019
6943 7103
6943 7104
6944 6945
6944 7020
6944 7105
6944 7106
6945 7021
6945 7105
6945 7106
6946 6947
6946 7021
6946 7107
6946 7108
6947 7022
6947 7107
6947 7108
6948 6949
6948 7022
6948 7109
6948 7110
6949 7023
6949 7109
6949 7110
6950 6951
6950 7024
6950 7111
6950 7112
6951 7025
6951 7111
6951 7112
6952 6953
6952 7025
6952 7113
6952 7114
6953 7026
6953 7113
6953 7114
6954 6955
6954 7026
6954 7115
6954 7116
6955 7027
6955 7115
6955 7116
6956 6957
6956 7028
6956 7117
6956 7118
6957 7029
6957 7117
6957 7118
6958 6959
6958 7029
6958 7119
6958 7120
6959 7030
6959 7119
6959 7120
6960 6961
6960 7030
6960 7121
6960 7122
6961 7031
6961 7121
6961 7122
6962 6963
6962 7032
6962 7123
6962 7124
6963 7033
6963 7123
6963 7124
6964 6965
6964 7033
6964 7125
6964 7126
6965 7034
6965 7125
6965 7126
6966 6967
6966 7034
6966 7127
6966 7128
6967 7035
6967 7127
6967 7128
6968 6969
6968 7036
6968 7129
6968 7130
6969 7037
6969 7129
6969 7130
6970 6971
6970 7037
6970 7131
6970 7132
6971 7038
6971 7131
6971 7132
6972 6973
6972 7038
6972 7133
6972 7134
6973 7039
6973 7133
6973 7134
6974 6975
6974 7040
6974 7135
6974 7136
6975 7041
6975 7135
6975 7136
6976 6977
6976 7041
6976 7137
6976 7138
6977 7042
6977 7137
6977 7138
6978 7043
6979 6980
6979 7044
6980 7045
6981 7046
6981 7047
6982 7048
6982 7049
6983 6984
6983 7050
6984 7051
6985 7052
6985 7053
6986 7054
6986 7055
6987 6988
6987 7056
6988 7057
6989 7058
6989 7059
6990 7060
6990 7061
6991 6992
6991 7062
6992 7063
6993 7064
6993 7065
6994 7066
6994 7067
6995 6996
6995 7068
6996 7069
6997 7070
6997 7071
6998 7072
6998 7073
6999 7000
6999 7074
7000 7075
7001 7076
7001 7077
7002 7078
7002 7079
7003 7004
7003 7080
7004 7081
7005 7082
7005 7083
7006 7084
7006 7085
7007 7008
7007 7086
7008 7087
7009 7088
7009 7089
7010 7090
7010 7091
7011 7012
7011 7092
7012 7093
7013 7094
7013 7095
7014 7096
7014 7097
7015 7016
7015 7098
7016 7099
7017 7100
7017 7101
7018 7102
7018 7103
7019 7020
7019 7104
7020 7105
7021 7106
7021 7107
7022 7108
7022 7109
7023 7024
7023 7110
7024 7111
7025 7112
7025 7113
7026 7114
7026 7115
7027 7028
7027 7116
7028 7117
7029 7118
7029 7119
7030 7120
7030 7121
7031 7032
7031 7122
7032 7123
7033 7124
7033 7125
7034 7126
7034 7127
7035 7036
7035 7128
7036 7129
7037 7130
7037 7131
7038 7132
7038 7133
7039 7040
7039 7134
7040 7135
7041 7136
7041 7137
7042 7138
7043 7044
7043 7139
7044 7139
7045 7046
7045 7140
7046 7140
7047 7048
7047 7141
7048 7141
7049 7050
7049 7142
7050 7142
7051 7052
7051 7143
7052 7143
7053 7054
7053 7144
7054 7144
7055 7056
7055 7145
7056 7145
7057 7058
7057 7146
7058 7146
7059 7060
7059 7147
7060 7147
7061 7062
7061 7148
7062 7148
7063 7064
7063 7149
7064 7149
7065 7066
7065 7150
7066 7150
7067 7068
7067 7151
7068 7151
7069 7070
7069 7152
7070 7152
7071 7072
7071 7153
7072 7153
7073 7074
7073 7154
7074 7154
7075 7076
7075 7155
7076 7155
7077 7078
7077 7156
7078 7156
7079 7080
7079 7157
7080 7157
7081 7082
7081 7158
7082 7158
7083 7084
7083 7159
7084 7159
7085 7086
7085 7160
7086 7160
7087 7088
7087 7161
7088 7161
7089 7090
7089 7162
7090 7162
7091 7092
7091 7163
7092 7163
7093 7094
7093 7164
7094 7164
7095 7096
7095 7165
7096 7165
7097 7098
7097 7166
7098 7166
7099 7100
7099 7167
7100 7167
7101 7102
7101 7168
7102 7168
7103 7104
7103 7169
7104 7169
7105 7106
7105 7170
7106 7170
7107 7108
7107 7171
7108 7171
7109 7110
7109 7172
7110 7172
7111 7112
7111 7173
7112 7173
7113 7114
7113 7174
7114 7174
7115 7116
7115 7175
7116 7175
7117 7118
7117 7176
7118 7176
7119 7120
7119 7177
7120 7177
7121 7122
7121 7178
7122 7178
7123 7124
7123 7179
7124 7179
7125 7126
7125 7180
7126 7180
7127 7128
7127 7181
7128 7181
7129 7130
7129 7182
7130 7182
7131 7132
7131 7183
7132 7183
7133 7134
7133 7184
7134 7184
7135 7136
7135 7185
7136 7185
7137 7138
7139 7186
7139 7187
7140 7251
7140 7252
7141 7253
7142 7190
7142 7191
7143 7254
7143 7255
7144 7256
7145 7194
7145 7195
7146 7257
7146 7258
7147 7259
7148 7198
7148 7199
7149 7260
7149 7261
7150 7262
7151 7202
7151 7203
7152 7263
7152 7264
7153 7265
7154 7206
7154 7207
7155 7266
7155 7267
7156 7268
7157 7210
7157 7211
7158 7269
7158 7270
7159 7271
7160 7214
7160 7215
7161 7272
7161 7273
7162 7274
7163 7218
7163 7219
7164 7275
7164 7276
7165 7277
7166 7222
7166 7223
7167 7278
7167 7279
7168 7280
7169 7226
7169 7227
7170 7281
7170 7282
7171 7283
7172 7230
7172 7231
7173 7284
7173 7285
7174 7286
7175 7234
7175 7235
7176 7287
7176 7288
7177 7289
7178 7238
7178 7239
7179 7290
7179 7291
7180 7292
7181 7242
7181 7243
7182 7293
7182 7294
7183 7295
7184 7246
7184 7247
7185 7296
7185 7297
7186 7187
7186 7250
7186 7298
7186 7299
7187 7188
7187 7298
7187 7299
7188 7251
7188 7299
7188 7300
7189 7252
7189 7301
7189 7302
7190 7191
7190 7253
7190 7303
7190 7304
7191 7192
7191 7303
7191 7304
7192 7254
7192 7304
7192 7305
7193 7255
7193 7306
7193 7307
7194 7195
7194 7256
7194 7308
7194 7309
7195 7196
7195 7308
7195 7309
7196 7257
7196 7309
7196 7310
7197 7258
7197 7311
7197 7312
7198 7199
7198 7259
7198 7313
7198 7314
7199 7200
7199 7313
7199 7314
7200 7260
7200 7314
7200 7315
7201 7261
7201 7316
7201 7317
7202 7203
7202 7262
7202 7318
7202 7319
7203 7204
7203 7318
7203 7319
7204 7263
7204 7319
7204 7320
7205 7264
7205 7321
7205 7322
7206 7207
7206 7265
7206 7323
7206 7324
7207 7208
7207 7323
7207 7324
7208 7266
7208 7324
7208 7325
7209 7267
7209 7326
7209 7327
7210 7211
7210 7268
7210 7328
7210 7329
7211 7212
7211 7328
7211 7329
7212 7269
7212 7329
7212 7330
7213 7270
7213 7331
7213 7332
7214 7215
7214 7271
7214 7333
7214 7334
7215 7216
7215 7333
7215 7334
7216 7272
7216 7334
7216 7335
7217 7273
7217 7336
7217 7337
7218 7219
7218 7274
7218 7338
7218 7339
7219 7220
7219 7338
7219 7339
7220 7275
7220 7339
7220 7340
7221 7276
7221 7341
7221 7342
7222 7223
7222 7277
7222 7343
7222 7344
7223 7224
7223 7343
7223 7344
7224 7278
7224 7344
7224 7345
7225 7279
7225 7346
7225 7347
7226 7227
7226 7280
7226 7348
7226 7349
7227 7228
7227 7348
7227 7349
7228 7281
7228 7349
7228 7350
7229 7282
7229 7351
7229 7352
7230 7231
7230 7283
7230 7353
7230 7354
7231 7232
7231 7353
7231 7354
7232 7284
7232 7354
7232 7355
7233 7285
7233 7356
7233 7357
7234 7235
7234 7286
7234 7358
7234 7359
7235 7236
7235 7358
7235 7359
7236 7287
7236 7359
7236 7360
7237 7288
7237 7361
7237 7362
7238 7239
7238 7289
7238 7363
7238 7364
7239 7240
7239 7363
7239 7364
7240 7290
7240 7364
7240 7365
7241 7291
7241 7366
7241 7367
7242 7243
7242 7292
7242 7368
7242 7369
7243 7244
7243 7368
7243 7369
7244 7293
7244 7369
7244 7370
7245 7294
7245 7371
7245 7372
7246 7247
7246 7295
7246 7373
7246 7374
7247 7248
7247 7373
7247 7374
7248 7296
7248 7374
7248 7375
7249 7297
7249 7376
7249 7377
7250 7298
7251 7252
7251 7300
7251 7378
7251 7379
7252 7301
7252 7378
7252 7379
7253 7303
7254 7255
7254 7305
7254 7380
7254 7381
7255 7306
7255 7380
7255 7381
7256 7308
7257 7258
7257 7310
7257 7382
7257 7383
7258 7311
7258 7382
7258 7383
7259 7313
7260 7261
7260 7315
7260 7384
7260 7385
7261 7316
7261 7384
7261 7385
7262 7318
7263 7264
7263 7320
7263 7386
7263 7387
7264 7321
7264 7386
7264 7387
7265 7323
7266 7267
7266 7325
7266 7388
7266 7389
7267 7326
7267 7388
7267 7389
7268 7328
7269 7270
7269 7330
7269 7390
7269 7391
7270 7331
7270 7390
7270 7391
7271 7333
7272 7273
7272 7335
7272 7392
7272 7393
7273 7336
7273 7392
7273 7393
7274 7338
7275 7276
7275 7340
7275 7394
7275 7395
7276 7341
7276 7394
7276 7395
7277 7343
7278 7279
7278 7345
7278 7396
7278 7397
7279 7346
7279 7396
7279 7397
7280 7348
7281 7282
7281 7350
7281 7398
7281 7399
7282 7351
7282 7398
7282 7399
7283 7353
7284 7285
7284 7355
7284 7400
7284 7401
7285 7356
7285 7400
7285 7401
7286 7358
7287 7288
7287 7360
7287 7402
7287 7403
7288 7361
7288 7402
7288 7403
7289 7363
7290 7291
7290 7365
7290 7404
7290 7405
7291 7366
7291 7404
7291 7405
7292 7368
7293 7294
7293 7370
7293 7406
7293 7407
7294 7371
7294 7406
7294 7407
7295 7373
7296 7297
7296 7375
7296 7408
7296 7409
7297 7376
7297 7408
7297 7409
7298 7299
7298 7410
7299 7410
7300 7378
7300 7411
7301 7379
7301 7412
7302 7413
7303 7304
7303 7414
7304 7414
7305 7380
7305 7415
7306 7381
7306 7416
7307 7417
7308 7309
7308 7418
7309 7418
7310 7382
7310 7419
7311 7383
7311 7420
7312 7421
7313 7314
7313 7422
7314 7422
7315 7384
7315 7423
7316 7385
7316 7424
7317 7425
7318 7319
7318 7426
7319 7426
7320 7386
7320 7427
7321 7387
7321 7428
7322 7429
7323 7324
7323 7430
7324 7430
7325 7388
7325 7431
7326 7389
7326 7432
7327 7433
7328 7329
7328 7434
7329 7434
7330 7390
7330 7435
7331 7391
7331 7436
7332 7437
7333 7334
7333 7438
7334 7438
7335 7392
7335 7439
7336 7393
7336 7440
7337 7441
7338 7339
7338 7442
7339 7442
7340 7394
7340 7443
7341 7395
7341 7444
7342 7445
7343 7344
7343 7446
7344 7446
7345 7396
7345 7447
7346 7397
7346 7448
7347 7449
7348 7349
7348 7450
7349 7450
7350 7398
7350 7451
7351 7399
7351 7452
7352 7453
7353 7354
7353 7454
7354 7454
7355 7400
7355 7455
7356 7401
7356 7456
7357 7457
7358 7359
7358 7458
7359 7458
7360 7402
7360 7459
7361 7403
7361 7460
7362 7461
7363 7364
7363 7462
7364 7462
7365 7404
7365 7463
7366 7405
7366 7464
7367 7465
7368 7369
7368 7466
7369 7466
7370 7406
7370 7467
7371 7407
7371 7468
7372 7469
7373 7374
7373 7470
7374 7470
7375 7408
7375 7471
7376 7409
7376 7472
7377 7473
7378 7379
7378 7411
7379 7412
7380 7381
7380 7415
7381 7416
7382 7383
7382 7419
7383 7420
7384 7385
7384 7423
7385 7424
7386 7387
7386 7427
7387 7428
7388 7389
7388 7431
7389 7432
7390 7391
7390 7435
7391 7436
7392 7393
7392 7439
7393 7440
7394 7395
7394 7443
7395 7444
7396 7397
7396 7447
7397 7448
7398 7399
7398 7451
7399 7452
7400 7401
7400 7455
7401 7456
7402 7403
7402 7459
7403 7460
7404 7405
7404 7463
7405 7464
7406 7407
7406 7467
7407 7468
7408 7409
7408 7471
7409 7472
7410 7474
7410 7475
7411 7475
7412 7476
7412 7477
7413 7478
7413 7479
7414 7480
7414 7481
7415 7481
7416 7482
7416 7483
7417 7484
7417 7485
7418 7486
7418 7487
7419 7487
7420 7488
7420 7489
7421 7490
7421 7491
7422 7492
7422 7493
7423 7493
7424 7494
7424 7495
7425 7496
7425 7497
7426 7498
7426 7499
7427 7499
7428 7500
7428 7501
7429 7502
7429 7503
7430 7504
7430 7505
7431 7505
7432 7506
7432 7507
7433 7508
7433 7509
7434 7510
7434 7511
7435 7511
7436 7512
7436 7513
7437 7514
7437 7515
7438 7516
7438 7517
7439 7517
7440 7518
7440 7519
7441 7520
7441 7521
7442 7522
7442 7523
7443 7523
7444 7524
7444 7525
7445 7526
7445 7527
7446 7528
7446 7529
7447 7529
7448 7530
7448 7531
7449 7532
7449 7533
7450 7534
7450 7535
7451 7535
7452 7536
7452 7537
7453 7538
7453 7539
7454 7540
7454 7541
7455 7541
7456 7542
7456 7543
7457 7544
7457 7545
7458 7546
7458 7547
7459 7547
7460 7548
7460 7549
7461 7550
7461 7551
7462 7552
7462 7553
7463 7553
7464 7554
7464 7555
7465 7556
7465 7557
7466 7558
7466 7559
7467 7559
7468 7560
7468 7561
7469 7562
7469 7563
7470 7564
7470 7565
7471 7565
7472 7566
7472 7567
7473 7568
7473 7569
7474 7475
7474 7570
7474 7635
7474 7636
7475 7571
7475 7635
7475 7636
7476 7477
7476 7572
7476 7637
7476 7638
7477 7573
7477 7637
7477 7638
7478 7479
7478 7573
7478 7639
7478 7640
7479 7574
7479 7639
7479 7640
7480 7481
7480 7574
7480 7641
7480 7642
7481 7575
7481 7641
7481 7642
7482 7483
7482 7576
7482 7643
7482 7644
7483 7577
7483 7643
7483 7644
7484 7485
7484 7577
7484 7645
7484 7646
7485 7578
7485 7645
7485 7646
7486 7487
7486 7578
7486 7647
7486 7648
7487 7579
7487 7647
7487 7648
7488 7489
7488 7580
7488 7649
7488 7650
7489 7581
7489 7649
7489 7650
7490 7491
7490 7581
7490 7651
7490 7652
7491 7582
7491 7651
7491 7652
7492 7493
7492 7582
7492 7653
7492 7654
7493 7583
7493 7653
7493 7654
7494 7495
7494 7584
7494 7655
7494 7656
7495 7585
7495 7655
7495 7656
7496 7497
7496 7585
7496 7657
7496 7658
7497 7586
7497 7657
7497 7658
7498 7499
7498 7586
7498 7659
7498 7660
7499 7587
7499 7659
7499 7660
7500 7501
7500 7588
7500 7661
7500 7662
7501 7589
7501 7661
7501 7662
7502 7503
7502 7589
7502 7663
7502 7664
7503 7590
7503 7663
7503 7664
7504 7505
7504 7590
7504 7665
7504 7666
7505 7591
7505 7665
7505 7666
7506 7507
7506 7592
7506 7667
7506 7668
7507 7593
7507 7667
7507 7668
7508 7509
7508 7593
7508 7669
7508 7670
7509 7594
7509 7669
7509 7670
7510 7511
7510 7594
7510 7671
7510 7672
7511 7595
7511 7671
7511 7672
7512 7513
7512 7596
7512 7673
7512 7674
7513 7597
7513 7673
7513 7674
7514 7515
7514 7597
7514 7675
7514 7676
7515 7598
7515 7675
7515 7676
7516 7517
7516 7598
7516 7677
7516 7678
7517 7599
7517 7677
7517 7678
7518 7519
7518 7600
7518 7679
7518 7680
7519 7601
7519 7679
7519 7680
7520 7521
7520 7601
7520 7681
7520 7682
7521 7602
7521 7681
7521 7682
7522 7523
7522 7602
7522 7683
7522 7684
7523 7603
7523 7683
7523 7684
7524 7525
7524 7604
7524 7685
7524 7686
7525 7605
7525 7685
7525 7686
7526 7527
7526 7605
7526 7687
7526 7688
7527 7606
7527 7687
7527 7688
7528 7529
7528 7606
7528 7689
7528 7690
7529 7607
7529 7689
7529 7690
7530 7531
7530 7608
7530 7691
7530 7692
7531 7609
7531 7691
7531 7692
7532 7533
7532 7609
7532 7693
7532 7694
7533 7610
7533 7693
7533 7694
7534 7535
7534 7610
7534 7695
7534 7696
7535 7611
7535 7695
7535 7696
7536 7537
7536 7612
7536 7697
7536 7698
7537 7613
7537 7697
7537 7698
7538 7539
7538 7613
7538 7699
7538 7700
7539 7614
7539 7699
7539 7700
7540 7541
7540 7614
7540 7701
7540 7702
7541 7615
7541 7701
7541 7702
7542 7543
7542 7616
7542 7703
7542 7704
7543 7617
7543 7703
7543 7704
7544 7545
7544 7617
7544 7705
7544 7706
7545 7618
7545 7705
7545 7706
7546 7547
7546 7618
7546 7707
7546 7708
7547 7619
7547 7707
7547 7708
7548 7549
7548 7620
7548 7709
7548 7710
7549 7621
7549 7709
7549 7710
7550 7551
7550 7621
7550 7711
7550 7712
7551 7622
7551 7711
7551 7712
7552 7553
7552 7622
7552 7713
7552 7714
7553 7623
7553 7713
7553 7714
7554 7555
7554 7624
7554 7715
7554 7716
7555 7625
7555 7715
7555 7716
7556 7557
7556 7625
7556 7717
7556 7718
7557 7626
7557 7717
7557 7718
7558 7559
7558 7626
7558 7719
7558 7720
7559 7627
7559 7719
7559 7720
7560 7561
7560 7628
7560 7721
7560 7722
7561 7629
7561 7721
7561 7722
7562 7563
7562 7629
7562 7723
7562 7724
7563 7630
7563 7723
7563 7724
7564 7565
7564 7630
7564 7725
7564 7726
7565 7631
7565 7725
7565 7726
7566 7567
7566 7632
7566 7727
7566 7728
7567 7633
7567 7727
7567 7728
7568 7569
7568 7633
7568 7729
7568 7730
7569 7634
7569 7729
7569 7730
7570 7635
7571 7572
7571 7636
7572 7637
7573 7638
7573 7639
7574 7640
7574 7641
7575 7576
7575 7642
7576 7643
7577 7644
7577 7645
7578 7646
7578 7647
7579 7580
7579 7648
7580 7649
7581 7650
7581 7651
7582 7652
7582 7653
7583 7584
7583 7654
7584 7655
7585 7656
7585 7657
7586 7658
7586 7659
7587 7588
7587 7660
7588 7661
7589 7662
7589 7663
7590 7664
7590 7665
7591 7592
7591 7666
7592 7667
7593 7668
7593 7669
7594 7670
7594 7671
7595 7596
7595 7672
7596 7673
7597 7674
7597 7675
7598 7676
7598 7677
7599 7600
7599 7678
7600 7679
7601 7680
7601 7681
7602 7682
7602 7683
7603 7604
7603 7684
7604 7685
7605 7686
7605 7687
7606 7688
7606 7689
7607 7608
7607 7690
7608 7691
7609 7692
7609 7693
7610 7694
7610 7695
7611 7612
7611 7696
7612 7697
7613 7698
7613 7699
7614 7700
7614 7701
7615 7616
7615 7702
7616 7703
7617 7704
7617 7705
7618 7706
7618 7707
7619 7620
7619 7708
7620 7709
7621 7710
7621 7711
7622 7712
7622 7713
7623 7624
7623 7714
7624 7715
7625 7716
7625 7717
7626 7718
7626 7719
7627 7628
7627 7720
7628 7721
7629 7722
7629 7723
7630 7724
7630 7725
7631 7632
7631 7726
7632 7727
7633 7728
7633 7729
7634 7730
7635 7636
7635 7731
7636 7731
7637 7638
7637 7732
7638 7732
7639 7640
7639 7733
7640 7733
7641 7642
7641 7734
7642 7734
7643 7644
7643 7735
7644 7735
7645 7646
7645 7736
7646 7736
7647 7648
7647 7737
7648 7737
7649 7650
7649 7738
7650 7738
7651 7652
7651 7739
7652 7739
7653 7654
7653 7740
7654 7740
7655 7656
7655 7741
7656 7741
7657 7658
7657 7742
7658 7742
7659 7660
7659 7743
7660 7743
7661 7662
7661 7744
7662 7744
7663 7664
7663 7745
7664 7745
7665 7666
7665 7746
7666 7746
7667 7668
7667 7747
7668 7747
7669 7670
7669 7748
7670 7748
7671 7672
7671 7749
7672 7749
7673 7674
7673 7750
7674 7750
7675 7676
7675 7751
7676 7751
7677 7678
7677 7752
7678 7752
7679 7680
7679 7753
7680 7753
7681 7682
7681 7754
7682 7754
7683 7684
7683 7755
7684 7755
7685 7686
7685 7756
7686 7756
7687 7688
7687 7757
7688 7757
7689 7690
7689 7758
7690 7758
7691 7692
7691 7759
7692 7759
7693 7694
7693 7760
7694 7760
7695 7696
7695 7761
7696 7761
7697 7698
7697 7762
7698 7762
7699 7700
7699 7763
7700 7763
7701 7702
7701 7764
7702 7764
7703 7704
7703 7765
7704 7765
7705 7706
7705 7766
7706 7766
7707 7708
7707 7767
7708 7767
7709 7710
7709 7768
7710 7768
7711 7712
7711 7769
7712 7769
7713 7714
7713 7770
7714 7770
7715 7716
7715 7771
7716 7771
7717 7718
7717 7772
7718 7772
7719 7720
7719 7773
7720 7773
7721 7722
7721 7774
7722 7774
7723 7724
7723 7775
7724 7775
7725 7726
7725 7776
7726 7776
7727 7728
7727 7777
7728 7777
7729 7730
7731 7778
7731 7779
7732 7843
7732 7844
7733 7845
7734 7782
7734 7783
7735 7846
7735 7847
7736 7848
7737 7786
7737 7787
7738 7849
7738 7850
7739 7851
7740 7790
7740 7791
7741 7852
7741 7853
7742 7854
7743 7794
7743 7795
7744 7855
7744 7856
7745 7857
7746 7798
7746 7799
7747 7858
7747 7859
7748 7860
7749 7802
7749 7803
7750 7861
7750 7862
7751 7863
7752 7806
7752 7807
7753 7864
7753 7865
7754 7866
7755 7810
7755 7811
7756 7867
7756 7868
7757 7869
7758 7814
7758 7815
7759 7870
7759 7871
7760 7872
7761 7818
7761 7819
7762 7873
7762 7874
7763 7875
7764 7822
7764 7823
7765 7876
7765 7877
7766 7878
7767 7826
7767 7827
7768 7879
7768 7880
7769 7881
7770 7830
7770 7831
7771 7882
7771 7883
7772 7884
7773 7834
7773 7835
7774 7885
7774 7886
7775 7887
7776 7838
7776 7839
7777 7888
7777 7889
7778 7779
7778 7842
7778 7890
7778 7891
7779 7780
7779 7890
7779 7891
7780 7843
7780 7891
7780 7892
7781 7844
7781 7893
7781 7894
7782 7783
7782 7845
7782 7895
7782 7896
7783 7784
7783 7895
7783 7896
7784 7846
7784 7896
7784 7897
7785 7847
7785 7898
7785 7899
7786 7787
7786 7848
7786 7900
7786 7901
7787 7788
7787 7900
7787 7901
7788 7849
7788 7901
7788 7902
7789 7850
7789 7903
7789 7904
7790 7791
7790 7851
7790 7905
7790 7906
7791 7792
7791 7905
7791 7906
7792 7852
7792 7906
7792 7907
7793 7853
7793 7908
7793 7909
7794 7795
7794 7854
7794 7910
7794 7911
7795 7796
7795 7910
7795 7911
7796 7855
7796 7911
7796 7912
7797 7856
7797 7913
7797 7914
7798 7799
7798 7857
7798 7915
7798 7916
7799 7800
7799 7915
7799 7916
7800 7858
7800 7916
7800 7917
7801 7859
7801 7918
7801 7919
7802 7803
7802 7860
7802 7920
7802 7921
7803 7804
7803 7920
7803 7921
7804 7861
7804 7921
7804 7922
7805 7862
7805 7923
7805 7924
7806 7807
7806 7863
7806 7925
7806 7926
7807 7808
7807 7925
7807 7926
7808 7864
7808 7926
7808 7927
7809 7865
7809 7928
7809 7929
7810 7811
7810 7866
7810 7930
7810 7931
7811 7812
7811 7930
7811 7931
7812 7867
7812 7931
7812 7932
7813 7868
7813 7933
7813 7934
7814 7815
7814 7869
7814 7935
7814 7936
7815 7816
7815 7935
7815 7936
7816 7870
7816 7936
7816 7937
7817 7871
7817 7938
7817 7939
7818 7819
7818 7872
7818 7940
7818 7941
7819 7820
7819 7940
7819 7941
7820 7873
7820 7941
7820 7942
7821 7874
7821 7943
7821 7944
7822 7823
7822 7875
7822 7945
7822 7946
7823 7824
7823 7945
7823 7946
7824 7876
7824 7946
7824 7947
7825 7877
7825 7948
7825 7949
7826 7827
7826 7878
7826 7950
7826 7951
7827 7828
7827 7950
7827 7951
7828 7879
7828 7951
7828 7952
7829 7880
7829 7953
7829 7954
7830 7831
7830 7881
7830 7955
7830 7956
7831 7832
7831 7955
7831 7956
7832 7882
7832 7956
7832 7957
7833 7883
7833 7958
7833 7959
7834 7835
7834 7884
7834 7960
7834 7961
7835 7836
7835 7960
7835 7961
7836 7885
7836 7961
7836 7962
7837 7886
7837 7963
7837 7964
7838 7839
7838 7887
7838 7965
7838 7966
7839 7840
7839 7965
7839 7966
7840 7888
7840 7966
7840 7967
7841 7889
7841 7968
7841 7969
7842 7890
7843 7844
7843 7892
7843 7970
7843 7971
7844 7893
7844 7970
7844 7971
7845 7895
7846 7847
7846 7897
7846 7972
7846 7973
7847 7898
7847 7972
7847 7973
7848 7900
7849 7850
7849 7902
7849 7974
7849 7975
7850 7903
7850 7974
7850 7975
7851 7905
7852 7853
7852 7907
7852 7976
7852 7977
7853 7908
7853 7976
7853 7977
7854 7910
7855 7856
7855 7912
7855 7978
7855 7979
7856 7913
7856 7978
7856 7979
7857 7915
7858 7859
7858 7917
7858 7980
7858 7981
7859 7918
7859 7980
7859 7981
7860 7920
7861 7862
7861 7922
7861 7982
7861 7983
7862 7923
7862 7982
7862 7983
7863 7925
7864 7865
7864 7927
7864 7984
7864 7985
7865 7928
7865 7984
7865 7985
7866 7930
7867 7868
7867 7932
7867 7986
7867 7987
7868 7933
7868 7986
7868 7987
7869 7935
7870 7871
7870 7937
7870 7988
7870 7989
7871 7938
7871 7988
7871 7989
7872 7940
7873 7874
7873 7942
7873 7990
7873 7991
7874 7943
7874 7990
7874 7991
7875 7945
7876 7877
7876 7947
7876 7992
7876 7993
7877 7948
7877 7992
7877 7993
7878 7950
7879 7880
7879 7952
7879 7994
7879 7995
7880 7953
7880 7994
7880 7995
7881 7955
7882 7883
7882 7957
7882 7996
7882 7997
7883 7958
7883 7996
7883 7997
7884 7960
7885 7886
7885 7962
7885 7998
7885 7999
7886 7963
7886 7998
7886 7999
7887 7965
7888 7889
7888 7967
7888 8000
7888 8001
7889 7968
7889 8000
7889 8001
7890 7891
7890 8002
7891 8002
7892 7970
7892 8003
7893 7971
7893 8004
7894 8005
7895 7896
7895 8006
7896 8006
7897 7972
7897 8007
7898 7973
7898 8008
7899 8009
7900 7901
7900 8010
7901 8010
7902 7974
7902 8011
7903 7975
7903 8012
7904 8013
7905 7906
7905 8014
7906 8014
7907 7976
7907 8015
7908 7977
7908 8016
7909 8017
7910 7911
7910 8018
7911 8018
7912 7978
7912 8019
7913 7979
7913 8020
7914 8021
7915 7916
7915 8022
7916 8022
7917 7980
7917 8023
7918 7981
7918 8024
7919 8025
7920 7921
7920 8026
7921 8026
7922 7982
7922 8027
7923 7983
7923 8028
7924 8029
7925 7926
7925 8030
7926 8030
7927 7984
7927 8031
7928 7985
7928 8032
7929 8033
7930 7931
7930 8034
7931 8034
7932 7986
7932 8035
7933 7987
7933 8036
7934 8037
7935 7936
7935 8038
7936 8038
7937 7988
7937 8039
7938 7989
7938 8040
7939 8041
7940 7941
7940 8042
7941 8042
7942 7990
7942 8043
7943 7991
7943 8044
7944 8045
7945 7946
7945 8046
7946 8046
7947 7992
7947 8047
7948 7993
7948 8048
7949 8049
7950 7951
7950 8050
7951 8050
7952 7994
7952 8051
7953 7995
7953 8052
7954 8053
7955 7956
7955 8054
7956 8054
7957 7996
7957 8055
7958 7997
7958 8056
7959 8057
7960 7961
7960 8058
7961 8058
7962 7998
7962 8059
7963 7999
7963 8060
7964 8061
7965 7966
7965 8062
7966 8062
7967 8000
7967 8063
7968 8001
7968 8064
7969 8065
7970 7971
7970 8003
7971 8004
7972 7973
7972 8007
7973 8008
7974 7975
7974 8011
7975 8012
7976 7977
7976 8015
7977 8016
7978 7979
7978 8019
7979 8020
7980 7981
7980 8023
7981 8024
7982 7983
7982 8027
7983 8028
7984 7985
7984 8031
7985 8032
7986 7987
7986 8035
7987 8036
7988 7989
7988 8039
7989 8040
7990 7991
7990 8043
7991 8044
7992 7993
7992 8047
7993 8048
7994 7995
7994 8051
7995 8052
7996 7997
7996 8055
7997 8056
7998 7999
7998 8059
7999 8060
8000 8001
8000 8063
8001 8064
8002 8066
8002 8067
8003 8067
8004 8068
8004 8069
8005 8070
8005 8071
8006 8072
8006 8073
8007 8073
8008 8074
8008 8075
8009 8076
8009 8077
8010 8078
8010 8079
8011 8079
8012 8080
8012 8081
8013 8082
8013 8083
8014 8084
8014 8085
8015 8085
8016 8086
8016 8087
8017 8088
8017 8089
8018 8090
8018 8091
8019 8091
8020 8092
8020 8093
8021 8094
8021 8095
8022 8096
8022 8097
8023 8097
8024 8098
8024 8099
8025 8100
8025 8101
8026 8102
8026 8103
8027 8103
8028 8104
8028 8105
8029 8106
8029 8107
8030 8108
8030 8109
8031 8109
8032 8110
8032 8111
8033 8112
8033 8113
8034 8114
8034 8115
8035 8115
8036 8116
8036 8117
8037 8118
8037 8119
8038 8120
8038 8121
8039 8121
8040 8122
8040 8123
8041 8124
8041 8125
8042 8126
8042 8127
8043 8127
8044 8128
8044 8129
8045 8130
8045 8131
8046 8132
8046 8133
8047 8133
8048 8134
8048 8135
8049 8136
8049 8137
8050 8138
8050 8139
8051 8139
8052 8140
8052 8141
8053 8142
8053 8143
8054 8144
8054 8145
8055 8145
8056 8146
8056 8147
8057 8148
8057 8149
8058 8150
8058 8151
8059 8151
8060 8152
8060 8153
8061 8154
8061 8155
8062 8156
8062 8157
8063 8157
8064 8158
8064 8159
8065 8160
8065 8161
8066 8067
8066 8162
8066 8227
8066 8228
8067 8163
8067 8227
8067 8228
8068 8069
8068 8164
8068 8229
8068 8230
8069 8165
8069 8229
8069 8230
8070 8071
8070 8165
8070 8231
8070 8232
8071 8166
8071 8231
8071 8232
8072 8073
8072 8166
8072 8233
8072 8234
8073 8167
8073 8233
8073 8234
8074 8075
8074 8168
8074 8235
8074 8236
8075 8169
8075 8235
8075 8236
8076 8077
8076 8169
8076 8237
8076 8238
8077 8170
8077 8237
8077 8238
8078 8079
8078 8170
8078 8239
8078 8240
8079 8171
8079 8239
8079 8240
8080 8081
8080 8172
8080 8241
8080 8242
8081 8173
8081 8241
8081 8242
8082 8083
8082 8173
8082 8243
8082 8244
8083 8174
8083 8243
8083 8244
8084 8085
8084 8174
8084 8245
8084 8246
8085 8175
8085 8245
8085 8246
8086 8087
8086 8176
8086 8247
8086 8248
8087 8177
8087 8247
8087 8248
8088 8089
8088 8177
8088 8249
8088 8250
8089 8178
8089 8249
8089 8250
8090 8091
8090 8178
8090 8251
8090 8252
8091 8179
8091 8251
8091 8252
8092 8093
8092 8180
8092 8253
8092 8254
8093 8181
8093 8253
8093 8254
8094 8095
8094 8181
8094 8255
8094 8256
8095 8182
8095 8255
8095 8256
8096 8097
8096 8182
8096 8257
8096 8258
8097 8183
8097 8257
8097 8258
8098 8099
8098 8184
8098 8259
8098 8260
8099 8185
8099 8259
8099 8260
8100 8101
8100 8185
8100 8261
8100 8262
8101 8186
8101 8261
8101 8262
8102 8103
8102 8186
8102 8263
8102 8264
8103 8187
8103 8263
8103 8264
8104 8105
8104 8188
8104 8265
8104 8266
8105 8189
8105 8265
8105 8266
8106 8107
8106 8189
8106 8267
8106 8268
8107 8190
8107 8267
8107 8268
8108 8109
8108 8190
8108 8269
8108 8270
8109 8191
8109 8269
8109 8270
8110 8111
8110 8192
8110 8271
8110 8272
8111 8193
8111 8271
8111 8272
8112 8113
8112 8193
8112 8273
8112 8274
8113 8194
8113 8273
8113 8274
8114 8115
8114 8194
8114 8275
8114 8276
8115 8195
8115 8275
8115 8276
8116 8117
8116 8196
8116 8277
8116 8278
8117 8197
8117 8277
8117 8278
8118 8119
8118 8197
8118 8279
8118 8280
8119 8198
8119 8279
8119 8280
8120 8121
8120 8198
8120 8281
8120 8282
8121 8199
8121 8281
8121 8282
8122 8123
8122 8200
8122 8283
8122 8284
8123 8201
8123 8283
8123 8284
8124 8125
8124 8201
8124 8285
8124 8286
8125 8202
8125 8285
8125 8286
8126 8127
8126 8202
8126 8287
8126 8288
8127 8203
8127 8287
8127 8288
8128 8129
8128 8204
8128 8289
8128 8290
8129 8205
8129 8289
8129 8290
8130 8131
8130 8205
8130 8291
8130 8292
8131 8206
8131 8291
8131 8292
8132 8133
8132 8206
8132 8293
8132 8294
8133 8207
8133 8293
8133 8294
8134 8135
8134 8208
8134 8295
8134 8296
8135 8209
8135 8295
8135 8296
8136 8137
8136 8209
8136 8297
8136 8298
8137 8210
8137 8297
8137 8298
8138 8139
8138 8210
8138 8299
8138 8300
8139 8211
8139 8299
8139 8300
8140 8141
8140 8212
8140 8301
8140 8302
8141 8213
8141 8301
8141 8302
8142 8143
8142 8213
8142 8303
8142 8304
8143 8214
8143 8303
8143 8304
8144 8145
8144 8214
8144 8305
8144 8306
8145 8215
8145 8305
8145 8306
8146 8147
8146 8216
8146 8307
8146 8308
8147 8217
8147 8307
8147 8308
8148 8149
8148 8217
8148 8309
8148 8310
8149 8218
8149 8309
8149 8310
8150 8151
8150 8218
8150 8311
8150 8312
8151 8219
8151 8311
8151 8312
8152 8153
8152 8220
8152 8313
8152 8314
8153 8221
8153 8313
8153 8314
8154 8155
8154 8221
8154 8315
8154 8316
8155 8222
8155 8315
8155 8316
8156 8157
8156 8222
8156 8317
8156 8318
8157 8223
8157 8317
8157 8318
8158 8159
8158 8224
8158 8319
8158 8320
8159 8225
8159 8319
8159 8320
8160 8161
8160 8225
8160 8321
8160 8322
8161 8226
8161 8321
8161 8322
8162 8227
8163 8164
8163 8228
8164 8229
8165 8230
8165 8231
8166 8232
8166 8233
8167 8168
8167 8234
8168 8235
8169 8236
8169 8237
8170 8238
8170 8239
8171 8172
8171 8240
8172 8241
8173 8242
8173 8243
8174 8244
8174 8245
8175 8176
8175 8246
8176 8247
8177 8248
8177 8249
8178 8250
8178 8251
8179 8180
8179 8252
8180 8253
8181 8254
8181 8255
8182 8256
8182 8257
8183 8184
8183 8258
8184 8259
8185 8260
8185 8261
8186 8262
8186 8263
8187 8188
8187 8264
8188 8265
8189 8266
8189 8267
8190 8268
8190 8269
8191 8192
8191 8270
8192 8271
8193 8272
8193 8273
8194 8274
8194 8275
8195 8196
8195 8276
8196 8277
8197 8278
8197 8279
8198 8280
8198 8281
8199 8200
8199 8282
8200 8283
8201 8284
8201 8285
8202 8286
8202 8287
8203 8204
8203 8288
8204 8289
8205 8290
8205 8291
8206 8292
8206 8293
8207 8208
8207 8294
8208 8295
8209 8296
8209 8297
8210 8298
8210 8299
8211 8212
8211 8300
8212 8301
8213 8302
8213 8303
8214 8304
8214 8305
8215 8216
8215 8306
8216 8307
8217 8308
8217 8309
8218 8310
8218 8311
8219 8220
8219 8312
8220 8313
8221 8314
8221 8315
8222 8316
8222 8317
8223 8224
8223 8318
8224 8319
8225 8320
8225 8321
8226 8322
8227 8228
8227 8323
8228 8323
8229 8230
8229 8324
8230 8324
8231 8232
8231 8325
8232 8325
8233 8234
8233 8326
8234 8326
8235 8236
8235 8327
8236 8327
8237 8238
8237 8328
8238 8328
8239 8240
8239 8329
8240 8329
8241 8242
8241 8330
8242 8330
8243 8244
8243 8331
8244 8331
8245 8246
8245 8332
8246 8332
8247 8248
8247 8333
8248 8333
8249 8250
8249 8334
8250 8334
8251 8252
8251 8335
8252 8335
8253 8254
8253 8336
8254 8336
8255 8256
8255 8337
8256 8337
8257 8258
8257 8338
8258 8338
8259 8260
8259 8339
8260 8339
8261 8262
8261 8340
8262 8340
8263 8264
8263 8341
8264 8341
8265 8266
8265 8342
8266 8342
8267 8268
8267 8343
8268 8343
8269 8270
8269 8344
8270 8344
8271 8272
8271 8345
8272 8345
8273 8274
8273 8346
8274 8346
8275 8276
8275 8347
8276 8347
8277 8278
8277 8348
8278 8348
8279 8280
8279 8349
8280 8349
8281 8282
8281 8350
8282 8350
8283 8284
8283 8351
8284 8351
8285 8286
8285 8352
8286 8352
8287 8288
8287 8353
8288 8353
8289 8290
8289 8354
8290 8354
8291 8292
8291 8355
8292 8355
8293 8294
8293 8356
8294 8356
8295 8296
8295 8357
8296 8357
8297 8298
8297 8358
8298 8358
8299 8300
8299 8359
8300 8359
8301 8302
8301 8360
8302 8360
8303 8304
8303 8361
8304 8361
8305 8306
8305 8362
8306 8362
8307 8308
8307 8363
8308 8363
8309 8310
8309 8364
8310 8364
8311 8312
8311 8365
8312 8365
8313 8314
8313 8366
8314 8366
8315 8316
8315 8367
8316 8367
8317 8318
8317 8368
8318 8368
8319 8320
8319 8369
8320 8369
8321 8322
8323 8370
8323 8371
8324 8435
8324 8436
8325 8437
8326 8374
8326 8375
8327 8438
8327 8439
8328 8440
8329 8378
8329 8379
8330 8441
8330 8442
8331 8443
8332 8382
8332 8383
8333 8444
8333 8445
8334 8446
8335 8386
8335 8387
8336 8447
8336 8448
8337 8449
8338 8390
8338 8391
8339 8450
8339 8451
8340 8452
8341 8394
8341 8395
8342 8453
8342 8454
8343 8455
8344 8398
8344 8399
8345 8456
8345 8457
8346 8458
8347 8402
8347 8403
8348 8459
8348 8460
8349 8461
8350 8406
8350 8407
8351 8462
8351 8463
8352 8464
8353 8410
8353 8411
8354 8465
8354 8466
8355 8467
8356 8414
8356 8415
8357 8468
8357 8469
8358 8470
8359 8418
8359 8419
8360 8471
8360 8472
8361 8473
8362 8422
8362 8423
8363 8474
8363 8475
8364 8476
8365 8426
8365 8427
8366 8477
8366 8478
8367 8479
8368 8430
8368 8431
8369 8480
8369 8481
8370 8371
8370 8434
8370 8482
8370 8483
8371 8372
8371 8482
8371 8483
8372 8435
8372 8483
8372 8484
8373 8436
8373 8485
8373 8486
8374 8375
8374 8437
8374 8487
8374 8488
8375 8376
8375 8487
8375 8488
8376 8438
8376 8488
8376 8489
8377 8439
8377 8490
8377 8491
8378 8379
8378 8440
8378 8492
8378 8493
8379 8380
8379 8492
8379 8493
8380 8441
8380 8493
8380 8494
8381 8442
8381 8495
8381 8496
8382 8383
8382 8443
8382 8497
8382 8498
8383 8384
8383 8497
8383 8498
8384 8444
8384 8498
8384 8499
8385 8445
8385 8500
8385 8501
8386 8387
8386 8446
8386 8502
8386 8503
8387 8388
8387 8502
8387 8503
8388 8447
8388 8503
8388 8504
8389 8448
8389 8505
8389 8506
8390 8391
8390 8449
8390 8507
8390 8508
8391 8392
8391 8507
8391 8508
8392 8450
8392 8508
8392 8509
8393 8451
8393 8510
8393 8511
8394 8395
8394 8452
8394 8512
8394 8513
8395 8396
8395 8512
8395 8513
8396 8453
8396 8513
8396 8514
8397 8454
8397 8515
8397 8516
8398 8399
8398 8455
8398 8517
8398 8518
8399 8400
8399 8517
8399 8518
8400 8456
8400 8518
8400 8519
8401 8457
8401 8520
8401 8521
8402 8403
8402 8458
8402 8522
8402 8523
8403 8404
8403 8522
8403 8523
8404 8459
8404 8523
8404 8524
8405 8460
8405 8525
8405 8526
8406 8407
8406 8461
8406 8527
8406 8528
8407 8408
8407 8527
8407 8528
8408 8462
8408 8528
8408 8529
8409 8463
8409 8530
8409 8531
8410 8411
8410 8464
8410 8532
8410 8533
8411 8412
8411 8532
8411 8533
8412 8465
8412 8533
8412 8534
8413 8466
8413 8535
8413 8536
8414 8415
8414 8467
8414 8537
8414 8538
8415 8416
8415 8537
8415 8538
8416 8468
8416 8538
8416 8539
8417 8469
8417 8540
8417 8541
8418 8419
8418 8470
8418 8542
8418 8543
8419 8420
8419 8542
8419 8543
8420 8471
8420 8543
8420 8544
8421 8472
8421 8545
8421 8546
8422 8423
8422 8473
8422 8547
8422 8548
8423 8424
8423 8547
8423 8548
8424 8474
8424 8548
8424 8549
8425 8475
8425 8550
8425 8551
8426 8427
8426 8476
8426 8552
8426 8553
8427 8428
8427 8552
8427 8553
8428 8477
8428 8553
8428 8554
8429 8478
8429 8555
8429 8556
8430 8431
8430 8479
8430 8557
8430 8558
8431 8432
8431 8557
8431 8558
8432 8480
8432 8558
8432 8559
8433 8481
8433 8560
8433 8561
8434 8482
8435 8436
8435 8484
8435 8562
8435 8563
8436 8485
8436 8562
8436 8563
8437 8487
8438 8439
8438 8489
8438 8564
8438 8565
8439 8490
8439 8564
8439 8565
8440 8492
8441 8442
8441 8494
8441 8566
8441 8567
8442 8495
8442 8566
8442 8567
8443 8497
8444 8445
8444 8499
8444 8568
8444 8569
8445 8500
8445 8568
8445 8569
8446 8502
8447 8448
8447 8504
8447 8570
8447 8571
8448 8505
8448 8570
8448 8571
8449 8507
8450 8451
8450 8509
8450 8572
8450 8573
8451 8510
8451 8572
8451 8573
8452 8512
8453 8454
8453 8514
8453 8574
8453 8575
8454 8515
8454 8574
8454 8575
8455 8517
8456 8457
8456 8519
8456 8576
8456 8577
8457 8520
8457 8576
8457 8577
8458 8522
8459 8460
8459 8524
8459 8578
8459 8579
8460 8525
8460 8578
8460 8579
8461 8527
8462 8463
8462 8529
8462 8580
8462 8581
8463 8530
8463 8580
8463 8581
8464 8532
8465 8466
8465 8534
8465 8582
8465 8583
8466 8535
8466 8582
8466 8583
8467 8537
8468 8469
8468 8539
8468 8584
8468 8585
8469 8540
8469 8584
8469 8585
8470 8542
8471 8472
8471 8544
8471 8586
8471 8587
8472 8545
8472 8586
8472 8587
8473 8547
8474 8475
8474 8549
8474 8588
8474 8589
8475 8550
8475 8588
8475 8589
8476 8552
8477 8478
8477 8554
8477 8590
8477 8591
8478 8555
8478 8590
8478 8591
8479 8557
8480 8481
8480 8559
8480 8592
8480 8593
8481 8560
8481 8592
8481 8593
8482 8483
8482 8594
8483 8594
8484 8562
8484 8595
8485 8563
8485 8596
8486 8597
8487 8488
8487 8598
8488 8598
8489 8564
8489 8599
8490 8565
8490 8600
8491 8601
8492 8493
8492 8602
8493 8602
8494 8566
8494 8603
8495 8567
8495 8604
8496 8605
8497 8498
8497 8606
8498 8606
8499 8568
8499 8607
8500 8569
8500 8608
8501 8609
8502 8503
8502 8610
8503 8610
8504 8570
8504 8611
8505 8571
8505 8612
8506 8613
8507 8508
8507 8614
8508 8614
8509 8572
8509 8615
8510 8573
8510 8616
8511 8617
8512 8513
8512 8618
8513 8618
8514 8574
8514 8619
8515 8575
8515 8620
8516 8621
8517 8518
8517 8622
8518 8622
8519 8576
8519 8623
8520 8577
8520 8624
8521 8625
8522 8523
8522 8626
8523 8626
8524 8578
8524 8627
8525 8579
8525 8628
8526 8629
8527 8528
8527 8630
8528 8630
8529 8580
8529 8631
8530 8581
8530 8632
8531 8633
8532 8533
8532 8634
8533 8634
8534 8582
8534 8635
8535 8583
8535 8636
8536 8637
8537 8538
8537 8638
8538 8638
8539 8584
8539 8639
8540 8585
8540 8640
8541 8641
8542 8543
8542 8642
8543 8642
8544 8586
8544 8643
8545 8587
8545 8644
8546 8645
8547 8548
8547 8646
8548 8646
8549 8588
8549 8647
8550 8589
8550 8648
8551 8649
8552 8553
8552 8650
8553 8650
8554 8590
8554 8651
8555 8591
8555 8652
8556 8653
8557 8558
8557 8654
8558 8654
8559 8592
8559 8655
8560 8593
8560 8656
8561 8657
8562 8563
8562 8595
8563 8596
8564 8565
8564 8599
8565 8600
8566 8567
8566 8603
8567 8604
8568 8569
8568 8607
8569 8608
8570 8571
8570 8611
8571 8612
8572 8573
8572 8615
8573 8616
8574 8575
8574 8619
8575 8620
8576 8577
8576 8623
8577 8624
8578 8579
8578 8627
8579 8628
8580 8581
8580 8631
8581 8632
8582 8583
8582 8635
8583 8636
8584 8585
8584 8639
8585 8640
8586 8587
8586 8643
8587 8644
8588 8589
8588 8647
8589 8648
8590 8591
8590 8651
8591 8652
8592 8593
8592 8655
8593 8656
8594 8658
8594 8659
8595 8659
8596 8660
8596 8661
8597 8662
8597 8663
8598 8664
8598 8665
8599 8665
8600 8666
8600 8667
8601 8668
8601 8669
8602 8670
8602 8671
8603 8671
8604 8672
8604 8673
8605 8674
8605 8675
8606 8676
8606 8677
8607 8677
8608 8678
8608 8679
8609 8680
8609 8681
8610 8682
8610 8683
8611 8683
8612 8684
8612 8685
8613 8686
8613 8687
8614 8688
8614 8689
8615 8689
8616 8690
8616 8691
8617 8692
8617 8693
8618 8694
8618 8695
8619 8695
8620 8696
8620 8697
8621 8698
8621 8699
8622 8700
8622 8701
8623 8701
8624 8702
8624 8703
8625 8704
8625 8705
8626 8706
8626 8707
8627 8707
8628 8708
8628 8709
8629 8710
8629 8711
8630 8712
8630 8713
8631 8713
8632 8714
8632 8715
8633 8716
8633 8717
8634 8718
8634 8719
8635 8719
8636 8720
8636 8721
8637 8722
8637 8723
8638 8724
8638 8725
8639 8725
8640 8726
8640 8727
8641 8728
8641 8729
8642 8730
8642 8731
8643 8731
8644 8732
8644 8733
8645 8734
8645 8735
8646 8736
8646 8737
8647 8737
8648 8738
8648 8739
8649 8740
8649 8741
8650 8742
8650 8743
8651 8743
8652 8744
8652 8745
8653 8746
8653 8747
8654 8748
8654 8749
8655 8749
8656 8750
8656 8751
8657 8752
8657 8753
8658 8659
8658 8754
8658 8819
8658 8820
8659 8755
8659 8819
8659 8820
8660 8661
8660 8756
8660 8821
8660 8822
8661 8757
8661 8821
8661 8822
8662 8663
8662 8757
8662 8823
8662 8824
8663 8758
8663 8823
8663 8824
8664 8665
8664 8758
8664 8825
8664 8826
8665 8759
8665 8825
8665 8826
8666 8667
8666 8760
8666 8827
8666 8828
8667 8761
8667 8827
8667 8828
8668 8669
8668 8761
8668 8829
8668 8830
8669 8762
8669 8829
8669 8830
8670 8671
8670 8762
8670 8831
8670 8832
8671 8763
8671 8831
8671 8832
8672 8673
8672 8764
8672 8833
8672 8834
8673 8765
8673 8833
8673 8834
8674 8675
8674 8765
8674 8835
8674 8836
8675 8766
8675 8835
8675 8836
8676 8677
8676 8766
8676 8837
8676 8838
8677 8767
8677 8837
8677 8838
8678 8679
8678 8768
8678 8839
8678 8840
8679 8769
8679 8839
8679 8840
8680 8681
8680 8769
8680 8841
8680 8842
8681 8770
8681 8841
8681 8842
8682 8683
8682 8770
8682 8843
8682 8844
8683 8771
8683 8843
8683 8844
8684 8685
8684 8772
8684 8845
8684 8846
8685 8773
8685 8845
8685 8846
8686 8687
8686 8773
8686 8847
8686 8848
8687 8774
8687 8847
8687 8848
8688 8689
8688 8774
8688 8849
8688 8850
8689 8775
8689 8849
8689 8850
8690 8691
8690 8776
8690 8851
8690 8852
8691 8777
8691 8851
8691 8852
8692 8693
8692 8777
8692 8853
8692 8854
8693 8778
8693 8853
8693 8854
8694 8695
8694 8778
8694 8855
8694 8856
8695 8779
8695 8855
8695 8856
8696 8697
8696 8780
8696 8857
8696 8858
8697 8781
8697 8857
8697 8858
8698 8699
8698 8781
8698 8859
8698 8860
8699 8782
8699 8859
8699 8860
8700 8701
8700 8782
8700 8861
8700 8862
8701 8783
8701 8861
8701 8862
8702 8703
8702 8784
8702 8863
8702 8864
8703 8785
8703 8863
8703 8864
8704 8705
8704 8785
8704 8865
8704 8866
8705 8786
8705 8865
8705 8866
8706 8707
8706 8786
8706 8867
8706 8868
8707 8787
8707 8867
8707 8868
8708 8709
8708 8788
8708 8869
8708 8870
8709 8789
8709 8869
8709 8870
8710 8711
8710 8789
8710 8871
8710 8872
8711 8790
8711 8871
8711 8872
8712 8713
8712 8790
8712 8873
8712 8874
8713 8791
8713 8873
8713 8874
8714 8715
8714 8792
8714 8875
8714 8876
8715 8793
8715 8875
8715 8876
8716 8717
8716 8793
8716 8877
8716 8878
8717 8794
8717 8877
8717 8878
8718 8719
8718 8794
8718 8879
8718 8880
8719 8795
8719 8879
8719 8880
8720 8721
8720 8796
8720 8881
8720 8882
8721 8797
8721 8881
8721 8882
8722 8723
8722 8797
8722 8883
8722 8884
8723 8798
8723 8883
8723 8884
8724 8725
8724 8798
8724 8885
8724 8886
8725 8799
8725 8885
8725 8886
8726 8727
8726 8800
8726 8887
8726 8888
8727 8801
8727 8887
8727 8888
8728 8729
8728 8801
8728 8889
8728 8890
8729 8802
8729 8889
8729 8890
8730 8731
8730 8802
8730 8891
8730 8892
8731 8803
8731 8891
8731 8892
8732 8733
8732 8804
8732 8893
8732 8894
8733 8805
8733 8893
8733 8894
8734 8735
8734 8805
8734 8895
8734 8896
8735 8806
8735 8895
8735 8896
8736 8737
8736 8806
8736 8897
8736 8898
8737 8807
8737 8897
8737 8898
8738 8739
8738 8808
8738 8899
8738 8900
8739 8809
8739 8899
8739 8900
8740 8741
8740 8809
8740 8901
8740 8902
8741 8810
8741 8901
8741 8902
8742 8743
8742 8810
8742 8903
8742 8904
8743 8811
8743 8903
8743 8904
8744 8745
8744 8812
8744 8905
8744 8906
8745 8813
8745 8905
8745 8906
8746 8747
8746 8813
8746 8907
8746 8908
8747 8814
8747 8907
8747 8908
8748 8749
8748 8814
8748 8909
8748 8910
8749 8815
8749 8909
8749 8910
8750 8751
8750 8816
8750 8911
8750 8912
8751 8817
8751 8911
8751 8912
8752 8753
8752 8817
8752 8913
8752 8914
8753 8818
8753 8913
8753 8914
8754 8819
8755 8756
8755 8820
8756 8821
8757 8822
8757 8823
8758 8824
8758 8825
8759 8760
8759 8826
8760 8827
8761 8828
8761 8829
8762 8830
8762 8831
8763 8764
8763 8832
8764 8833
8765 8834
8765 8835
8766 8836
8766 8837
8767 8768
8767 8838
8768 8839
8769 8840
8769 8841
8770 8842
8770 8843
8771 8772
8771 8844
8772 8845
8773 8846
8773 8847
8774 8848
8774 8849
8775 8776
8775 8850
8776 8851
8777 8852
8777 8853
8778 8854
8778 8855
8779 8780
8779 8856
8780 8857
8781 8858
8781 8859
8782 8860
8782 8861
8783 8784
8783 8862
8784 8863
8785 8864
8785 8865
8786 8866
8786 8867
8787 8788
8787 8868
8788 8869
8789 8870
8789 8871
8790 8872
8790 8873
8791 8792
8791 8874
8792 8875
8793 8876
8793 8877
8794 8878
8794 8879
8795 8796
8795 8880
8796 8881
8797 8882
8797 8883
8798 8884
8798 8885
8799 8800
8799 8886
8800 8887
8801 8888
8801 8889
8802 8890
8802 8891
8803 8804
8803 8892
8804 8893
8805 8894
8805 8895
8806 8896
8806 8897
8807 8808
8807 8898
8808 8899
8809 8900
8809 8901
8810 8902
8810 8903
8811 8812
8811 8904
8812 8905
8813 8906
8813 8907
8814 8908
8814 8909
8815 8816
8815 8910
8816 8911
8817 8912
8817 8913
8818 8914
8819 8820
8819 8915
8820 8915
8821 8822
8821 8916
8822 8916
8823 8824
8823 8917
8824 8917
8825 8826
8825 8918
8826 8918
8827 8828
8827 8919
8828 8919
8829 8830
8829 8920
8830 8920
8831 8832
8831 8921
8832 8921
8833 8834
8833 8922
8834 8922
8835 8836
8835 8923
8836 8923
8837 8838
8837 8924
8838 8924
8839 8840
8839 8925
8840 8925
8841 8842
8841 8926
8842 8926
8843 8844
8843 8927
8844 8927
8845 8846
8845 8928
8846 8928
8847 8848
8847 8929
8848 8929
8849 8850
8849 8930
8850 8930
8851 8852
8851 8931
8852 8931
8853 8854
8853 8932
8854 8932
8855 8856
8855 8933
8856 8933
8857 8858
8857 8934
8858 8934
8859 8860
8859 8935
8860 8935
8861 8862
8861 8936
8862 8936
8863 8864
8863 8937
8864 8937
8865 8866
8865 8938
8866 8938
8867 8868
8867 8939
8868 8939
8869 8870
8869 8940
8870 8940
8871 8872
8871 8941
8872 8941
8873 8874
8873 8942
8874 8942
8875 8876
8875 8943
8876 8943
8877 8878
8877 8944
8878 8944
8879 8880
8879 8945
8880 8945
8881 8882
8881 8946
8882 8946
8883 8884
8883 8947
8884 8947
8885 8886
8885 8948
8886 8948
8887 8888
8887 8949
8888 8949
8889 8890
8889 8950
8890 8950
8891 8892
8891 8951
8892 8951
8893 8894
8893 8952
8894 8952
8895 8896
8895 8953
8896 8953
8897 8898
8897 8954
8898 8954
8899 8900
8899 8955
8900 8955
8901 8902
8901 8956
8902 8956
8903 8904
8903 8957
8904 8957
8905 8906
8905 8958
8906 8958
8907 8908
8907 8959
8908 8959
8909 8910
8909 8960
8910 8960
8911 8912
8911 8961
8912 8961
8913 8914
8915 8962
8915 8963
8916 9027
8916 9028
8917 9029
8918 8966
8918 8967
8919 9030
8919 9031
8920 9032
8921 8970
8921 8971
8922 9033
8922 9034
8923 9035
8924 8974
8924 8975
8925 9036
8925 9037
8926 9038
8927 8978
8927 8979
8928 9039
8928 9040
8929 9041
8930 8982
8930 8983
8931 9042
8931 9043
8932 9044
8933 8986
8933 8987
8934 9045
8934 9046
8935 9047
8936 8990
8936 8991
8937 9048
8937 9049
8938 9050
8939 8994
8939 8995
8940 9051
8940 9052
8941 9053
8942 8998
8942 8999
8943 9054
8943 9055
8944 9056
8945 9002
8945 9003
8946 9057
8946 9058
8947 9059
8948 9006
8948 9007
8949 9060
8949 9061
8950 9062
8951 9010
8951 9011
8952 9063
8952 9064
8953 9065
8954 9014
8954 9015
8955 9066
8955 9067
8956 9068
8957 9018
8957 9019
8958 9069
8958 9070
8959 9071
8960 9022
8960 9023
8961 9072
8961 9073
8962 8963
8962 9026
8962 9074
8962 9075
8963 8964
8963 9074
8963 9075
8964 9027
8964 9075
8964 9076
8965 9028
8965 9077
8965 9078
8966 8967
8966 9029
8966 9079
8966 9080
8967 8968
8967 9079
8967 9080
8968 9030
8968 9080
8968 9081
8969 9031
8969 9082
8969 9083
8970 8971
8970 9032
8970 9084
8970 9085
8971 8972
8971 9084
8971 9085
8972 9033
8972 9085
8972 9086
8973 9034
8973 9087
8973 9088
8974 8975
8974 9035
8974 9089
8974 9090
8975 8976
8975 9089
8975 9090
8976 9036
8976 9090
8976 9091
8977 9037
8977 9092
8977 9093
8978 8979
8978 9038
8978 9094
8978 9095
8979 8980
8979 9094
8979 9095
8980 9039
8980 9095
8980 9096
8981 9040
8981 9097
8981 9098
8982 8983
8982 9041
8982 9099
8982 9100
8983 8984
8983 9099
8983 9100
8984 9042
8984 9100
8984 9101
8985 9043
8985 9102
8985 9103
8986 8987
8986 9044
8986 9104
8986 9105
8987 8988
8987 9104
8987 9105
8988 9045
8988 9105
8988 9106
8989 9046
8989 9107
8989 9108
8990 8991
8990 9047
8990 9109
8990 9110
8991 8992
8991 9109
8991 9110
8992 9048
8992 9110
8992 9111
8993 9049
8993 9112
8993 9113
8994 8995
8994 9050
8994 9114
8994 9115
8995 8996
8995 9114
8995 9115
8996 9051
8996 9115
8996 9116
8997 9052
8997 9117
8997 9118
8998 8999
8998 9053
8998 9119
8998 9120
8999 9000
8999 9119
8999 9120
9000 9054
9000 9120
9000 9121
9001 9055
9001 9122
9001 9123
9002 9003
9002 9056
9002 9124
9002 9125
9003 9004
9003 9124
9003 9125
9004 9057
9004 9125
9004 9126
9005 9058
9005 9127
9005 9128
9006 9007
9006 9059
9006 9129
9006 9130
9007 9008
9007 9129
9007 9130
9008 9060
9008 9130
9008 9131
9009 9061
9009 9132
9009 9133
9010 9011
9010 9062
9010 9134
9010 9135
9011 9012
9011 9134
9011 9135
9012 9063
9012 9135
9012 9136
9013 9064
9013 9137
9013 9138
9014 9015
9014 9065
9014 9139
9014 9140
9015 9016
9015 9139
9015 9140
9016 9066
9016 9140
9016 9141
9017 9067
9017 9142
9017 9143
9018 9019
9018 9068
9018 9144
9018 9145
9019 9020
9019 9144
9019 9145
9020 9069
9020 9145
9020 9146
9021 9070
9021 9147
9021 9148
9022 9023
9022 9071
9022 9149
9022 9150
9023 9024
9023 9149
9023 9150
9024 9072
9024 9150
9024 9151
9025 9073
9025 9152
9025 9153
9026 9074
9027 9028
9027 9076
9027 9154
9027 9155
9028 9077
9028 9154
9028 9155
9029 9079
9030 9031
9030 9081
9030 9156
9030 9157
9031 9082
9031 9156
9031 9157
9032 9084
9033 9034
9033 9086
9033 9158
9033 9159
9034 9087
9034 9158
9034 9159
9035 9089
9036 9037
9036 9091
9036 9160
9036 9161
9037 9092
9037 9160
9037 9161
9038 9094
9039 9040
9039 9096
9039 9162
9039 9163
9040 9097
9040 9162
9040 9163
9041 9099
9042 9043
9042 9101
9042 9164
9042 9165
9043 9102
9043 9164
9043 9165
9044 9104
9045 9046
9045 9106
9045 9166
9045 9167
9046 9107
9046 9166
9046 9167
9047 9109
9048 9049
9048 9111
9048 9168
9048 9169
9049 9112
9049 9168
9049 9169
9050 9114
9051 9052
9051 9116
9051 9170
9051 9171
9052 9117
9052 9170
9052 9171
9053 9119
9054 9055
9054 9121
9054 9172
9054 9173
9055 9122
9055 9172
9055 9173
9056 9124
9057 9058
9057 9126
9057 9174
9057 9175
9058 9127
9058 9174
9058 9175
9059 9129
9060 9061
9060 9131
9060 9176
9060 9177
9061 9132
9061 9176
9061 9177
9062 9134
9063 9064
9063 9136
9063 9178
9063 9179
9064 9137
9064 9178
9064 9179
9065 9139
9066 9067
9066 9141
9066 9180
9066 9181
9067 9142
9067 9180
9067 9181
9068 9144
9069 9070
9069 9146
9069 9182
9069 9183
9070 9147
9070 9182
9070 9183
9071 9149
9072 9073
9072 9151
9072 9184
9072 9185
9073 9152
9073 9184
9073 9185
9074 9075
9074 9186
9075 9186
9076 9154
9076 9187
9077 9155
9077 9188
9078 9189
9079 9080
9079 9190
9080 9190
9081 9156
9081 9191
9082 9157
9082 9192
9083 9193
9084 9085
9084 9194
9085 9194
9086 9158
9086 9195
9087 9159
9087 9196
9088 9197
9089 9090
9089 9198
9090 9198
9091 9160
9091 9199
9092 9161
9092 9200
9093 9201
9094 9095
9094 9202
9095 9202
9096 9162
9096 9203
9097 9163
9097 9204
9098 9205
9099 9100
9099 9206
9100 9206
9101 9164
9101 9207
9102 9165
9102 9208
9103 9209
9104 9105
9104 9210
9105 9210
9106 9166
9106 9211
9107 9167
9107 9212
9108 9213
9109 9110
9109 9214
9110 9214
9111 9168
9111 9215
9112 9169
9112 9216
9113 9217
9114 9115
9114 9218
9115 9218
9116 9170
9116 9219
9117 9171
9117 9220
9118 9221
9119 9120
9119 9222
9120 9222
9121 9172
9121 9223
9122 9173
9122 9224
9123 9225
9124 9125
9124 9226
9125 9226
9126 9174
9126 9227
9127 9175
9127 9228
9128 9229
9129 9130
9129 9230
9130 9230
9131 9176
9131 9231
9132 9177
9132 9232
9133 9233
9134 9135
9134 9234
9135 9234
9136 9178
9136 9235
9137 9179
9137 9236
9138 9237
9139 9140
9139 9238
9140 9238
9141 9180
9141 9239
9142 9181
9142 9240
9143 9241
9144 9145
9144 9242
9145 9242
9146 9182
9146 9243
9147 9183
9147 9244
9148 9245
9149 9150
9149 9246
9150 9246
9151 9184
9151 9247
9152 9185
9152 9248
9153 9249
9154 9155
9154 9187
9155 9188
9156 9157
9156 9191
9157 9192
9158 9159
9158 9195
9159 9196
9160 9161
9160 9199
9161 9200
9162 9163
9162 9203
9163 9204
9164 9165
9164 9207
9165 9208
9166 9167
9166 9211
9167 9212
9168 9169
9168 9215
9169 9216
9170 9171
9170 9219
9171 9220
9172 9173
9172 9223
9173 9224
9174 9175
9174 9227
9175 9228
9176 9177
9176 9231
9177 9232
9178 9179
9178 9235
9179 9236
9180 9181
9180 9239
9181 9240
9182 9183
9182 9243
9183 9244
9184 9185
9184 9247
9185 9248
9186 9250
9186 9251
9187 9251
9188 9252
9188 9253
9189 9254
9189 9255
9190 9256
9190 9257
9191 9257
9192 9258
9192 9259
9193 9260
9193 9261
9194 9262
9194 9263
9195 9263
9196 9264
9196 9265
9197 9266
9197 9267
9198 9268
9198 9269
9199 9269
9200 9270
9200 9271
9201 9272
9201 9273
9202 9274
9202 9275
9203 9275
9204 9276
9204 9277
9205 9278
9205 9279
9206 9280
9206 9281
9207 9281
9208 9282
9208 9283
9209 9284
9209 9285
9210 9286
9210 9287
9211 9287
9212 9288
9212 9289
9213 9290
9213 9291
9214 9292
9214 9293
9215 9293
9216 9294
9216 9295
9217 9296
9217 9297
9218 9298
9218 9299
9219 9299
9220 9300
9220 9301
9221 9302
9221 9303
9222 9304
9222 9305
9223 9305
9224 9306
9224 9307
9225 9308
9225 9309
9226 9310
9226 9311
9227 9311
9228 9312
9228 9313
9229 9314
9229 9315
9230 9316
9230 9317
9231 9317
9232 9318
9232 9319
9233 9320
9233 9321
9234 9322
9234 9323
9235 9323
9236 9324
9236 9325
9237 9326
9237 9327
9238 9328
9238 9329
9239 9329
9240 9330
9240 9331
9241 9332
9241 9333
9242 9334
9242 9335
9243 9335
9244 9336
9244 9337
9245 9338
9245 9339
9246 9340
9246 9341
9247 9341
9248 9342
9248 9343
9249 9344
9249 9345
9250 9251
9250 9346
9250 9411
9250 9412
9251 9347
9251 9411
9251 9412
9252 9253
9252 9348
9252 9413
9252 9414
9253 9349
9253 9413
9253 9414
9254 9255
9254 9349
9255 9350
9256 9257
9256 9350
9256 9415
9256 9416
9257 9351
9257 9415
9257 9416
9258 9259
9258 9352
9258 9417
9258 9418
9259 9353
9259 9417
9259 9418
9260 9261
9260 9353
9261 9354
9262 9263
9262 9354
9262 9419
9262 9420
9263 9355
9263 9419
9263 9420
9264 9265
9264 9356
9264 9421
9264 9422
9265 9357
9265 9421
9265 9422
9266 9267
9266 9357
9267 9358
9268 9269
9268 9358
9268 9423
9268 9424
9269 9359
9269 9423
9269 9424
9270 9271
9270 9360
9270 9425
9270 9426
9271 9361
9271 9425
9271 9426
9272 9273
9272 9361
9273 9362
9274 9275
9274 9362
9274 9427
9274 9428
9275 9363
9275 9427
9275 9428
9276 9277
9276 9364
9276 9429
9276 9430
9277 9365
9277 9429
9277 9430
9278 9279
9278 9365
9279 9366
9280 9281
9280 9366
9280 9431
9280 9432
9281 9367
9281 9431
9281 9432
9282 9283
9282 9368
9282 9433
9282 9434
9283 9369
9283 9433
9283 9434
9284 9285
9284 9369
9285 9370
9286 9287
9286 9370
9286 9435
9286 9436
9287 9371
9287 9435
9287 9436
9288 9289
9288 9372
9288 9437
9288 9438
9289 9373
9289 9437
9289 9438
9290 9291
9290 9373
9290 9439
9290 9440
9291 9374
9291 9439
9291 9440
9292 9293
9292 9374
9292 9441
9292 9442
9293 9375
9293 9441
9293 9442
9294 9295
9294 9376
9294 9443
9294 9444
9295 9377
9295 9443
9295 9444
9296 9297
9296 9377
9297 9378
9298 9299
9298 9378
9298 9445
9298 9446
9299 9379
9299 9445
9299 9446
9300 9301
9300 9380
9300 9447
9300 9448
9301 9381
9301 9447
9301 9448
9302 9303
9302 9381
9302 9449
9302 9450
9303 9382
9303 9449
9303 9450
9304 9305
9304 9382
9304 9451
9304 9452
9305 9383
9305 9451
9305 9452
9306 9307
9306 9384
9306 9453
9306 9454
9307 9385
9307 9453
9307 9454
9308 9309
9308 9385
9309 9386
9310 9311
9310 9386
9310 9455
9310 9456
9311 9387
9311 9455
9311 9456
9312 9313
9312 9388
9312 9457
9312 9458
9313 9389
9313 9457
9313 9458
9314 9315
9314 9389
9314 9459
9314 9460
9315 9390
9315 9459
9315 9460
9316 9317
9316 9390
9316 9461
9316 9462
9317 9391
9317 9461
9317 9462
9318 9319
9318 9392
9318 9463
9318 9464
9319 9393
9319 9463
9319 9464
9320 9321
9320 9393
9321 9394
9322 9323
9322 9394
9322 9465
9322 9466
9323 9395
9323 9465
9323 9466
9324 9325
9324 9396
9324 9467
9324 9468
9325 9397
9325 9467
9325 9468
9326 9327
9326 9397
9327 9398
9328 9329
9328 9398
9328 9469
9328 9470
9329 9399
9329 9469
9329 9470
9330 9331
9330 9400
9330 9471
9330 9472
9331 9401
9331 9471
9331 9472
9332 9333
9332 9401
9332 9473
9332 9474
9333 9402
9333 9473
9333 9474
9334 9335
9334 9402
9334 9475
9334 9476
9335 9403
9335 9475
9335 9476
9336 9337
9336 9404
9336 9477
9336 9478
9337 9405
9337 9477
9337 9478
9338 9339
9338 9405
9339 9406
9340 9341
9340 9406
9340 9479
9340 9480
9341 9407
9341 9479
9341 9480
9342 9343
9342 9408
9342 9481
9342 9482
9343 9409
9343 9481
9343 9482
9344 9345
9344 9409
9345 9410
9346 9411
9347 9348
9347 9412
9348 9413
9349 9414
9350 9415
9351 9352
9351 9416
9352 9417
9353 9418
9354 9419
9355 9356
9355 9420
9356 9421
9357 9422
9358 9423
9359 9360
9359 9424
9360 9425
9361 9426
9362 9427
9363 9364
9363 9428
9364 9429
9365 9430
9366 9431
9367 9368
9367 9432
9368 9433
9369 9434
9370 9435
9371 9372
9371 9436
9372 9437
9373 9438
9373 9439
9374 9440
9374 9441
9375 9376
9375 9442
9376 9443
9377 9444
9378 9445
9379 9380
9379 9446
9380 9447
9381 9448
9381 9449
9382 9450
9382 9451
9383 9384
9383 9452
9384 9453
9385 9454
9386 9455
9387 9388
9387 9456
9388 9457
9389 9458
9389 9459
9390 9460
9390 9461
9391 9392
9391 9462
9392 9463
9393 9464
9394 9465
9395 9396
9395 9466
9396 9467
9397 9468
9398 9469
9399 9400
9399 9470
9400 9471
9401 9472
9401 9473
9402 9474
9402 9475
9403 9404
9403 9476
9404 9477
9405 9478
9406 9479
9407 9408
9407 9480
9408 9481
9409 9482
9411 9412
9411 9483
9412 9483
9413 9414
9415 9416
9415 9484
9416 9484
9417 9418
9419 9420
9419 9485
9420 9485
9421 9422
9423 9424
9423 9486
9424 9486
9425 9426
9427 9428
9427 9487
9428 9487
9429 9430
9431 9432
9431 9488
9432 9488
9433 9434
9435 9436
9435 9489
9436 9489
9437 9438
9439 9440
9441 9442
9441 9490
9442 9490
9443 9444
9445 9446
9445 9491
9446 9491
9447 9448
9449 9450
9451 9452
9451 9492
9452 9492
9453 9454
9455 9456
9455 9493
9456 9493
9457 9458
9459 9460
9461 9462
9461 9494
9462 9494
9463 9464
9465 9466
9465 9495
9466 9495
9467 9468
9469 9470
9469 9496
9470 9496
9471 9472
9473 9474
9475 9476
9475 9497
9476 9497
9477 9478
9479 9480
9479 9498
9480 9498
9481 9482
