# Factoring MIS graph
n = 1561173533
n1 = 46573
n2 = 33521
k1 = 16
k2 = 16
seed = 8
type = fact_map

vertices: 9498

weights:
0 2.0
1 2.0
2 2.0
3 2.0
4 2.0
5 2.0
6 2.0
7 2.0
8 2.0
9 2.0
10 2.0
11 2.0
12 2.0
13 2.0
14 2.0
15 2.0
16 2.0
17 2.0
18 2.0
19 2.0
20 2.0
21 2.0
22 2.0
23 2.0
24 2.0
25 2.0
26 2.0
27 2.0
28 2.0
29 2.0
30 2.0
31 2.0
32 2.0
33 2.0
34 2.0
35 2.0
36 2.0
37 2.0
38 2.0
39 2.0
40 2.0
41 2.0
42 2.0
43 2.0
44 2.0
45 1.0
46 2.0
47 2.0
48 1.0
49 2.0
50 2.0
51 1.0
52 2.0
53 2.0
54 1.0
55 2.0
56 2.0
57 1.0
58 2.0
59 2.0
60 1.0
61 2.0
62 2.0
63 1.0
64 2.0
65 2.0
66 1.0
67 2.0
68 2.0
69 1.0
70 2.0
71 2.0
72 1.0
73 2.0
74 2.0
75 1.0
76 2.0
77 2.0
78 1.0
79 2.0
80 2.0
81 1.0
82 2.0
83 2.0
84 1.0
85 2.0
86 2.0
87 1.0
88 2.0
89 2.0
90 1.0
91 3.0
92 3.0
93 2.0
94 2.0
95 3.0
96 3.0
97 2.0
98 2.0
99 3.0
100 3.0
101 2.0
102 2.0
103 3.0
104 3.0
105 2.0
106 2.0
107 3.0
108 3.0
109 2.0
110 2.0
111 3.0
112 3.0
113 2.0
114 2.0
115 3.0
116 3.0
117 2.0
118 2.0
119 3.0
120 3.0
121 2.0
122 2.0
123 3.0
124 3.0
125 2.0
126 2.0
127 3.0
128 3.0
129 2.0
130 2.0
131 3.0
132 3.0
133 2.0
134 2.0
135 3.0
136 3.0
137 2.0
138 2.0
139 3.0
140 3.0
141 2.0
142 2.0
143 3.0
144 3.0
145 2.0
146 2.0
147 3.0
148 3.0
149 2.0
150 2.0
151 3.0
152 3.0
153 2.0
154 2.0
155 2.0
156 3.0
157 3.0
158 2.0
159 3.0
160 3.0
161 2.0
162 3.0
163 3.0
164 2.0
165 3.0
166 3.0
167 2.0
168 3.0
169 3.0
170 2.0
171 3.0
172 3.0
173 2.0
174 3.0
175 3.0
176 2.0
177 3.0
178 3.0
179 2.0
180 3.0
181 3.0
182 2.0
183 3.0
184 3.0
185 2.0
186 3.0
187 3.0
188 2.0
189 3.0
190 3.0
191 2.0
192 3.0
193 3.0
194 2.0
195 3.0
196 3.0
197 2.0
198 3.0
199 3.0
200 2.0
201 3.0
202 3.0
203 3.0
204 3.0
205 2.0
206 2.0
207 2.0
208 3.0
209 3.0
210 2.0
211 2.0
212 2.0
213 3.0
214 3.0
215 2.0
216 2.0
217 2.0
218 3.0
219 3.0
220 2.0
221 2.0
222 2.0
223 3.0
224 3.0
225 2.0
226 2.0
227 2.0
228 3.0
229 3.0
230 2.0
231 2.0
232 2.0
233 3.0
234 3.0
235 2.0
236 2.0
237 2.0
238 3.0
239 3.0
240 2.0
241 2.0
242 2.0
243 3.0
244 3.0
245 2.0
246 2.0
247 2.0
248 3.0
249 3.0
250 2.0
251 2.0
252 2.0
253 3.0
254 3.0
255 2.0
256 2.0
257 2.0
258 3.0
259 3.0
260 2.0
261 2.0
262 2.0
263 3.0
264 3.0
265 2.0
266 2.0
267 2.0
268 3.0
269 3.0
270 2.0
271 2.0
272 2.0
273 3.0
274 3.0
275 2.0
276 2.0
277 2.0
278 3.0
279 3.0
280 2.0
281 2.0
282 2.0
283 2.0
284 2.0
285 2.0
286 2.0
287 2.0
288 2.0
289 2.0
290 2.0
291 2.0
292 2.0
293 2.0
294 2.0
295 2.0
296 2.0
297 2.0
298 2.0
299 2.0
300 2.0
301 2.0
302 2.0
303 2.0
304 2.0
305 2.0
306 2.0
307 2.0
308 2.0
309 2.0
310 2.0
311 2.0
312 2.0
313 2.0
314 2.0
315 2.0
316 2.0
317 2.0
318 2.0
319 2.0
320 2.0
321 2.0
322 2.0
323 2.0
324 2.0
325 2.0
326 2.0
327 2.0
328 2.0
329 2.0
330 2.0
331 2.0
332 2.0
333 2.0
334 2.0
335 2.0
336 2.0
337 2.0
338 2.0
339 2.0
340 2.0
341 2.0
342 2.0
343 2.0
344 2.0
345 2.0
346 2.0
347 2.0
348 2.0
349 2.0
350 2.0
351 2.0
352 2.0
353 2.0
354 2.0
355 2.0
356 2.0
357 2.0
358 2.0
359 2.0
360 2.0
361 2.0
362 2.0
363 2.0
364 2.0
365 2.0
366 2.0
367 2.0
368 2.0
369 2.0
370 2.0
371 2.0
372 2.0
373 2.0
374 2.0
375 2.0
376 2.0
377 2.0
378 2.0
379 3.0
380 4.0
381 3.0
382 3.0
383 3.0
384 3.0
385 3.0
386 4.0
387 3.0
388 3.0
389 3.0
390 3.0
391 3.0
392 4.0
393 3.0
394 3.0
395 3.0
396 3.0
397 3.0
398 4.0
399 3.0
400 3.0
401 3.0
402 3.0
403 3.0
404 4.0
405 3.0
406 3.0
407 3.0
408 3.0
409 3.0
410 4.0
411 3.0
412 3.0
413 3.0
414 3.0
415 3.0
416 4.0
417 3.0
418 3.0
419 3.0
420 3.0
421 3.0
422 4.0
423 3.0
424 3.0
425 3.0
426 3.0
427 3.0
428 4.0
429 3.0
430 3.0
431 3.0
432 3.0
433 3.0
434 4.0
435 3.0
436 3.0
437 3.0
438 3.0
439 3.0
440 4.0
441 3.0
442 3.0
443 3.0
444 3.0
445 3.0
446 4.0
447 3.0
448 3.0
449 3.0
450 3.0
451 3.0
452 4.0
453 3.0
454 3.0
455 3.0
456 3.0
457 3.0
458 4.0
459 3.0
460 3.0
461 3.0
462 3.0
463 3.0
464 4.0
465 3.0
466 3.0
467 3.0
468 3.0
469 3.0
470 4.0
471 3.0
472 3.0
473 3.0
474 3.0
475 1.0
476 2.0
477 2.0
478 2.0
479 2.0
480 2.0
481 2.0
482 2.0
483 2.0
484 2.0
485 2.0
486 2.0
487 2.0
488 2.0
489 2.0
490 2.0
491 2.0
492 2.0
493 2.0
494 2.0
495 2.0
496 2.0
497 2.0
498 2.0
499 2.0
500 2.0
501 2.0
502 2.0
503 2.0
504 2.0
505 2.0
506 2.0
507 2.0
508 2.0
509 2.0
510 2.0
511 2.0
512 2.0
513 2.0
514 2.0
515 2.0
516 2.0
517 2.0
518 2.0
519 2.0
520 2.0
521 2.0
522 2.0
523 2.0
524 2.0
525 2.0
526 2.0
527 2.0
528 2.0
529 2.0
530 2.0
531 2.0
532 2.0
533 2.0
534 2.0
535 2.0
536 2.0
537 2.0
538 2.0
539 1.0
540 3.0
541 3.0
542 3.0
543 3.0
544 3.0
545 3.0
546 3.0
547 3.0
548 3.0
549 3.0
550 3.0
551 3.0
552 3.0
553 3.0
554 3.0
555 3.0
556 3.0
557 3.0
558 3.0
559 3.0
560 3.0
561 3.0
562 3.0
563 3.0
564 3.0
565 3.0
566 3.0
567 3.0
568 3.0
569 3.0
570 3.0
571 3.0
572 3.0
573 3.0
574 3.0
575 3.0
576 3.0
577 3.0
578 3.0
579 3.0
580 3.0
581 3.0
582 3.0
583 3.0
584 3.0
585 3.0
586 3.0
587 3.0
588 3.0
589 3.0
590 3.0
591 3.0
592 3.0
593 3.0
594 3.0
595 3.0
596 3.0
597 3.0
598 3.0
599 3.0
600 3.0
601 3.0
602 3.0
603 3.0
604 3.0
605 3.0
606 3.0
607 3.0
608 3.0
609 3.0
610 3.0
611 3.0
612 3.0
613 3.0
614 3.0
615 3.0
616 3.0
617 3.0
618 3.0
619 3.0
620 3.0
621 3.0
622 3.0
623 3.0
624 3.0
625 3.0
626 3.0
627 3.0
628 3.0
629 3.0
630 3.0
631 3.0
632 3.0
633 3.0
634 2.0
635 2.0
636 2.0
637 2.0
638 2.0
639 2.0
640 2.0
641 2.0
642 2.0
643 2.0
644 2.0
645 2.0
646 2.0
647 2.0
648 2.0
649 2.0
650 2.0
651 2.0
652 2.0
653 2.0
654 2.0
655 2.0
656 2.0
657 2.0
658 2.0
659 2.0
660 2.0
661 2.0
662 2.0
663 2.0
664 2.0
665 2.0
666 2.0
667 2.0
668 2.0
669 2.0
670 2.0
671 2.0
672 2.0
673 2.0
674 2.0
675 2.0
676 2.0
677 2.0
678 2.0
679 2.0
680 2.0
681 3.0
682 3.0
683 2.0
684 2.0
685 3.0
686 3.0
687 2.0
688 2.0
689 3.0
690 3.0
691 2.0
692 2.0
693 3.0
694 3.0
695 2.0
696 2.0
697 3.0
698 3.0
699 2.0
700 2.0
701 3.0
702 3.0
703 2.0
704 2.0
705 3.0
706 3.0
707 2.0
708 2.0
709 3.0
710 3.0
711 2.0
712 2.0
713 3.0
714 3.0
715 2.0
716 2.0
717 3.0
718 3.0
719 2.0
720 2.0
721 3.0
722 3.0
723 2.0
724 2.0
725 3.0
726 3.0
727 2.0
728 2.0
729 3.0
730 3.0
731 2.0
732 2.0
733 3.0
734 3.0
735 2.0
736 2.0
737 3.0
738 3.0
739 2.0
740 2.0
741 3.0
742 3.0
743 2.0
744 2.0
745 2.0
746 3.0
747 3.0
748 2.0
749 3.0
750 3.0
751 2.0
752 3.0
753 3.0
754 2.0
755 3.0
756 3.0
757 2.0
758 3.0
759 3.0
760 2.0
761 3.0
762 3.0
763 2.0
764 3.0
765 3.0
766 2.0
767 3.0
768 3.0
769 2.0
770 3.0
771 3.0
772 2.0
773 3.0
774 3.0
775 2.0
776 3.0
777 3.0
778 2.0
779 3.0
780 3.0
781 2.0
782 3.0
783 3.0
784 2.0
785 3.0
786 3.0
787 2.0
788 3.0
789 3.0
790 2.0
791 3.0
792 3.0
793 3.0
794 3.0
795 2.0
796 2.0
797 2.0
798 3.0
799 3.0
800 2.0
801 2.0
802 2.0
803 3.0
804 3.0
805 2.0
806 2.0
807 2.0
808 3.0
809 3.0
810 2.0
811 2.0
812 2.0
813 3.0
814 3.0
815 2.0
816 2.0
817 2.0
818 3.0
819 3.0
820 2.0
821 2.0
822 2.0
823 3.0
824 3.0
825 2.0
826 2.0
827 2.0
828 3.0
829 3.0
830 2.0
831 2.0
832 2.0
833 3.0
834 3.0
835 2.0
836 2.0
837 2.0
838 3.0
839 3.0
840 2.0
841 2.0
842 2.0
843 3.0
844 3.0
845 2.0
846 2.0
847 2.0
848 3.0
849 3.0
850 2.0
851 2.0
852 2.0
853 3.0
854 3.0
855 2.0
856 2.0
857 2.0
858 3.0
859 3.0
860 2.0
861 2.0
862 2.0
863 3.0
864 3.0
865 2.0
866 2.0
867 2.0
868 3.0
869 3.0
870 2.0
871 2.0
872 2.0
873 2.0
874 2.0
875 2.0
876 2.0
877 2.0
878 2.0
879 2.0
880 2.0
881 2.0
882 2.0
883 2.0
884 2.0
885 2.0
886 2.0
887 2.0
888 2.0
889 2.0
890 2.0
891 2.0
892 2.0
893 2.0
894 2.0
895 2.0
896 2.0
897 2.0
898 2.0
899 2.0
900 2.0
901 2.0
902 2.0
903 2.0
904 2.0
905 2.0
906 2.0
907 2.0
908 2.0
909 2.0
910 2.0
911 2.0
912 2.0
913 2.0
914 2.0
915 2.0
916 2.0
917 2.0
918 2.0
919 2.0
920 2.0
921 2.0
922 2.0
923 2.0
924 2.0
925 2.0
926 2.0
927 2.0
928 2.0
929 2.0
930 2.0
931 2.0
932 2.0
933 2.0
934 2.0
935 2.0
936 2.0
937 2.0
938 2.0
939 2.0
940 2.0
941 2.0
942 2.0
943 2.0
944 2.0
945 2.0
946 2.0
947 2.0
948 2.0
949 2.0
950 2.0
951 2.0
952 2.0
953 2.0
954 2.0
955 2.0
956 2.0
957 2.0
958 2.0
959 2.0
960 2.0
961 2.0
962 2.0
963 2.0
964 2.0
965 2.0
966 2.0
967 2.0
968 2.0
969 3.0
970 4.0
971 3.0
972 3.0
973 3.0
974 3.0
975 3.0
976 4.0
977 3.0
978 3.0
979 3.0
980 3.0
981 3.0
982 4.0
983 3.0
984 3.0
985 3.0
986 3.0
987 3.0
988 4.0
989 3.0
990 3.0
991 3.0
992 3.0
993 3.0
994 4.0
995 3.0
996 3.0
997 3.0
998 3.0
999 3.0
1000 4.0
1001 3.0
1002 3.0
1003 3.0
1004 3.0
1005 3.0
1006 4.0
1007 3.0
1008 3.0
1009 3.0
1010 3.0
1011 3.0
1012 4.0
1013 3.0
1014 3.0
1015 3.0
1016 3.0
1017 3.0
1018 4.0
1019 3.0
1020 3.0
1021 3.0
1022 3.0
1023 3.0
1024 4.0
1025 3.0
1026 3.0
1027 3.0
1028 3.0
1029 3.0
1030 4.0
1031 3.0
1032 3.0
1033 3.0
1034 3.0
1035 3.0
1036 4.0
1037 3.0
1038 3.0
1039 3.0
1040 3.0
1041 3.0
1042 4.0
1043 3.0
1044 3.0
1045 3.0
1046 3.0
1047 3.0
1048 4.0
1049 3.0
1050 3.0
1051 3.0
1052 3.0
1053 3.0
1054 4.0
1055 3.0
1056 3.0
1057 3.0
1058 3.0
1059 3.0
1060 4.0
1061 3.0
1062 3.0
1063 3.0
1064 3.0
1065 1.0
1066 2.0
1067 2.0
1068 2.0
1069 2.0
1070 2.0
1071 2.0
1072 2.0
1073 2.0
1074 2.0
1075 2.0
1076 2.0
1077 2.0
1078 2.0
1079 2.0
1080 2.0
1081 2.0
1082 2.0
1083 2.0
1084 2.0
1085 2.0
1086 2.0
1087 2.0
1088 2.0
1089 2.0
1090 2.0
1091 2.0
1092 2.0
1093 2.0
1094 2.0
1095 2.0
1096 2.0
1097 2.0
1098 2.0
1099 2.0
1100 2.0
1101 2.0
1102 2.0
1103 2.0
1104 2.0
1105 2.0
1106 2.0
1107 2.0
1108 2.0
1109 2.0
1110 2.0
1111 2.0
1112 2.0
1113 2.0
1114 2.0
1115 2.0
1116 2.0
1117 2.0
1118 2.0
1119 2.0
1120 2.0
1121 2.0
1122 2.0
1123 2.0
1124 2.0
1125 2.0
1126 2.0
1127 2.0
1128 2.0
1129 1.0
1130 3.0
1131 3.0
1132 3.0
1133 3.0
1134 3.0
1135 3.0
1136 3.0
1137 3.0
1138 3.0
1139 3.0
1140 3.0
1141 3.0
1142 3.0
1143 3.0
1144 3.0
1145 3.0
1146 3.0
1147 3.0
1148 3.0
1149 3.0
1150 3.0
1151 3.0
1152 3.0
1153 3.0
1154 3.0
1155 3.0
1156 3.0
1157 3.0
1158 3.0
1159 3.0
1160 3.0
1161 3.0
1162 3.0
1163 3.0
1164 3.0
1165 3.0
1166 3.0
1167 3.0
1168 3.0
1169 3.0
1170 3.0
1171 3.0
1172 3.0
1173 3.0
1174 3.0
1175 3.0
1176 3.0
1177 3.0
1178 3.0
1179 3.0
1180 3.0
1181 3.0
1182 3.0
1183 3.0
1184 3.0
1185 3.0
1186 3.0
1187 3.0
1188 3.0
1189 3.0
1190 3.0
1191 3.0
1192 3.0
1193 3.0
1194 3.0
1195 3.0
1196 3.0
1197 3.0
1198 3.0
1199 3.0
1200 3.0
1201 3.0
1202 3.0
1203 3.0
1204 3.0
1205 3.0
1206 3.0
1207 3.0
1208 3.0
1209 3.0
1210 3.0
1211 3.0
1212 3.0
1213 3.0
1214 3.0
1215 3.0
1216 3.0
1217 3.0
1218 3.0
1219 3.0
1220 3.0
1221 3.0
1222 3.0
1223 3.0
1224 3.0
1225 3.0
1226 2.0
1227 2.0
1228 2.0
1229 2.0
1230 2.0
1231 2.0
1232 2.0
1233 2.0
1234 2.0
1235 2.0
1236 2.0
1237 2.0
1238 2.0
1239 2.0
1240 2.0
1241 2.0
1242 2.0
1243 2.0
1244 2.0
1245 2.0
1246 2.0
1247 2.0
1248 2.0
1249 2.0
1250 2.0
1251 2.0
1252 2.0
1253 2.0
1254 2.0
1255 2.0
1256 2.0
1257 2.0
1258 2.0
1259 2.0
1260 2.0
1261 2.0
1262 2.0
1263 2.0
1264 2.0
1265 2.0
1266 2.0
1267 2.0
1268 2.0
1269 2.0
1270 2.0
1271 2.0
1272 2.0
1273 3.0
1274 3.0
1275 2.0
1276 2.0
1277 3.0
1278 3.0
1279 2.0
1280 2.0
1281 3.0
1282 3.0
1283 2.0
1284 2.0
1285 3.0
1286 3.0
1287 2.0
1288 2.0
1289 3.0
1290 3.0
1291 2.0
1292 2.0
1293 3.0
1294 3.0
1295 2.0
1296 2.0
1297 3.0
1298 3.0
1299 2.0
1300 2.0
1301 3.0
1302 3.0
1303 2.0
1304 2.0
1305 3.0
1306 3.0
1307 2.0
1308 2.0
1309 3.0
1310 3.0
1311 2.0
1312 2.0
1313 3.0
1314 3.0
1315 2.0
1316 2.0
1317 3.0
1318 3.0
1319 2.0
1320 2.0
1321 3.0
1322 3.0
1323 2.0
1324 2.0
1325 3.0
1326 3.0
1327 2.0
1328 2.0
1329 3.0
1330 3.0
1331 2.0
1332 2.0
1333 3.0
1334 3.0
1335 2.0
1336 2.0
1337 2.0
1338 3.0
1339 3.0
1340 2.0
1341 3.0
1342 3.0
1343 2.0
1344 3.0
1345 3.0
1346 2.0
1347 3.0
1348 3.0
1349 2.0
1350 3.0
1351 3.0
1352 2.0
1353 3.0
1354 3.0
1355 2.0
1356 3.0
1357 3.0
1358 2.0
1359 3.0
1360 3.0
1361 2.0
1362 3.0
1363 3.0
1364 2.0
1365 3.0
1366 3.0
1367 2.0
1368 3.0
1369 3.0
1370 2.0
1371 3.0
1372 3.0
1373 2.0
1374 3.0
1375 3.0
1376 2.0
1377 3.0
1378 3.0
1379 2.0
1380 3.0
1381 3.0
1382 2.0
1383 3.0
1384 3.0
1385 3.0
1386 3.0
1387 2.0
1388 2.0
1389 2.0
1390 3.0
1391 3.0
1392 2.0
1393 2.0
1394 2.0
1395 3.0
1396 3.0
1397 2.0
1398 2.0
1399 2.0
1400 3.0
1401 3.0
1402 2.0
1403 2.0
1404 2.0
1405 3.0
1406 3.0
1407 2.0
1408 2.0
1409 2.0
1410 3.0
1411 3.0
1412 2.0
1413 2.0
1414 2.0
1415 3.0
1416 3.0
1417 2.0
1418 2.0
1419 2.0
1420 3.0
1421 3.0
1422 2.0
1423 2.0
1424 2.0
1425 3.0
1426 3.0
1427 2.0
1428 2.0
1429 2.0
1430 3.0
1431 3.0
1432 2.0
1433 2.0
1434 2.0
1435 3.0
1436 3.0
1437 2.0
1438 2.0
1439 2.0
1440 3.0
1441 3.0
1442 2.0
1443 2.0
1444 2.0
1445 3.0
1446 3.0
1447 2.0
1448 2.0
1449 2.0
1450 3.0
1451 3.0
1452 2.0
1453 2.0
1454 2.0
1455 3.0
1456 3.0
1457 2.0
1458 2.0
1459 2.0
1460 3.0
1461 3.0
1462 2.0
1463 2.0
1464 2.0
1465 2.0
1466 2.0
1467 2.0
1468 2.0
1469 2.0
1470 2.0
1471 2.0
1472 2.0
1473 2.0
1474 2.0
1475 2.0
1476 2.0
1477 2.0
1478 2.0
1479 2.0
1480 2.0
1481 2.0
1482 2.0
1483 2.0
1484 2.0
1485 2.0
1486 2.0
1487 2.0
1488 2.0
1489 2.0
1490 2.0
1491 2.0
1492 2.0
1493 2.0
1494 2.0
1495 2.0
1496 2.0
1497 2.0
1498 2.0
1499 2.0
1500 2.0
1501 2.0
1502 2.0
1503 2.0
1504 2.0
1505 2.0
1506 2.0
1507 2.0
1508 2.0
1509 2.0
1510 2.0
1511 2.0
1512 2.0
1513 2.0
1514 2.0
1515 2.0
1516 2.0
1517 2.0
1518 2.0
1519 2.0
1520 2.0
1521 2.0
1522 2.0
1523 2.0
1524 2.0
1525 2.0
1526 2.0
1527 2.0
1528 2.0
1529 2.0
1530 2.0
1531 2.0
1532 2.0
1533 2.0
1534 2.0
1535 2.0
1536 2.0
1537 2.0
1538 2.0
1539 2.0
1540 2.0
1541 2.0
1542 2.0
1543 2.0
1544 2.0
1545 2.0
1546 2.0
1547 2.0
1548 2.0
1549 2.0
1550 2.0
1551 2.0
1552 2.0
1553 2.0
1554 2.0
1555 2.0
1556 2.0
1557 2.0
1558 2.0
1559 2.0
1560 2.0
1561 3.0
1562 4.0
1563 3.0
1564 3.0
1565 3.0
1566 3.0
1567 3.0
1568 4.0
1569 3.0
1570 3.0
1571 3.0
1572 3.0
1573 3.0
1574 4.0
1575 3.0
1576 3.0
1577 3.0
1578 3.0
1579 3.0
1580 4.0
1581 3.0
1582 3.0
1583 3.0
1584 3.0
1585 3.0
1586 4.0
1587 3.0
1588 3.0
1589 3.0
1590 3.0
1591 3.0
1592 4.0
1593 3.0
1594 3.0
1595 3.0
1596 3.0
1597 3.0
1598 4.0
1599 3.0
1600 3.0
1601 3.0
1602 3.0
1603 3.0
1604 4.0
1605 3.0
1606 3.0
1607 3.0
1608 3.0
1609 3.0
1610 4.0
1611 3.0
1612 3.0
1613 3.0
1614 3.0
1615 3.0
1616 4.0
1617 3.0
1618 3.0
1619 3.0
1620 3.0
1621 3.0
1622 4.0
1623 3.0
1624 3.0
1625 3.0
1626 3.0
1627 3.0
1628 4.0
1629 3.0
1630 3.0
1631 3.0
1632 3.0
1633 3.0
1634 4.0
1635 3.0
1636 3.0
1637 3.0
1638 3.0
1639 3.0
1640 4.0
1641 3.0
1642 3.0
1643 3.0
1644 3.0
1645 3.0
1646 4.0
1647 3.0
1648 3.0
1649 3.0
1650 3.0
1651 3.0
1652 4.0
1653 3.0
1654 3.0
1655 3.0
1656 3.0
1657 1.0
1658 2.0
1659 2.0
1660 2.0
1661 2.0
1662 2.0
1663 2.0
1664 2.0
1665 2.0
1666 2.0
1667 2.0
1668 2.0
1669 2.0
1670 2.0
1671 2.0
1672 2.0
1673 2.0
1674 2.0
1675 2.0
1676 2.0
1677 2.0
1678 2.0
1679 2.0
1680 2.0
1681 2.0
1682 2.0
1683 2.0
1684 2.0
1685 2.0
1686 2.0
1687 2.0
1688 2.0
1689 2.0
1690 2.0
1691 2.0
1692 2.0
1693 2.0
1694 2.0
1695 2.0
1696 2.0
1697 2.0
1698 2.0
1699 2.0
1700 2.0
1701 2.0
1702 2.0
1703 2.0
1704 2.0
1705 2.0
1706 2.0
1707 2.0
1708 2.0
1709 2.0
1710 2.0
1711 2.0
1712 2.0
1713 2.0
1714 2.0
1715 2.0
1716 2.0
1717 2.0
1718 2.0
1719 2.0
1720 2.0
1721 1.0
1722 3.0
1723 3.0
1724 3.0
1725 3.0
1726 3.0
1727 3.0
1728 3.0
1729 3.0
1730 3.0
1731 3.0
1732 3.0
1733 3.0
1734 3.0
1735 3.0
1736 3.0
1737 3.0
1738 3.0
1739 3.0
1740 3.0
1741 3.0
1742 3.0
1743 3.0
1744 3.0
1745 3.0
1746 3.0
1747 3.0
1748 3.0
1749 3.0
1750 3.0
1751 3.0
1752 3.0
1753 3.0
1754 3.0
1755 3.0
1756 3.0
1757 3.0
1758 3.0
1759 3.0
1760 3.0
1761 3.0
1762 3.0
1763 3.0
1764 3.0
1765 3.0
1766 3.0
1767 3.0
1768 3.0
1769 3.0
1770 3.0
1771 3.0
1772 3.0
1773 3.0
1774 3.0
1775 3.0
1776 3.0
1777 3.0
1778 3.0
1779 3.0
1780 3.0
1781 3.0
1782 3.0
1783 3.0
1784 3.0
1785 3.0
1786 3.0
1787 3.0
1788 3.0
1789 3.0
1790 3.0
1791 3.0
1792 3.0
1793 3.0
1794 3.0
1795 3.0
1796 3.0
1797 3.0
1798 3.0
1799 3.0
1800 3.0
1801 3.0
1802 3.0
1803 3.0
1804 3.0
1805 3.0
1806 3.0
1807 3.0
1808 3.0
1809 3.0
1810 3.0
1811 3.0
1812 3.0
1813 3.0
1814 3.0
1815 3.0
1816 2.0
1817 2.0
1818 2.0
1819 2.0
1820 2.0
1821 2.0
1822 2.0
1823 2.0
1824 2.0
1825 2.0
1826 2.0
1827 2.0
1828 2.0
1829 2.0
1830 2.0
1831 2.0
1832 2.0
1833 2.0
1834 2.0
1835 2.0
1836 2.0
1837 2.0
1838 2.0
1839 2.0
1840 2.0
1841 2.0
1842 2.0
1843 2.0
1844 2.0
1845 2.0
1846 2.0
1847 2.0
1848 2.0
1849 2.0
1850 2.0
1851 2.0
1852 2.0
1853 2.0
1854 2.0
1855 2.0
1856 2.0
1857 2.0
1858 2.0
1859 2.0
1860 2.0
1861 2.0
1862 2.0
1863 3.0
1864 3.0
1865 2.0
1866 2.0
1867 3.0
1868 3.0
1869 2.0
1870 2.0
1871 3.0
1872 3.0
1873 2.0
1874 2.0
1875 3.0
1876 3.0
1877 2.0
1878 2.0
1879 3.0
1880 3.0
1881 2.0
1882 2.0
1883 3.0
1884 3.0
1885 2.0
1886 2.0
1887 3.0
1888 3.0
1889 2.0
1890 2.0
1891 3.0
1892 3.0
1893 2.0
1894 2.0
1895 3.0
1896 3.0
1897 2.0
1898 2.0
1899 3.0
1900 3.0
1901 2.0
1902 2.0
1903 3.0
1904 3.0
1905 2.0
1906 2.0
1907 3.0
1908 3.0
1909 2.0
1910 2.0
1911 3.0
1912 3.0
1913 2.0
1914 2.0
1915 3.0
1916 3.0
1917 2.0
1918 2.0
1919 3.0
1920 3.0
1921 2.0
1922 2.0
1923 3.0
1924 3.0
1925 2.0
1926 2.0
1927 2.0
1928 3.0
1929 3.0
1930 2.0
1931 3.0
1932 3.0
1933 2.0
1934 3.0
1935 3.0
1936 2.0
1937 3.0
1938 3.0
1939 2.0
1940 3.0
1941 3.0
1942 2.0
1943 3.0
1944 3.0
1945 2.0
1946 3.0
1947 3.0
1948 2.0
1949 3.0
1950 3.0
1951 2.0
1952 3.0
1953 3.0
1954 2.0
1955 3.0
1956 3.0
1957 2.0
1958 3.0
1959 3.0
1960 2.0
1961 3.0
1962 3.0
1963 2.0
1964 3.0
1965 3.0
1966 2.0
1967 3.0
1968 3.0
1969 2.0
1970 3.0
1971 3.0
1972 2.0
1973 3.0
1974 3.0
1975 3.0
1976 3.0
1977 2.0
1978 2.0
1979 2.0
1980 3.0
1981 3.0
1982 2.0
1983 2.0
1984 2.0
1985 3.0
1986 3.0
1987 2.0
1988 2.0
1989 2.0
1990 3.0
1991 3.0
1992 2.0
1993 2.0
1994 2.0
1995 3.0
1996 3.0
1997 2.0
1998 2.0
1999 2.0
2000 3.0
2001 3.0
2002 2.0
2003 2.0
2004 2.0
2005 3.0
2006 3.0
2007 2.0
2008 2.0
2009 2.0
2010 3.0
2011 3.0
2012 2.0
2013 2.0
2014 2.0
2015 3.0
2016 3.0
2017 2.0
2018 2.0
2019 2.0
2020 3.0
2021 3.0
2022 2.0
2023 2.0
2024 2.0
2025 3.0
2026 3.0
2027 2.0
2028 2.0
2029 2.0
2030 3.0
2031 3.0
2032 2.0
2033 2.0
2034 2.0
2035 3.0
2036 3.0
2037 2.0
2038 2.0
2039 2.0
2040 3.0
2041 3.0
2042 2.0
2043 2.0
2044 2.0
2045 3.0
2046 3.0
2047 2.0
2048 2.0
2049 2.0
2050 3.0
2051 3.0
2052 2.0
2053 2.0
2054 2.0
2055 2.0
2056 2.0
2057 2.0
2058 2.0
2059 2.0
2060 2.0
2061 2.0
2062 2.0
2063 2.0
2064 2.0
2065 2.0
2066 2.0
2067 2.0
2068 2.0
2069 2.0
2070 2.0
2071 2.0
2072 2.0
2073 2.0
2074 2.0
2075 2.0
2076 2.0
2077 2.0
2078 2.0
2079 2.0
2080 2.0
2081 2.0
2082 2.0
2083 2.0
2084 2.0
2085 2.0
2086 2.0
2087 2.0
2088 2.0
2089 2.0
2090 2.0
2091 2.0
2092 2.0
2093 2.0
2094 2.0
2095 2.0
2096 2.0
2097 2.0
2098 2.0
2099 2.0
2100 2.0
2101 2.0
2102 2.0
2103 2.0
2104 2.0
2105 2.0
2106 2.0
2107 2.0
2108 2.0
2109 2.0
2110 2.0
2111 2.0
2112 2.0
2113 2.0
2114 2.0
2115 2.0
2116 2.0
2117 2.0
2118 2.0
2119 2.0
2120 2.0
2121 2.0
2122 2.0
2123 2.0
2124 2.0
2125 2.0
2126 2.0
2127 2.0
2128 2.0
2129 2.0
2130 2.0
2131 2.0
2132 2.0
2133 2.0
2134 2.0
2135 2.0
2136 2.0
2137 2.0
2138 2.0
2139 2.0
2140 2.0
2141 2.0
2142 2.0
2143 2.0
2144 2.0
2145 2.0
2146 2.0
2147 2.0
2148 2.0
2149 2.0
2150 2.0
2151 3.0
2152 4.0
2153 3.0
2154 3.0
2155 3.0
2156 3.0
2157 3.0
2158 4.0
2159 3.0
2160 3.0
2161 3.0
2162 3.0
2163 3.0
2164 4.0
2165 3.0
2166 3.0
2167 3.0
2168 3.0
2169 3.0
2170 4.0
2171 3.0
2172 3.0
2173 3.0
2174 3.0
2175 3.0
2176 4.0
2177 3.0
2178 3.0
2179 3.0
2180 3.0
2181 3.0
2182 4.0
2183 3.0
2184 3.0
2185 3.0
2186 3.0
2187 3.0
2188 4.0
2189 3.0
2190 3.0
2191 3.0
2192 3.0
2193 3.0
2194 4.0
2195 3.0
2196 3.0
2197 3.0
2198 3.0
2199 3.0
2200 4.0
2201 3.0
2202 3.0
2203 3.0
2204 3.0
2205 3.0
2206 4.0
2207 3.0
2208 3.0
2209 3.0
2210 3.0
2211 3.0
2212 4.0
2213 3.0
2214 3.0
2215 3.0
2216 3.0
2217 3.0
2218 4.0
2219 3.0
2220 3.0
2221 3.0
2222 3.0
2223 3.0
2224 4.0
2225 3.0
2226 3.0
2227 3.0
2228 3.0
2229 3.0
2230 4.0
2231 3.0
2232 3.0
2233 3.0
2234 3.0
2235 3.0
2236 4.0
2237 3.0
2238 3.0
2239 3.0
2240 3.0
2241 3.0
2242 4.0
2243 3.0
2244 3.0
2245 3.0
2246 3.0
2247 1.0
2248 2.0
2249 2.0
2250 2.0
2251 2.0
2252 2.0
2253 2.0
2254 2.0
2255 2.0
2256 2.0
2257 2.0
2258 2.0
2259 2.0
2260 2.0
2261 2.0
2262 2.0
2263 2.0
2264 2.0
2265 2.0
2266 2.0
2267 2.0
2268 2.0
2269 2.0
2270 2.0
2271 2.0
2272 2.0
2273 2.0
2274 2.0
2275 2.0
2276 2.0
2277 2.0
2278 2.0
2279 2.0
2280 2.0
2281 2.0
2282 2.0
2283 2.0
2284 2.0
2285 2.0
2286 2.0
2287 2.0
2288 2.0
2289 2.0
2290 2.0
2291 2.0
2292 2.0
2293 2.0
2294 2.0
2295 2.0
2296 2.0
2297 2.0
2298 2.0
2299 2.0
2300 2.0
2301 2.0
2302 2.0
2303 2.0
2304 2.0
2305 2.0
2306 2.0
2307 2.0
2308 2.0
2309 2.0
2310 2.0
2311 1.0
2312 3.0
2313 3.0
2314 3.0
2315 3.0
2316 3.0
2317 3.0
2318 3.0
2319 3.0
2320 3.0
2321 3.0
2322 3.0
2323 3.0
2324 3.0
2325 3.0
2326 3.0
2327 3.0
2328 3.0
2329 3.0
2330 3.0
2331 3.0
2332 3.0
2333 3.0
2334 3.0
2335 3.0
2336 3.0
2337 3.0
2338 3.0
2339 3.0
2340 3.0
2341 3.0
2342 3.0
2343 3.0
2344 3.0
2345 3.0
2346 3.0
2347 3.0
2348 3.0
2349 3.0
2350 3.0
2351 3.0
2352 3.0
2353 3.0
2354 3.0
2355 3.0
2356 3.0
2357 3.0
2358 3.0
2359 3.0
2360 3.0
2361 3.0
2362 3.0
2363 3.0
2364 3.0
2365 3.0
2366 3.0
2367 3.0
2368 3.0
2369 3.0
2370 3.0
2371 3.0
2372 3.0
2373 3.0
2374 3.0
2375 3.0
2376 3.0
2377 3.0
2378 3.0
2379 3.0
2380 3.0
2381 3.0
2382 3.0
2383 3.0
2384 3.0
2385 3.0
2386 3.0
2387 3.0
2388 3.0
2389 3.0
2390 3.0
2391 3.0
2392 3.0
2393 3.0
2394 3.0
2395 3.0
2396 3.0
2397 3.0
2398 3.0
2399 3.0
2400 3.0
2401 3.0
2402 3.0
2403 3.0
2404 3.0
2405 3.0
2406 2.0
2407 2.0
2408 2.0
2409 2.0
2410 2.0
2411 2.0
2412 2.0
2413 2.0
2414 2.0
2415 2.0
2416 2.0
2417 2.0
2418 2.0
2419 2.0
2420 2.0
2421 2.0
2422 2.0
2423 2.0
2424 2.0
2425 2.0
2426 2.0
2427 2.0
2428 2.0
2429 2.0
2430 2.0
2431 2.0
2432 2.0
2433 2.0
2434 2.0
2435 2.0
2436 2.0
2437 2.0
2438 2.0
2439 2.0
2440 2.0
2441 2.0
2442 2.0
2443 2.0
2444 2.0
2445 2.0
2446 2.0
2447 2.0
2448 2.0
2449 2.0
2450 2.0
2451 2.0
2452 2.0
2453 3.0
2454 3.0
2455 2.0
2456 2.0
2457 3.0
2458 3.0
2459 2.0
2460 2.0
2461 3.0
2462 3.0
2463 2.0
2464 2.0
2465 3.0
2466 3.0
2467 2.0
2468 2.0
2469 3.0
2470 3.0
2471 2.0
2472 2.0
2473 3.0
2474 3.0
2475 2.0
2476 2.0
2477 3.0
2478 3.0
2479 2.0
2480 2.0
2481 3.0
2482 3.0
2483 2.0
2484 2.0
2485 3.0
2486 3.0
2487 2.0
2488 2.0
2489 3.0
2490 3.0
2491 2.0
2492 2.0
2493 3.0
2494 3.0
2495 2.0
2496 2.0
2497 3.0
2498 3.0
2499 2.0
2500 2.0
2501 3.0
2502 3.0
2503 2.0
2504 2.0
2505 3.0
2506 3.0
2507 2.0
2508 2.0
2509 3.0
2510 3.0
2511 2.0
2512 2.0
2513 3.0
2514 3.0
2515 2.0
2516 2.0
2517 2.0
2518 3.0
2519 3.0
2520 2.0
2521 3.0
2522 3.0
2523 2.0
2524 3.0
2525 3.0
2526 2.0
2527 3.0
2528 3.0
2529 2.0
2530 3.0
2531 3.0
2532 2.0
2533 3.0
2534 3.0
2535 2.0
2536 3.0
2537 3.0
2538 2.0
2539 3.0
2540 3.0
2541 2.0
2542 3.0
2543 3.0
2544 2.0
2545 3.0
2546 3.0
2547 2.0
2548 3.0
2549 3.0
2550 2.0
2551 3.0
2552 3.0
2553 2.0
2554 3.0
2555 3.0
2556 2.0
2557 3.0
2558 3.0
2559 2.0
2560 3.0
2561 3.0
2562 2.0
2563 3.0
2564 3.0
2565 3.0
2566 3.0
2567 2.0
2568 2.0
2569 2.0
2570 3.0
2571 3.0
2572 2.0
2573 2.0
2574 2.0
2575 3.0
2576 3.0
2577 2.0
2578 2.0
2579 2.0
2580 3.0
2581 3.0
2582 2.0
2583 2.0
2584 2.0
2585 3.0
2586 3.0
2587 2.0
2588 2.0
2589 2.0
2590 3.0
2591 3.0
2592 2.0
2593 2.0
2594 2.0
2595 3.0
2596 3.0
2597 2.0
2598 2.0
2599 2.0
2600 3.0
2601 3.0
2602 2.0
2603 2.0
2604 2.0
2605 3.0
2606 3.0
2607 2.0
2608 2.0
2609 2.0
2610 3.0
2611 3.0
2612 2.0
2613 2.0
2614 2.0
2615 3.0
2616 3.0
2617 2.0
2618 2.0
2619 2.0
2620 3.0
2621 3.0
2622 2.0
2623 2.0
2624 2.0
2625 3.0
2626 3.0
2627 2.0
2628 2.0
2629 2.0
2630 3.0
2631 3.0
2632 2.0
2633 2.0
2634 2.0
2635 3.0
2636 3.0
2637 2.0
2638 2.0
2639 2.0
2640 3.0
2641 3.0
2642 2.0
2643 2.0
2644 2.0
2645 2.0
2646 2.0
2647 2.0
2648 2.0
2649 2.0
2650 2.0
2651 2.0
2652 2.0
2653 2.0
2654 2.0
2655 2.0
2656 2.0
2657 2.0
2658 2.0
2659 2.0
2660 2.0
2661 2.0
2662 2.0
2663 2.0
2664 2.0
2665 2.0
2666 2.0
2667 2.0
2668 2.0
2669 2.0
2670 2.0
2671 2.0
2672 2.0
2673 2.0
2674 2.0
2675 2.0
2676 2.0
2677 2.0
2678 2.0
2679 2.0
2680 2.0
2681 2.0
2682 2.0
2683 2.0
2684 2.0
2685 2.0
2686 2.0
2687 2.0
2688 2.0
2689 2.0
2690 2.0
2691 2.0
2692 2.0
2693 2.0
2694 2.0
2695 2.0
2696 2.0
2697 2.0
2698 2.0
2699 2.0
2700 2.0
2701 2.0
2702 2.0
2703 2.0
2704 2.0
2705 2.0
2706 2.0
2707 2.0
2708 2.0
2709 2.0
2710 2.0
2711 2.0
2712 2.0
2713 2.0
2714 2.0
2715 2.0
2716 2.0
2717 2.0
2718 2.0
2719 2.0
2720 2.0
2721 2.0
2722 2.0
2723 2.0
2724 2.0
2725 2.0
2726 2.0
2727 2.0
2728 2.0
2729 2.0
2730 2.0
2731 2.0
2732 2.0
2733 2.0
2734 2.0
2735 2.0
2736 2.0
2737 2.0
2738 2.0
2739 2.0
2740 2.0
2741 3.0
2742 4.0
2743 3.0
2744 3.0
2745 3.0
2746 3.0
2747 3.0
2748 4.0
2749 3.0
2750 3.0
2751 3.0
2752 3.0
2753 3.0
2754 4.0
2755 3.0
2756 3.0
2757 3.0
2758 3.0
2759 3.0
2760 4.0
2761 3.0
2762 3.0
2763 3.0
2764 3.0
2765 3.0
2766 4.0
2767 3.0
2768 3.0
2769 3.0
2770 3.0
2771 3.0
2772 4.0
2773 3.0
2774 3.0
2775 3.0
2776 3.0
2777 3.0
2778 4.0
2779 3.0
2780 3.0
2781 3.0
2782 3.0
2783 3.0
2784 4.0
2785 3.0
2786 3.0
2787 3.0
2788 3.0
2789 3.0
2790 4.0
2791 3.0
2792 3.0
2793 3.0
2794 3.0
2795 3.0
2796 4.0
2797 3.0
2798 3.0
2799 3.0
2800 3.0
2801 3.0
2802 4.0
2803 3.0
2804 3.0
2805 3.0
2806 3.0
2807 3.0
2808 4.0
2809 3.0
2810 3.0
2811 3.0
2812 3.0
2813 3.0
2814 4.0
2815 3.0
2816 3.0
2817 3.0
2818 3.0
2819 3.0
2820 4.0
2821 3.0
2822 3.0
2823 3.0
2824 3.0
2825 3.0
2826 4.0
2827 3.0
2828 3.0
2829 3.0
2830 3.0
2831 3.0
2832 4.0
2833 3.0
2834 3.0
2835 3.0
2836 3.0
2837 1.0
2838 2.0
2839 2.0
2840 2.0
2841 2.0
2842 2.0
2843 2.0
2844 2.0
2845 2.0
2846 2.0
2847 2.0
2848 2.0
2849 2.0
2850 2.0
2851 2.0
2852 2.0
2853 2.0
2854 2.0
2855 2.0
2856 2.0
2857 2.0
2858 2.0
2859 2.0
2860 2.0
2861 2.0
2862 2.0
2863 2.0
2864 2.0
2865 2.0
2866 2.0
2867 2.0
2868 2.0
2869 2.0
2870 2.0
2871 2.0
2872 2.0
2873 2.0
2874 2.0
2875 2.0
2876 2.0
2877 2.0
2878 2.0
2879 2.0
2880 2.0
2881 2.0
2882 2.0
2883 2.0
2884 2.0
2885 2.0
2886 2.0
2887 2.0
2888 2.0
2889 2.0
2890 2.0
2891 2.0
2892 2.0
2893 2.0
2894 2.0
2895 2.0
2896 2.0
2897 2.0
2898 2.0
2899 2.0
2900 2.0
2901 1.0
2902 3.0
2903 3.0
2904 3.0
2905 3.0
2906 3.0
2907 3.0
2908 3.0
2909 3.0
2910 3.0
2911 3.0
2912 3.0
2913 3.0
2914 3.0
2915 3.0
2916 3.0
2917 3.0
2918 3.0
2919 3.0
2920 3.0
2921 3.0
2922 3.0
2923 3.0
2924 3.0
2925 3.0
2926 3.0
2927 3.0
2928 3.0
2929 3.0
2930 3.0
2931 3.0
2932 3.0
2933 3.0
2934 3.0
2935 3.0
2936 3.0
2937 3.0
2938 3.0
2939 3.0
2940 3.0
2941 3.0
2942 3.0
2943 3.0
2944 3.0
2945 3.0
2946 3.0
2947 3.0
2948 3.0
2949 3.0
2950 3.0
2951 3.0
2952 3.0
2953 3.0
2954 3.0
2955 3.0
2956 3.0
2957 3.0
2958 3.0
2959 3.0
2960 3.0
2961 3.0
2962 3.0
2963 3.0
2964 3.0
2965 3.0
2966 3.0
2967 3.0
2968 3.0
2969 3.0
2970 3.0
2971 3.0
2972 3.0
2973 3.0
2974 3.0
2975 3.0
2976 3.0
2977 3.0
2978 3.0
2979 3.0
2980 3.0
2981 3.0
2982 3.0
2983 3.0
2984 3.0
2985 3.0
2986 3.0
2987 3.0
2988 3.0
2989 3.0
2990 3.0
2991 3.0
2992 3.0
2993 3.0
2994 3.0
2995 3.0
2996 2.0
2997 2.0
2998 2.0
2999 2.0
3000 2.0
3001 2.0
3002 2.0
3003 2.0
3004 2.0
3005 2.0
3006 2.0
3007 2.0
3008 2.0
3009 2.0
3010 2.0
3011 2.0
3012 2.0
3013 2.0
3014 2.0
3015 2.0
3016 2.0
3017 2.0
3018 2.0
3019 2.0
3020 2.0
3021 2.0
3022 2.0
3023 2.0
3024 2.0
3025 2.0
3026 2.0
3027 2.0
3028 2.0
3029 2.0
3030 2.0
3031 2.0
3032 2.0
3033 2.0
3034 2.0
3035 2.0
3036 2.0
3037 2.0
3038 2.0
3039 2.0
3040 2.0
3041 2.0
3042 2.0
3043 3.0
3044 3.0
3045 2.0
3046 2.0
3047 3.0
3048 3.0
3049 2.0
3050 2.0
3051 3.0
3052 3.0
3053 2.0
3054 2.0
3055 3.0
3056 3.0
3057 2.0
3058 2.0
3059 3.0
3060 3.0
3061 2.0
3062 2.0
3063 3.0
3064 3.0
3065 2.0
3066 2.0
3067 3.0
3068 3.0
3069 2.0
3070 2.0
3071 3.0
3072 3.0
3073 2.0
3074 2.0
3075 3.0
3076 3.0
3077 2.0
3078 2.0
3079 3.0
3080 3.0
3081 2.0
3082 2.0
3083 3.0
3084 3.0
3085 2.0
3086 2.0
3087 3.0
3088 3.0
3089 2.0
3090 2.0
3091 3.0
3092 3.0
3093 2.0
3094 2.0
3095 3.0
3096 3.0
3097 2.0
3098 2.0
3099 3.0
3100 3.0
3101 2.0
3102 2.0
3103 3.0
3104 3.0
3105 2.0
3106 2.0
3107 2.0
3108 3.0
3109 3.0
3110 2.0
3111 3.0
3112 3.0
3113 2.0
3114 3.0
3115 3.0
3116 2.0
3117 3.0
3118 3.0
3119 2.0
3120 3.0
3121 3.0
3122 2.0
3123 3.0
3124 3.0
3125 2.0
3126 3.0
3127 3.0
3128 2.0
3129 3.0
3130 3.0
3131 2.0
3132 3.0
3133 3.0
3134 2.0
3135 3.0
3136 3.0
3137 2.0
3138 3.0
3139 3.0
3140 2.0
3141 3.0
3142 3.0
3143 2.0
3144 3.0
3145 3.0
3146 2.0
3147 3.0
3148 3.0
3149 2.0
3150 3.0
3151 3.0
3152 2.0
3153 3.0
3154 3.0
3155 3.0
3156 3.0
3157 2.0
3158 2.0
3159 2.0
3160 3.0
3161 3.0
3162 2.0
3163 2.0
3164 2.0
3165 3.0
3166 3.0
3167 2.0
3168 2.0
3169 2.0
3170 3.0
3171 3.0
3172 2.0
3173 2.0
3174 2.0
3175 3.0
3176 3.0
3177 2.0
3178 2.0
3179 2.0
3180 3.0
3181 3.0
3182 2.0
3183 2.0
3184 2.0
3185 3.0
3186 3.0
3187 2.0
3188 2.0
3189 2.0
3190 3.0
3191 3.0
3192 2.0
3193 2.0
3194 2.0
3195 3.0
3196 3.0
3197 2.0
3198 2.0
3199 2.0
3200 3.0
3201 3.0
3202 2.0
3203 2.0
3204 2.0
3205 3.0
3206 3.0
3207 2.0
3208 2.0
3209 2.0
3210 3.0
3211 3.0
3212 2.0
3213 2.0
3214 2.0
3215 3.0
3216 3.0
3217 2.0
3218 2.0
3219 2.0
3220 3.0
3221 3.0
3222 2.0
3223 2.0
3224 2.0
3225 3.0
3226 3.0
3227 2.0
3228 2.0
3229 2.0
3230 3.0
3231 3.0
3232 2.0
3233 2.0
3234 2.0
3235 2.0
3236 2.0
3237 2.0
3238 2.0
3239 2.0
3240 2.0
3241 2.0
3242 2.0
3243 2.0
3244 2.0
3245 2.0
3246 2.0
3247 2.0
3248 2.0
3249 2.0
3250 2.0
3251 2.0
3252 2.0
3253 2.0
3254 2.0
3255 2.0
3256 2.0
3257 2.0
3258 2.0
3259 2.0
3260 2.0
3261 2.0
3262 2.0
3263 2.0
3264 2.0
3265 2.0
3266 2.0
3267 2.0
3268 2.0
3269 2.0
3270 2.0
3271 2.0
3272 2.0
3273 2.0
3274 2.0
3275 2.0
3276 2.0
3277 2.0
3278 2.0
3279 2.0
3280 2.0
3281 2.0
3282 2.0
3283 2.0
3284 2.0
3285 2.0
3286 2.0
3287 2.0
3288 2.0
3289 2.0
3290 2.0
3291 2.0
3292 2.0
3293 2.0
3294 2.0
3295 2.0
3296 2.0
3297 2.0
3298 2.0
3299 2.0
3300 2.0
3301 2.0
3302 2.0
3303 2.0
3304 2.0
3305 2.0
3306 2.0
3307 2.0
3308 2.0
3309 2.0
3310 2.0
3311 2.0
3312 2.0
3313 2.0
3314 2.0
3315 2.0
3316 2.0
3317 2.0
3318 2.0
3319 2.0
3320 2.0
3321 2.0
3322 2.0
3323 2.0
3324 2.0
3325 2.0
3326 2.0
3327 2.0
3328 2.0
3329 2.0
3330 2.0
3331 3.0
3332 4.0
3333 3.0
3334 3.0
3335 3.0
3336 3.0
3337 3.0
3338 4.0
3339 3.0
3340 3.0
3341 3.0
3342 3.0
3343 3.0
3344 4.0
3345 3.0
3346 3.0
3347 3.0
3348 3.0
3349 3.0
3350 4.0
3351 3.0
3352 3.0
3353 3.0
3354 3.0
3355 3.0
3356 4.0
3357 3.0
3358 3.0
3359 3.0
3360 3.0
3361 3.0
3362 4.0
3363 3.0
3364 3.0
3365 3.0
3366 3.0
3367 3.0
3368 4.0
3369 3.0
3370 3.0
3371 3.0
3372 3.0
3373 3.0
3374 4.0
3375 3.0
3376 3.0
3377 3.0
3378 3.0
3379 3.0
3380 4.0
3381 3.0
3382 3.0
3383 3.0
3384 3.0
3385 3.0
3386 4.0
3387 3.0
3388 3.0
3389 3.0
3390 3.0
3391 3.0
3392 4.0
3393 3.0
3394 3.0
3395 3.0
3396 3.0
3397 3.0
3398 4.0
3399 3.0
3400 3.0
3401 3.0
3402 3.0
3403 3.0
3404 4.0
3405 3.0
3406 3.0
3407 3.0
3408 3.0
3409 3.0
3410 4.0
3411 3.0
3412 3.0
3413 3.0
3414 3.0
3415 3.0
3416 4.0
3417 3.0
3418 3.0
3419 3.0
3420 3.0
3421 3.0
3422 4.0
3423 3.0
3424 3.0
3425 3.0
3426 3.0
3427 1.0
3428 2.0
3429 2.0
3430 2.0
3431 2.0
3432 2.0
3433 2.0
3434 2.0
3435 2.0
3436 2.0
3437 2.0
3438 2.0
3439 2.0
3440 2.0
3441 2.0
3442 2.0
3443 2.0
3444 2.0
3445 2.0
3446 2.0
3447 2.0
3448 2.0
3449 2.0
3450 2.0
3451 2.0
3452 2.0
3453 2.0
3454 2.0
3455 2.0
3456 2.0
3457 2.0
3458 2.0
3459 2.0
3460 2.0
3461 2.0
3462 2.0
3463 2.0
3464 2.0
3465 2.0
3466 2.0
3467 2.0
3468 2.0
3469 2.0
3470 2.0
3471 2.0
3472 2.0
3473 2.0
3474 2.0
3475 2.0
3476 2.0
3477 2.0
3478 2.0
3479 2.0
3480 2.0
3481 2.0
3482 2.0
3483 2.0
3484 2.0
3485 2.0
3486 2.0
3487 2.0
3488 2.0
3489 2.0
3490 2.0
3491 1.0
3492 3.0
3493 3.0
3494 3.0
3495 3.0
3496 3.0
3497 3.0
3498 3.0
3499 3.0
3500 3.0
3501 3.0
3502 3.0
3503 3.0
3504 3.0
3505 3.0
3506 3.0
3507 3.0
3508 3.0
3509 3.0
3510 3.0
3511 3.0
3512 3.0
3513 3.0
3514 3.0
3515 3.0
3516 3.0
3517 3.0
3518 3.0
3519 3.0
3520 3.0
3521 3.0
3522 3.0
3523 3.0
3524 3.0
3525 3.0
3526 3.0
3527 3.0
3528 3.0
3529 3.0
3530 3.0
3531 3.0
3532 3.0
3533 3.0
3534 3.0
3535 3.0
3536 3.0
3537 3.0
3538 3.0
3539 3.0
3540 3.0
3541 3.0
3542 3.0
3543 3.0
3544 3.0
3545 3.0
3546 3.0
3547 3.0
3548 3.0
3549 3.0
3550 3.0
3551 3.0
3552 3.0
3553 3.0
3554 3.0
3555 3.0
3556 3.0
3557 3.0
3558 3.0
3559 3.0
3560 3.0
3561 3.0
3562 3.0
3563 3.0
3564 3.0
3565 3.0
3566 3.0
3567 3.0
3568 3.0
3569 3.0
3570 3.0
3571 3.0
3572 3.0
3573 3.0
3574 3.0
3575 3.0
3576 3.0
3577 3.0
3578 3.0
3579 3.0
3580 3.0
3581 3.0
3582 3.0
3583 3.0
3584 3.0
3585 3.0
3586 3.0
3587 3.0
3588 2.0
3589 2.0
3590 2.0
3591 2.0
3592 2.0
3593 2.0
3594 2.0
3595 2.0
3596 2.0
3597 2.0
3598 2.0
3599 2.0
3600 2.0
3601 2.0
3602 2.0
3603 2.0
3604 2.0
3605 2.0
3606 2.0
3607 2.0
3608 2.0
3609 2.0
3610 2.0
3611 2.0
3612 2.0
3613 2.0
3614 2.0
3615 2.0
3616 2.0
3617 2.0
3618 2.0
3619 2.0
3620 2.0
3621 2.0
3622 2.0
3623 2.0
3624 2.0
3625 2.0
3626 2.0
3627 2.0
3628 2.0
3629 2.0
3630 2.0
3631 2.0
3632 2.0
3633 2.0
3634 2.0
3635 3.0
3636 3.0
3637 2.0
3638 2.0
3639 3.0
3640 3.0
3641 2.0
3642 2.0
3643 3.0
3644 3.0
3645 2.0
3646 2.0
3647 3.0
3648 3.0
3649 2.0
3650 2.0
3651 3.0
3652 3.0
3653 2.0
3654 2.0
3655 3.0
3656 3.0
3657 2.0
3658 2.0
3659 3.0
3660 3.0
3661 2.0
3662 2.0
3663 3.0
3664 3.0
3665 2.0
3666 2.0
3667 3.0
3668 3.0
3669 2.0
3670 2.0
3671 3.0
3672 3.0
3673 2.0
3674 2.0
3675 3.0
3676 3.0
3677 2.0
3678 2.0
3679 3.0
3680 3.0
3681 2.0
3682 2.0
3683 3.0
3684 3.0
3685 2.0
3686 2.0
3687 3.0
3688 3.0
3689 2.0
3690 2.0
3691 3.0
3692 3.0
3693 2.0
3694 2.0
3695 3.0
3696 3.0
3697 2.0
3698 2.0
3699 2.0
3700 3.0
3701 3.0
3702 2.0
3703 3.0
3704 3.0
3705 2.0
3706 3.0
3707 3.0
3708 2.0
3709 3.0
3710 3.0
3711 2.0
3712 3.0
3713 3.0
3714 2.0
3715 3.0
3716 3.0
3717 2.0
3718 3.0
3719 3.0
3720 2.0
3721 3.0
3722 3.0
3723 2.0
3724 3.0
3725 3.0
3726 2.0
3727 3.0
3728 3.0
3729 2.0
3730 3.0
3731 3.0
3732 2.0
3733 3.0
3734 3.0
3735 2.0
3736 3.0
3737 3.0
3738 2.0
3739 3.0
3740 3.0
3741 2.0
3742 3.0
3743 3.0
3744 2.0
3745 3.0
3746 3.0
3747 3.0
3748 3.0
3749 2.0
3750 2.0
3751 2.0
3752 3.0
3753 3.0
3754 2.0
3755 2.0
3756 2.0
3757 3.0
3758 3.0
3759 2.0
3760 2.0
3761 2.0
3762 3.0
3763 3.0
3764 2.0
3765 2.0
3766 2.0
3767 3.0
3768 3.0
3769 2.0
3770 2.0
3771 2.0
3772 3.0
3773 3.0
3774 2.0
3775 2.0
3776 2.0
3777 3.0
3778 3.0
3779 2.0
3780 2.0
3781 2.0
3782 3.0
3783 3.0
3784 2.0
3785 2.0
3786 2.0
3787 3.0
3788 3.0
3789 2.0
3790 2.0
3791 2.0
3792 3.0
3793 3.0
3794 2.0
3795 2.0
3796 2.0
3797 3.0
3798 3.0
3799 2.0
3800 2.0
3801 2.0
3802 3.0
3803 3.0
3804 2.0
3805 2.0
3806 2.0
3807 3.0
3808 3.0
3809 2.0
3810 2.0
3811 2.0
3812 3.0
3813 3.0
3814 2.0
3815 2.0
3816 2.0
3817 3.0
3818 3.0
3819 2.0
3820 2.0
3821 2.0
3822 3.0
3823 3.0
3824 2.0
3825 2.0
3826 2.0
3827 2.0
3828 2.0
3829 2.0
3830 2.0
3831 2.0
3832 2.0
3833 2.0
3834 2.0
3835 2.0
3836 2.0
3837 2.0
3838 2.0
3839 2.0
3840 2.0
3841 2.0
3842 2.0
3843 2.0
3844 2.0
3845 2.0
3846 2.0
3847 2.0
3848 2.0
3849 2.0
3850 2.0
3851 2.0
3852 2.0
3853 2.0
3854 2.0
3855 2.0
3856 2.0
3857 2.0
3858 2.0
3859 2.0
3860 2.0
3861 2.0
3862 2.0
3863 2.0
3864 2.0
3865 2.0
3866 2.0
3867 2.0
3868 2.0
3869 2.0
3870 2.0
3871 2.0
3872 2.0
3873 2.0
3874 2.0
3875 2.0
3876 2.0
3877 2.0
3878 2.0
3879 2.0
3880 2.0
3881 2.0
3882 2.0
3883 2.0
3884 2.0
3885 2.0
3886 2.0
3887 2.0
3888 2.0
3889 2.0
3890 2.0
3891 2.0
3892 2.0
3893 2.0
3894 2.0
3895 2.0
3896 2.0
3897 2.0
3898 2.0
3899 2.0
3900 2.0
3901 2.0
3902 2.0
3903 2.0
3904 2.0
3905 2.0
3906 2.0
3907 2.0
3908 2.0
3909 2.0
3910 2.0
3911 2.0
3912 2.0
3913 2.0
3914 2.0
3915 2.0
3916 2.0
3917 2.0
3918 2.0
3919 2.0
3920 2.0
3921 2.0
3922 2.0
3923 3.0
3924 4.0
3925 3.0
3926 3.0
3927 3.0
3928 3.0
3929 3.0
3930 4.0
3931 3.0
3932 3.0
3933 3.0
3934 3.0
3935 3.0
3936 4.0
3937 3.0
3938 3.0
3939 3.0
3940 3.0
3941 3.0
3942 4.0
3943 3.0
3944 3.0
3945 3.0
3946 3.0
3947 3.0
3948 4.0
3949 3.0
3950 3.0
3951 3.0
3952 3.0
3953 3.0
3954 4.0
3955 3.0
3956 3.0
3957 3.0
3958 3.0
3959 3.0
3960 4.0
3961 3.0
3962 3.0
3963 3.0
3964 3.0
3965 3.0
3966 4.0
3967 3.0
3968 3.0
3969 3.0
3970 3.0
3971 3.0
3972 4.0
3973 3.0
3974 3.0
3975 3.0
3976 3.0
3977 3.0
3978 4.0
3979 3.0
3980 3.0
3981 3.0
3982 3.0
3983 3.0
3984 4.0
3985 3.0
3986 3.0
3987 3.0
3988 3.0
3989 3.0
3990 4.0
3991 3.0
3992 3.0
3993 3.0
3994 3.0
3995 3.0
3996 4.0
3997 3.0
3998 3.0
3999 3.0
4000 3.0
4001 3.0
4002 4.0
4003 3.0
4004 3.0
4005 3.0
4006 3.0
4007 3.0
4008 4.0
4009 3.0
4010 3.0
4011 3.0
4012 3.0
4013 3.0
4014 4.0
4015 3.0
4016 3.0
4017 3.0
4018 3.0
4019 1.0
4020 2.0
4021 2.0
4022 2.0
4023 2.0
4024 2.0
4025 2.0
4026 2.0
4027 2.0
4028 2.0
4029 2.0
4030 2.0
4031 2.0
4032 2.0
4033 2.0
4034 2.0
4035 2.0
4036 2.0
4037 2.0
4038 2.0
4039 2.0
4040 2.0
4041 2.0
4042 2.0
4043 2.0
4044 2.0
4045 2.0
4046 2.0
4047 2.0
4048 2.0
4049 2.0
4050 2.0
4051 2.0
4052 2.0
4053 2.0
4054 2.0
4055 2.0
4056 2.0
4057 2.0
4058 2.0
4059 2.0
4060 2.0
4061 2.0
4062 2.0
4063 2.0
4064 2.0
4065 2.0
4066 2.0
4067 2.0
4068 2.0
4069 2.0
4070 2.0
4071 2.0
4072 2.0
4073 2.0
4074 2.0
4075 2.0
4076 2.0
4077 2.0
4078 2.0
4079 2.0
4080 2.0
4081 2.0
4082 2.0
4083 1.0
4084 3.0
4085 3.0
4086 3.0
4087 3.0
4088 3.0
4089 3.0
4090 3.0
4091 3.0
4092 3.0
4093 3.0
4094 3.0
4095 3.0
4096 3.0
4097 3.0
4098 3.0
4099 3.0
4100 3.0
4101 3.0
4102 3.0
4103 3.0
4104 3.0
4105 3.0
4106 3.0
4107 3.0
4108 3.0
4109 3.0
4110 3.0
4111 3.0
4112 3.0
4113 3.0
4114 3.0
4115 3.0
4116 3.0
4117 3.0
4118 3.0
4119 3.0
4120 3.0
4121 3.0
4122 3.0
4123 3.0
4124 3.0
4125 3.0
4126 3.0
4127 3.0
4128 3.0
4129 3.0
4130 3.0
4131 3.0
4132 3.0
4133 3.0
4134 3.0
4135 3.0
4136 3.0
4137 3.0
4138 3.0
4139 3.0
4140 3.0
4141 3.0
4142 3.0
4143 3.0
4144 3.0
4145 3.0
4146 3.0
4147 3.0
4148 3.0
4149 3.0
4150 3.0
4151 3.0
4152 3.0
4153 3.0
4154 3.0
4155 3.0
4156 3.0
4157 3.0
4158 3.0
4159 3.0
4160 3.0
4161 3.0
4162 3.0
4163 3.0
4164 3.0
4165 3.0
4166 3.0
4167 3.0
4168 3.0
4169 3.0
4170 3.0
4171 3.0
4172 3.0
4173 3.0
4174 3.0
4175 3.0
4176 3.0
4177 3.0
4178 2.0
4179 2.0
4180 2.0
4181 2.0
4182 2.0
4183 2.0
4184 2.0
4185 2.0
4186 2.0
4187 2.0
4188 2.0
4189 2.0
4190 2.0
4191 2.0
4192 2.0
4193 2.0
4194 2.0
4195 2.0
4196 2.0
4197 2.0
4198 2.0
4199 2.0
4200 2.0
4201 2.0
4202 2.0
4203 2.0
4204 2.0
4205 2.0
4206 2.0
4207 2.0
4208 2.0
4209 2.0
4210 2.0
4211 2.0
4212 2.0
4213 2.0
4214 2.0
4215 2.0
4216 2.0
4217 2.0
4218 2.0
4219 2.0
4220 2.0
4221 2.0
4222 2.0
4223 2.0
4224 2.0
4225 3.0
4226 3.0
4227 2.0
4228 2.0
4229 3.0
4230 3.0
4231 2.0
4232 2.0
4233 3.0
4234 3.0
4235 2.0
4236 2.0
4237 3.0
4238 3.0
4239 2.0
4240 2.0
4241 3.0
4242 3.0
4243 2.0
4244 2.0
4245 3.0
4246 3.0
4247 2.0
4248 2.0
4249 3.0
4250 3.0
4251 2.0
4252 2.0
4253 3.0
4254 3.0
4255 2.0
4256 2.0
4257 3.0
4258 3.0
4259 2.0
4260 2.0
4261 3.0
4262 3.0
4263 2.0
4264 2.0
4265 3.0
4266 3.0
4267 2.0
4268 2.0
4269 3.0
4270 3.0
4271 2.0
4272 2.0
4273 3.0
4274 3.0
4275 2.0
4276 2.0
4277 3.0
4278 3.0
4279 2.0
4280 2.0
4281 3.0
4282 3.0
4283 2.0
4284 2.0
4285 3.0
4286 3.0
4287 2.0
4288 2.0
4289 2.0
4290 3.0
4291 3.0
4292 2.0
4293 3.0
4294 3.0
4295 2.0
4296 3.0
4297 3.0
4298 2.0
4299 3.0
4300 3.0
4301 2.0
4302 3.0
4303 3.0
4304 2.0
4305 3.0
4306 3.0
4307 2.0
4308 3.0
4309 3.0
4310 2.0
4311 3.0
4312 3.0
4313 2.0
4314 3.0
4315 3.0
4316 2.0
4317 3.0
4318 3.0
4319 2.0
4320 3.0
4321 3.0
4322 2.0
4323 3.0
4324 3.0
4325 2.0
4326 3.0
4327 3.0
4328 2.0
4329 3.0
4330 3.0
4331 2.0
4332 3.0
4333 3.0
4334 2.0
4335 3.0
4336 3.0
4337 3.0
4338 3.0
4339 2.0
4340 2.0
4341 2.0
4342 3.0
4343 3.0
4344 2.0
4345 2.0
4346 2.0
4347 3.0
4348 3.0
4349 2.0
4350 2.0
4351 2.0
4352 3.0
4353 3.0
4354 2.0
4355 2.0
4356 2.0
4357 3.0
4358 3.0
4359 2.0
4360 2.0
4361 2.0
4362 3.0
4363 3.0
4364 2.0
4365 2.0
4366 2.0
4367 3.0
4368 3.0
4369 2.0
4370 2.0
4371 2.0
4372 3.0
4373 3.0
4374 2.0
4375 2.0
4376 2.0
4377 3.0
4378 3.0
4379 2.0
4380 2.0
4381 2.0
4382 3.0
4383 3.0
4384 2.0
4385 2.0
4386 2.0
4387 3.0
4388 3.0
4389 2.0
4390 2.0
4391 2.0
4392 3.0
4393 3.0
4394 2.0
4395 2.0
4396 2.0
4397 3.0
4398 3.0
4399 2.0
4400 2.0
4401 2.0
4402 3.0
4403 3.0
4404 2.0
4405 2.0
4406 2.0
4407 3.0
4408 3.0
4409 2.0
4410 2.0
4411 2.0
4412 3.0
4413 3.0
4414 2.0
4415 2.0
4416 2.0
4417 2.0
4418 2.0
4419 2.0
4420 2.0
4421 2.0
4422 2.0
4423 2.0
4424 2.0
4425 2.0
4426 2.0
4427 2.0
4428 2.0
4429 2.0
4430 2.0
4431 2.0
4432 2.0
4433 2.0
4434 2.0
4435 2.0
4436 2.0
4437 2.0
4438 2.0
4439 2.0
4440 2.0
4441 2.0
4442 2.0
4443 2.0
4444 2.0
4445 2.0
4446 2.0
4447 2.0
4448 2.0
4449 2.0
4450 2.0
4451 2.0
4452 2.0
4453 2.0
4454 2.0
4455 2.0
4456 2.0
4457 2.0
4458 2.0
4459 2.0
4460 2.0
4461 2.0
4462 2.0
4463 2.0
4464 2.0
4465 2.0
4466 2.0
4467 2.0
4468 2.0
4469 2.0
4470 2.0
4471 2.0
4472 2.0
4473 2.0
4474 2.0
4475 2.0
4476 2.0
4477 2.0
4478 2.0
4479 2.0
4480 2.0
4481 2.0
4482 2.0
4483 2.0
4484 2.0
4485 2.0
4486 2.0
4487 2.0
4488 2.0
4489 2.0
4490 2.0
4491 2.0
4492 2.0
4493 2.0
4494 2.0
4495 2.0
4496 2.0
4497 2.0
4498 2.0
4499 2.0
4500 2.0
4501 2.0
4502 2.0
4503 2.0
4504 2.0
4505 2.0
4506 2.0
4507 2.0
4508 2.0
4509 2.0
4510 2.0
4511 2.0
4512 2.0
4513 3.0
4514 4.0
4515 3.0
4516 3.0
4517 3.0
4518 3.0
4519 3.0
4520 4.0
4521 3.0
4522 3.0
4523 3.0
4524 3.0
4525 3.0
4526 4.0
4527 3.0
4528 3.0
4529 3.0
4530 3.0
4531 3.0
4532 4.0
4533 3.0
4534 3.0
4535 3.0
4536 3.0
4537 3.0
4538 4.0
4539 3.0
4540 3.0
4541 3.0
4542 3.0
4543 3.0
4544 4.0
4545 3.0
4546 3.0
4547 3.0
4548 3.0
4549 3.0
4550 4.0
4551 3.0
4552 3.0
4553 3.0
4554 3.0
4555 3.0
4556 4.0
4557 3.0
4558 3.0
4559 3.0
4560 3.0
4561 3.0
4562 4.0
4563 3.0
4564 3.0
4565 3.0
4566 3.0
4567 3.0
4568 4.0
4569 3.0
4570 3.0
4571 3.0
4572 3.0
4573 3.0
4574 4.0
4575 3.0
4576 3.0
4577 3.0
4578 3.0
4579 3.0
4580 4.0
4581 3.0
4582 3.0
4583 3.0
4584 3.0
4585 3.0
4586 4.0
4587 3.0
4588 3.0
4589 3.0
4590 3.0
4591 3.0
4592 4.0
4593 3.0
4594 3.0
4595 3.0
4596 3.0
4597 3.0
4598 4.0
4599 3.0
4600 3.0
4601 3.0
4602 3.0
4603 3.0
4604 4.0
4605 3.0
4606 3.0
4607 3.0
4608 3.0
4609 1.0
4610 2.0
4611 2.0
4612 2.0
4613 2.0
4614 2.0
4615 2.0
4616 2.0
4617 2.0
4618 2.0
4619 2.0
4620 2.0
4621 2.0
4622 2.0
4623 2.0
4624 2.0
4625 2.0
4626 2.0
4627 2.0
4628 2.0
4629 2.0
4630 2.0
4631 2.0
4632 2.0
4633 2.0
4634 2.0
4635 2.0
4636 2.0
4637 2.0
4638 2.0
4639 2.0
4640 2.0
4641 2.0
4642 2.0
4643 2.0
4644 2.0
4645 2.0
4646 2.0
4647 2.0
4648 2.0
4649 2.0
4650 2.0
4651 2.0
4652 2.0
4653 2.0
4654 2.0
4655 2.0
4656 2.0
4657 2.0
4658 2.0
4659 2.0
4660 2.0
4661 2.0
4662 2.0
4663 2.0
4664 2.0
4665 2.0
4666 2.0
4667 2.0
4668 2.0
4669 2.0
4670 2.0
4671 2.0
4672 2.0
4673 1.0
4674 3.0
4675 3.0
4676 3.0
4677 3.0
4678 3.0
4679 3.0
4680 3.0
4681 3.0
4682 3.0
4683 3.0
4684 3.0
4685 3.0
4686 3.0
4687 3.0
4688 3.0
4689 3.0
4690 3.0
4691 3.0
4692 3.0
4693 3.0
4694 3.0
4695 3.0
4696 3.0
4697 3.0
4698 3.0
4699 3.0
4700 3.0
4701 3.0
4702 3.0
4703 3.0
4704 3.0
4705 3.0
4706 3.0
4707 3.0
4708 3.0
4709 3.0
4710 3.0
4711 3.0
4712 3.0
4713 3.0
4714 3.0
4715 3.0
4716 3.0
4717 3.0
4718 3.0
4719 3.0
4720 3.0
4721 3.0
4722 3.0
4723 3.0
4724 3.0
4725 3.0
4726 3.0
4727 3.0
4728 3.0
4729 3.0
4730 3.0
4731 3.0
4732 3.0
4733 3.0
4734 3.0
4735 3.0
4736 3.0
4737 3.0
4738 3.0
4739 3.0
4740 3.0
4741 3.0
4742 3.0
4743 3.0
4744 3.0
4745 3.0
4746 3.0
4747 3.0
4748 3.0
4749 3.0
4750 3.0
4751 3.0
4752 3.0
4753 3.0
4754 3.0
4755 3.0
4756 3.0
4757 3.0
4758 3.0
4759 3.0
4760 3.0
4761 3.0
4762 3.0
4763 3.0
4764 3.0
4765 3.0
4766 3.0
4767 3.0
4768 3.0
4769 3.0
4770 2.0
4771 2.0
4772 2.0
4773 2.0
4774 2.0
4775 2.0
4776 2.0
4777 2.0
4778 2.0
4779 2.0
4780 2.0
4781 2.0
4782 2.0
4783 2.0
4784 2.0
4785 2.0
4786 2.0
4787 2.0
4788 2.0
4789 2.0
4790 2.0
4791 2.0
4792 2.0
4793 2.0
4794 2.0
4795 2.0
4796 2.0
4797 2.0
4798 2.0
4799 2.0
4800 2.0
4801 2.0
4802 2.0
4803 2.0
4804 2.0
4805 2.0
4806 2.0
4807 2.0
4808 2.0
4809 2.0
4810 2.0
4811 2.0
4812 2.0
4813 2.0
4814 2.0
4815 2.0
4816 2.0
4817 3.0
4818 3.0
4819 2.0
4820 2.0
4821 3.0
4822 3.0
4823 2.0
4824 2.0
4825 3.0
4826 3.0
4827 2.0
4828 2.0
4829 3.0
4830 3.0
4831 2.0
4832 2.0
4833 3.0
4834 3.0
4835 2.0
4836 2.0
4837 3.0
4838 3.0
4839 2.0
4840 2.0
4841 3.0
4842 3.0
4843 2.0
4844 2.0
4845 3.0
4846 3.0
4847 2.0
4848 2.0
4849 3.0
4850 3.0
4851 2.0
4852 2.0
4853 3.0
4854 3.0
4855 2.0
4856 2.0
4857 3.0
4858 3.0
4859 2.0
4860 2.0
4861 3.0
4862 3.0
4863 2.0
4864 2.0
4865 3.0
4866 3.0
4867 2.0
4868 2.0
4869 3.0
4870 3.0
4871 2.0
4872 2.0
4873 3.0
4874 3.0
4875 2.0
4876 2.0
4877 3.0
4878 3.0
4879 2.0
4880 2.0
4881 2.0
4882 3.0
4883 3.0
4884 2.0
4885 3.0
4886 3.0
4887 2.0
4888 3.0
4889 3.0
4890 2.0
4891 3.0
4892 3.0
4893 2.0
4894 3.0
4895 3.0
4896 2.0
4897 3.0
4898 3.0
4899 2.0
4900 3.0
4901 3.0
4902 2.0
4903 3.0
4904 3.0
4905 2.0
4906 3.0
4907 3.0
4908 2.0
4909 3.0
4910 3.0
4911 2.0
4912 3.0
4913 3.0
4914 2.0
4915 3.0
4916 3.0
4917 2.0
4918 3.0
4919 3.0
4920 2.0
4921 3.0
4922 3.0
4923 2.0
4924 3.0
4925 3.0
4926 2.0
4927 3.0
4928 3.0
4929 3.0
4930 3.0
4931 2.0
4932 2.0
4933 2.0
4934 3.0
4935 3.0
4936 2.0
4937 2.0
4938 2.0
4939 3.0
4940 3.0
4941 2.0
4942 2.0
4943 2.0
4944 3.0
4945 3.0
4946 2.0
4947 2.0
4948 2.0
4949 3.0
4950 3.0
4951 2.0
4952 2.0
4953 2.0
4954 3.0
4955 3.0
4956 2.0
4957 2.0
4958 2.0
4959 3.0
4960 3.0
4961 2.0
4962 2.0
4963 2.0
4964 3.0
4965 3.0
4966 2.0
4967 2.0
4968 2.0
4969 3.0
4970 3.0
4971 2.0
4972 2.0
4973 2.0
4974 3.0
4975 3.0
4976 2.0
4977 2.0
4978 2.0
4979 3.0
4980 3.0
4981 2.0
4982 2.0
4983 2.0
4984 3.0
4985 3.0
4986 2.0
4987 2.0
4988 2.0
4989 3.0
4990 3.0
4991 2.0
4992 2.0
4993 2.0
4994 3.0
4995 3.0
4996 2.0
4997 2.0
4998 2.0
4999 3.0
5000 3.0
5001 2.0
5002 2.0
5003 2.0
5004 3.0
5005 3.0
5006 2.0
5007 2.0
5008 2.0
5009 2.0
5010 2.0
5011 2.0
5012 2.0
5013 2.0
5014 2.0
5015 2.0
5016 2.0
5017 2.0
5018 2.0
5019 2.0
5020 2.0
5021 2.0
5022 2.0
5023 2.0
5024 2.0
5025 2.0
5026 2.0
5027 2.0
5028 2.0
5029 2.0
5030 2.0
5031 2.0
5032 2.0
5033 2.0
5034 2.0
5035 2.0
5036 2.0
5037 2.0
5038 2.0
5039 2.0
5040 2.0
5041 2.0
5042 2.0
5043 2.0
5044 2.0
5045 2.0
5046 2.0
5047 2.0
5048 2.0
5049 2.0
5050 2.0
5051 2.0
5052 2.0
5053 2.0
5054 2.0
5055 2.0
5056 2.0
5057 2.0
5058 2.0
5059 2.0
5060 2.0
5061 2.0
5062 2.0
5063 2.0
5064 2.0
5065 2.0
5066 2.0
5067 2.0
5068 2.0
5069 2.0
5070 2.0
5071 2.0
5072 2.0
5073 2.0
5074 2.0
5075 2.0
5076 2.0
5077 2.0
5078 2.0
5079 2.0
5080 2.0
5081 2.0
5082 2.0
5083 2.0
5084 2.0
5085 2.0
5086 2.0
5087 2.0
5088 2.0
5089 2.0
5090 2.0
5091 2.0
5092 2.0
5093 2.0
5094 2.0
5095 2.0
5096 2.0
5097 2.0
5098 2.0
5099 2.0
5100 2.0
5101 2.0
5102 2.0
5103 2.0
5104 2.0
5105 3.0
5106 4.0
5107 3.0
5108 3.0
5109 3.0
5110 3.0
5111 3.0
5112 4.0
5113 3.0
5114 3.0
5115 3.0
5116 3.0
5117 3.0
5118 4.0
5119 3.0
5120 3.0
5121 3.0
5122 3.0
5123 3.0
5124 4.0
5125 3.0
5126 3.0
5127 3.0
5128 3.0
5129 3.0
5130 4.0
5131 3.0
5132 3.0
5133 3.0
5134 3.0
5135 3.0
5136 4.0
5137 3.0
5138 3.0
5139 3.0
5140 3.0
5141 3.0
5142 4.0
5143 3.0
5144 3.0
5145 3.0
5146 3.0
5147 3.0
5148 4.0
5149 3.0
5150 3.0
5151 3.0
5152 3.0
5153 3.0
5154 4.0
5155 3.0
5156 3.0
5157 3.0
5158 3.0
5159 3.0
5160 4.0
5161 3.0
5162 3.0
5163 3.0
5164 3.0
5165 3.0
5166 4.0
5167 3.0
5168 3.0
5169 3.0
5170 3.0
5171 3.0
5172 4.0
5173 3.0
5174 3.0
5175 3.0
5176 3.0
5177 3.0
5178 4.0
5179 3.0
5180 3.0
5181 3.0
5182 3.0
5183 3.0
5184 4.0
5185 3.0
5186 3.0
5187 3.0
5188 3.0
5189 3.0
5190 4.0
5191 3.0
5192 3.0
5193 3.0
5194 3.0
5195 3.0
5196 4.0
5197 3.0
5198 3.0
5199 3.0
5200 3.0
5201 1.0
5202 2.0
5203 2.0
5204 2.0
5205 2.0
5206 2.0
5207 2.0
5208 2.0
5209 2.0
5210 2.0
5211 2.0
5212 2.0
5213 2.0
5214 2.0
5215 2.0
5216 2.0
5217 2.0
5218 2.0
5219 2.0
5220 2.0
5221 2.0
5222 2.0
5223 2.0
5224 2.0
5225 2.0
5226 2.0
5227 2.0
5228 2.0
5229 2.0
5230 2.0
5231 2.0
5232 2.0
5233 2.0
5234 2.0
5235 2.0
5236 2.0
5237 2.0
5238 2.0
5239 2.0
5240 2.0
5241 2.0
5242 2.0
5243 2.0
5244 2.0
5245 2.0
5246 2.0
5247 2.0
5248 2.0
5249 2.0
5250 2.0
5251 2.0
5252 2.0
5253 2.0
5254 2.0
5255 2.0
5256 2.0
5257 2.0
5258 2.0
5259 2.0
5260 2.0
5261 2.0
5262 2.0
5263 2.0
5264 2.0
5265 1.0
5266 3.0
5267 3.0
5268 3.0
5269 3.0
5270 3.0
5271 3.0
5272 3.0
5273 3.0
5274 3.0
5275 3.0
5276 3.0
5277 3.0
5278 3.0
5279 3.0
5280 3.0
5281 3.0
5282 3.0
5283 3.0
5284 3.0
5285 3.0
5286 3.0
5287 3.0
5288 3.0
5289 3.0
5290 3.0
5291 3.0
5292 3.0
5293 3.0
5294 3.0
5295 3.0
5296 3.0
5297 3.0
5298 3.0
5299 3.0
5300 3.0
5301 3.0
5302 3.0
5303 3.0
5304 3.0
5305 3.0
5306 3.0
5307 3.0
5308 3.0
5309 3.0
5310 3.0
5311 3.0
5312 3.0
5313 3.0
5314 3.0
5315 3.0
5316 3.0
5317 3.0
5318 3.0
5319 3.0
5320 3.0
5321 3.0
5322 3.0
5323 3.0
5324 3.0
5325 3.0
5326 3.0
5327 3.0
5328 3.0
5329 3.0
5330 3.0
5331 3.0
5332 3.0
5333 3.0
5334 3.0
5335 3.0
5336 3.0
5337 3.0
5338 3.0
5339 3.0
5340 3.0
5341 3.0
5342 3.0
5343 3.0
5344 3.0
5345 3.0
5346 3.0
5347 3.0
5348 3.0
5349 3.0
5350 3.0
5351 3.0
5352 3.0
5353 3.0
5354 3.0
5355 3.0
5356 3.0
5357 3.0
5358 3.0
5359 3.0
5360 3.0
5361 3.0
5362 2.0
5363 2.0
5364 2.0
5365 2.0
5366 2.0
5367 2.0
5368 2.0
5369 2.0
5370 2.0
5371 2.0
5372 2.0
5373 2.0
5374 2.0
5375 2.0
5376 2.0
5377 2.0
5378 2.0
5379 2.0
5380 2.0
5381 2.0
5382 2.0
5383 2.0
5384 2.0
5385 2.0
5386 2.0
5387 2.0
5388 2.0
5389 2.0
5390 2.0
5391 2.0
5392 2.0
5393 2.0
5394 2.0
5395 2.0
5396 2.0
5397 2.0
5398 2.0
5399 2.0
5400 2.0
5401 2.0
5402 2.0
5403 2.0
5404 2.0
5405 2.0
5406 2.0
5407 2.0
5408 2.0
5409 3.0
5410 3.0
5411 2.0
5412 2.0
5413 3.0
5414 3.0
5415 2.0
5416 2.0
5417 3.0
5418 3.0
5419 2.0
5420 2.0
5421 3.0
5422 3.0
5423 2.0
5424 2.0
5425 3.0
5426 3.0
5427 2.0
5428 2.0
5429 3.0
5430 3.0
5431 2.0
5432 2.0
5433 3.0
5434 3.0
5435 2.0
5436 2.0
5437 3.0
5438 3.0
5439 2.0
5440 2.0
5441 3.0
5442 3.0
5443 2.0
5444 2.0
5445 3.0
5446 3.0
5447 2.0
5448 2.0
5449 3.0
5450 3.0
5451 2.0
5452 2.0
5453 3.0
5454 3.0
5455 2.0
5456 2.0
5457 3.0
5458 3.0
5459 2.0
5460 2.0
5461 3.0
5462 3.0
5463 2.0
5464 2.0
5465 3.0
5466 3.0
5467 2.0
5468 2.0
5469 3.0
5470 3.0
5471 2.0
5472 2.0
5473 2.0
5474 3.0
5475 3.0
5476 2.0
5477 3.0
5478 3.0
5479 2.0
5480 3.0
5481 3.0
5482 2.0
5483 3.0
5484 3.0
5485 2.0
5486 3.0
5487 3.0
5488 2.0
5489 3.0
5490 3.0
5491 2.0
5492 3.0
5493 3.0
5494 2.0
5495 3.0
5496 3.0
5497 2.0
5498 3.0
5499 3.0
5500 2.0
5501 3.0
5502 3.0
5503 2.0
5504 3.0
5505 3.0
5506 2.0
5507 3.0
5508 3.0
5509 2.0
5510 3.0
5511 3.0
5512 2.0
5513 3.0
5514 3.0
5515 2.0
5516 3.0
5517 3.0
5518 2.0
5519 3.0
5520 3.0
5521 3.0
5522 3.0
5523 2.0
5524 2.0
5525 2.0
5526 3.0
5527 3.0
5528 2.0
5529 2.0
5530 2.0
5531 3.0
5532 3.0
5533 2.0
5534 2.0
5535 2.0
5536 3.0
5537 3.0
5538 2.0
5539 2.0
5540 2.0
5541 3.0
5542 3.0
5543 2.0
5544 2.0
5545 2.0
5546 3.0
5547 3.0
5548 2.0
5549 2.0
5550 2.0
5551 3.0
5552 3.0
5553 2.0
5554 2.0
5555 2.0
5556 3.0
5557 3.0
5558 2.0
5559 2.0
5560 2.0
5561 3.0
5562 3.0
5563 2.0
5564 2.0
5565 2.0
5566 3.0
5567 3.0
5568 2.0
5569 2.0
5570 2.0
5571 3.0
5572 3.0
5573 2.0
5574 2.0
5575 2.0
5576 3.0
5577 3.0
5578 2.0
5579 2.0
5580 2.0
5581 3.0
5582 3.0
5583 2.0
5584 2.0
5585 2.0
5586 3.0
5587 3.0
5588 2.0
5589 2.0
5590 2.0
5591 3.0
5592 3.0
5593 2.0
5594 2.0
5595 2.0
5596 3.0
5597 3.0
5598 2.0
5599 2.0
5600 2.0
5601 2.0
5602 2.0
5603 2.0
5604 2.0
5605 2.0
5606 2.0
5607 2.0
5608 2.0
5609 2.0
5610 2.0
5611 2.0
5612 2.0
5613 2.0
5614 2.0
5615 2.0
5616 2.0
5617 2.0
5618 2.0
5619 2.0
5620 2.0
5621 2.0
5622 2.0
5623 2.0
5624 2.0
5625 2.0
5626 2.0
5627 2.0
5628 2.0
5629 2.0
5630 2.0
5631 2.0
5632 2.0
5633 2.0
5634 2.0
5635 2.0
5636 2.0
5637 2.0
5638 2.0
5639 2.0
5640 2.0
5641 2.0
5642 2.0
5643 2.0
5644 2.0
5645 2.0
5646 2.0
5647 2.0
5648 2.0
5649 2.0
5650 2.0
5651 2.0
5652 2.0
5653 2.0
5654 2.0
5655 2.0
5656 2.0
5657 2.0
5658 2.0
5659 2.0
5660 2.0
5661 2.0
5662 2.0
5663 2.0
5664 2.0
5665 2.0
5666 2.0
5667 2.0
5668 2.0
5669 2.0
5670 2.0
5671 2.0
5672 2.0
5673 2.0
5674 2.0
5675 2.0
5676 2.0
5677 2.0
5678 2.0
5679 2.0
5680 2.0
5681 2.0
5682 2.0
5683 2.0
5684 2.0
5685 2.0
5686 2.0
5687 2.0
5688 2.0
5689 2.0
5690 2.0
5691 2.0
5692 2.0
5693 2.0
5694 2.0
5695 2.0
5696 2.0
5697 3.0
5698 4.0
5699 3.0
5700 3.0
5701 3.0
5702 3.0
5703 3.0
5704 4.0
5705 3.0
5706 3.0
5707 3.0
5708 3.0
5709 3.0
5710 4.0
5711 3.0
5712 3.0
5713 3.0
5714 3.0
5715 3.0
5716 4.0
5717 3.0
5718 3.0
5719 3.0
5720 3.0
5721 3.0
5722 4.0
5723 3.0
5724 3.0
5725 3.0
5726 3.0
5727 3.0
5728 4.0
5729 3.0
5730 3.0
5731 3.0
5732 3.0
5733 3.0
5734 4.0
5735 3.0
5736 3.0
5737 3.0
5738 3.0
5739 3.0
5740 4.0
5741 3.0
5742 3.0
5743 3.0
5744 3.0
5745 3.0
5746 4.0
5747 3.0
5748 3.0
5749 3.0
5750 3.0
5751 3.0
5752 4.0
5753 3.0
5754 3.0
5755 3.0
5756 3.0
5757 3.0
5758 4.0
5759 3.0
5760 3.0
5761 3.0
5762 3.0
5763 3.0
5764 4.0
5765 3.0
5766 3.0
5767 3.0
5768 3.0
5769 3.0
5770 4.0
5771 3.0
5772 3.0
5773 3.0
5774 3.0
5775 3.0
5776 4.0
5777 3.0
5778 3.0
5779 3.0
5780 3.0
5781 3.0
5782 4.0
5783 3.0
5784 3.0
5785 3.0
5786 3.0
5787 3.0
5788 4.0
5789 3.0
5790 3.0
5791 3.0
5792 3.0
5793 1.0
5794 2.0
5795 2.0
5796 2.0
5797 2.0
5798 2.0
5799 2.0
5800 2.0
5801 2.0
5802 2.0
5803 2.0
5804 2.0
5805 2.0
5806 2.0
5807 2.0
5808 2.0
5809 2.0
5810 2.0
5811 2.0
5812 2.0
5813 2.0
5814 2.0
5815 2.0
5816 2.0
5817 2.0
5818 2.0
5819 2.0
5820 2.0
5821 2.0
5822 2.0
5823 2.0
5824 2.0
5825 2.0
5826 2.0
5827 2.0
5828 2.0
5829 2.0
5830 2.0
5831 2.0
5832 2.0
5833 2.0
5834 2.0
5835 2.0
5836 2.0
5837 2.0
5838 2.0
5839 2.0
5840 2.0
5841 2.0
5842 2.0
5843 2.0
5844 2.0
5845 2.0
5846 2.0
5847 2.0
5848 2.0
5849 2.0
5850 2.0
5851 2.0
5852 2.0
5853 2.0
5854 2.0
5855 2.0
5856 2.0
5857 1.0
5858 3.0
5859 3.0
5860 3.0
5861 3.0
5862 3.0
5863 3.0
5864 3.0
5865 3.0
5866 3.0
5867 3.0
5868 3.0
5869 3.0
5870 3.0
5871 3.0
5872 3.0
5873 3.0
5874 3.0
5875 3.0
5876 3.0
5877 3.0
5878 3.0
5879 3.0
5880 3.0
5881 3.0
5882 3.0
5883 3.0
5884 3.0
5885 3.0
5886 3.0
5887 3.0
5888 3.0
5889 3.0
5890 3.0
5891 3.0
5892 3.0
5893 3.0
5894 3.0
5895 3.0
5896 3.0
5897 3.0
5898 3.0
5899 3.0
5900 3.0
5901 3.0
5902 3.0
5903 3.0
5904 3.0
5905 3.0
5906 3.0
5907 3.0
5908 3.0
5909 3.0
5910 3.0
5911 3.0
5912 3.0
5913 3.0
5914 3.0
5915 3.0
5916 3.0
5917 3.0
5918 3.0
5919 3.0
5920 3.0
5921 3.0
5922 3.0
5923 3.0
5924 3.0
5925 3.0
5926 3.0
5927 3.0
5928 3.0
5929 3.0
5930 3.0
5931 3.0
5932 3.0
5933 3.0
5934 3.0
5935 3.0
5936 3.0
5937 3.0
5938 3.0
5939 3.0
5940 3.0
5941 3.0
5942 3.0
5943 3.0
5944 3.0
5945 3.0
5946 3.0
5947 3.0
5948 3.0
5949 3.0
5950 3.0
5951 3.0
5952 3.0
5953 3.0
5954 2.0
5955 2.0
5956 2.0
5957 2.0
5958 2.0
5959 2.0
5960 2.0
5961 2.0
5962 2.0
5963 2.0
5964 2.0
5965 2.0
5966 2.0
5967 2.0
5968 2.0
5969 2.0
5970 2.0
5971 2.0
5972 2.0
5973 2.0
5974 2.0
5975 2.0
5976 2.0
5977 2.0
5978 2.0
5979 2.0
5980 2.0
5981 2.0
5982 2.0
5983 2.0
5984 2.0
5985 2.0
5986 2.0
5987 2.0
5988 2.0
5989 2.0
5990 2.0
5991 2.0
5992 2.0
5993 2.0
5994 2.0
5995 2.0
5996 2.0
5997 2.0
5998 2.0
5999 2.0
6000 2.0
6001 3.0
6002 3.0
6003 2.0
6004 2.0
6005 3.0
6006 3.0
6007 2.0
6008 2.0
6009 3.0
6010 3.0
6011 2.0
6012 2.0
6013 3.0
6014 3.0
6015 2.0
6016 2.0
6017 3.0
6018 3.0
6019 2.0
6020 2.0
6021 3.0
6022 3.0
6023 2.0
6024 2.0
6025 3.0
6026 3.0
6027 2.0
6028 2.0
6029 3.0
6030 3.0
6031 2.0
6032 2.0
6033 3.0
6034 3.0
6035 2.0
6036 2.0
6037 3.0
6038 3.0
6039 2.0
6040 2.0
6041 3.0
6042 3.0
6043 2.0
6044 2.0
6045 3.0
6046 3.0
6047 2.0
6048 2.0
6049 3.0
6050 3.0
6051 2.0
6052 2.0
6053 3.0
6054 3.0
6055 2.0
6056 2.0
6057 3.0
6058 3.0
6059 2.0
6060 2.0
6061 3.0
6062 3.0
6063 2.0
6064 2.0
6065 2.0
6066 3.0
6067 3.0
6068 2.0
6069 3.0
6070 3.0
6071 2.0
6072 3.0
6073 3.0
6074 2.0
6075 3.0
6076 3.0
6077 2.0
6078 3.0
6079 3.0
6080 2.0
6081 3.0
6082 3.0
6083 2.0
6084 3.0
6085 3.0
6086 2.0
6087 3.0
6088 3.0
6089 2.0
6090 3.0
6091 3.0
6092 2.0
6093 3.0
6094 3.0
6095 2.0
6096 3.0
6097 3.0
6098 2.0
6099 3.0
6100 3.0
6101 2.0
6102 3.0
6103 3.0
6104 2.0
6105 3.0
6106 3.0
6107 2.0
6108 3.0
6109 3.0
6110 2.0
6111 3.0
6112 3.0
6113 3.0
6114 3.0
6115 2.0
6116 2.0
6117 2.0
6118 3.0
6119 3.0
6120 2.0
6121 2.0
6122 2.0
6123 3.0
6124 3.0
6125 2.0
6126 2.0
6127 2.0
6128 3.0
6129 3.0
6130 2.0
6131 2.0
6132 2.0
6133 3.0
6134 3.0
6135 2.0
6136 2.0
6137 2.0
6138 3.0
6139 3.0
6140 2.0
6141 2.0
6142 2.0
6143 3.0
6144 3.0
6145 2.0
6146 2.0
6147 2.0
6148 3.0
6149 3.0
6150 2.0
6151 2.0
6152 2.0
6153 3.0
6154 3.0
6155 2.0
6156 2.0
6157 2.0
6158 3.0
6159 3.0
6160 2.0
6161 2.0
6162 2.0
6163 3.0
6164 3.0
6165 2.0
6166 2.0
6167 2.0
6168 3.0
6169 3.0
6170 2.0
6171 2.0
6172 2.0
6173 3.0
6174 3.0
6175 2.0
6176 2.0
6177 2.0
6178 3.0
6179 3.0
6180 2.0
6181 2.0
6182 2.0
6183 3.0
6184 3.0
6185 2.0
6186 2.0
6187 2.0
6188 3.0
6189 3.0
6190 2.0
6191 2.0
6192 2.0
6193 2.0
6194 2.0
6195 2.0
6196 2.0
6197 2.0
6198 2.0
6199 2.0
6200 2.0
6201 2.0
6202 2.0
6203 2.0
6204 2.0
6205 2.0
6206 2.0
6207 2.0
6208 2.0
6209 2.0
6210 2.0
6211 2.0
6212 2.0
6213 2.0
6214 2.0
6215 2.0
6216 2.0
6217 2.0
6218 2.0
6219 2.0
6220 2.0
6221 2.0
6222 2.0
6223 2.0
6224 2.0
6225 2.0
6226 2.0
6227 2.0
6228 2.0
6229 2.0
6230 2.0
6231 2.0
6232 2.0
6233 2.0
6234 2.0
6235 2.0
6236 2.0
6237 2.0
6238 2.0
6239 2.0
6240 2.0
6241 2.0
6242 2.0
6243 2.0
6244 2.0
6245 2.0
6246 2.0
6247 2.0
6248 2.0
6249 2.0
6250 2.0
6251 2.0
6252 2.0
6253 2.0
6254 2.0
6255 2.0
6256 2.0
6257 2.0
6258 2.0
6259 2.0
6260 2.0
6261 2.0
6262 2.0
6263 2.0
6264 2.0
6265 2.0
6266 2.0
6267 2.0
6268 2.0
6269 2.0
6270 2.0
6271 2.0
6272 2.0
6273 2.0
6274 2.0
6275 2.0
6276 2.0
6277 2.0
6278 2.0
6279 2.0
6280 2.0
6281 2.0
6282 2.0
6283 2.0
6284 2.0
6285 2.0
6286 2.0
6287 2.0
6288 2.0
6289 3.0
6290 4.0
6291 3.0
6292 3.0
6293 3.0
6294 3.0
6295 3.0
6296 4.0
6297 3.0
6298 3.0
6299 3.0
6300 3.0
6301 3.0
6302 4.0
6303 3.0
6304 3.0
6305 3.0
6306 3.0
6307 3.0
6308 4.0
6309 3.0
6310 3.0
6311 3.0
6312 3.0
6313 3.0
6314 4.0
6315 3.0
6316 3.0
6317 3.0
6318 3.0
6319 3.0
6320 4.0
6321 3.0
6322 3.0
6323 3.0
6324 3.0
6325 3.0
6326 4.0
6327 3.0
6328 3.0
6329 3.0
6330 3.0
6331 3.0
6332 4.0
6333 3.0
6334 3.0
6335 3.0
6336 3.0
6337 3.0
6338 4.0
6339 3.0
6340 3.0
6341 3.0
6342 3.0
6343 3.0
6344 4.0
6345 3.0
6346 3.0
6347 3.0
6348 3.0
6349 3.0
6350 4.0
6351 3.0
6352 3.0
6353 3.0
6354 3.0
6355 3.0
6356 4.0
6357 3.0
6358 3.0
6359 3.0
6360 3.0
6361 3.0
6362 4.0
6363 3.0
6364 3.0
6365 3.0
6366 3.0
6367 3.0
6368 4.0
6369 3.0
6370 3.0
6371 3.0
6372 3.0
6373 3.0
6374 4.0
6375 3.0
6376 3.0
6377 3.0
6378 3.0
6379 3.0
6380 4.0
6381 3.0
6382 3.0
6383 3.0
6384 3.0
6385 1.0
6386 2.0
6387 2.0
6388 2.0
6389 2.0
6390 2.0
6391 2.0
6392 2.0
6393 2.0
6394 2.0
6395 2.0
6396 2.0
6397 2.0
6398 2.0
6399 2.0
6400 2.0
6401 2.0
6402 2.0
6403 2.0
6404 2.0
6405 2.0
6406 2.0
6407 2.0
6408 2.0
6409 2.0
6410 2.0
6411 2.0
6412 2.0
6413 2.0
6414 2.0
6415 2.0
6416 2.0
6417 2.0
6418 2.0
6419 2.0
6420 2.0
6421 2.0
6422 2.0
6423 2.0
6424 2.0
6425 2.0
6426 2.0
6427 2.0
6428 2.0
6429 2.0
6430 2.0
6431 2.0
6432 2.0
6433 2.0
6434 2.0
6435 2.0
6436 2.0
6437 2.0
6438 2.0
6439 2.0
6440 2.0
6441 2.0
6442 2.0
6443 2.0
6444 2.0
6445 2.0
6446 2.0
6447 2.0
6448 2.0
6449 1.0
6450 3.0
6451 3.0
6452 3.0
6453 3.0
6454 3.0
6455 3.0
6456 3.0
6457 3.0
6458 3.0
6459 3.0
6460 3.0
6461 3.0
6462 3.0
6463 3.0
6464 3.0
6465 3.0
6466 3.0
6467 3.0
6468 3.0
6469 3.0
6470 3.0
6471 3.0
6472 3.0
6473 3.0
6474 3.0
6475 3.0
6476 3.0
6477 3.0
6478 3.0
6479 3.0
6480 3.0
6481 3.0
6482 3.0
6483 3.0
6484 3.0
6485 3.0
6486 3.0
6487 3.0
6488 3.0
6489 3.0
6490 3.0
6491 3.0
6492 3.0
6493 3.0
6494 3.0
6495 3.0
6496 3.0
6497 3.0
6498 3.0
6499 3.0
6500 3.0
6501 3.0
6502 3.0
6503 3.0
6504 3.0
6505 3.0
6506 3.0
6507 3.0
6508 3.0
6509 3.0
6510 3.0
6511 3.0
6512 3.0
6513 3.0
6514 3.0
6515 3.0
6516 3.0
6517 3.0
6518 3.0
6519 3.0
6520 3.0
6521 3.0
6522 3.0
6523 3.0
6524 3.0
6525 3.0
6526 3.0
6527 3.0
6528 3.0
6529 3.0
6530 3.0
6531 3.0
6532 3.0
6533 3.0
6534 3.0
6535 3.0
6536 3.0
6537 3.0
6538 3.0
6539 3.0
6540 3.0
6541 3.0
6542 3.0
6543 3.0
6544 3.0
6545 3.0
6546 2.0
6547 2.0
6548 2.0
6549 2.0
6550 2.0
6551 2.0
6552 2.0
6553 2.0
6554 2.0
6555 2.0
6556 2.0
6557 2.0
6558 2.0
6559 2.0
6560 2.0
6561 2.0
6562 2.0
6563 2.0
6564 2.0
6565 2.0
6566 2.0
6567 2.0
6568 2.0
6569 2.0
6570 2.0
6571 2.0
6572 2.0
6573 2.0
6574 2.0
6575 2.0
6576 2.0
6577 2.0
6578 2.0
6579 2.0
6580 2.0
6581 2.0
6582 2.0
6583 2.0
6584 2.0
6585 2.0
6586 2.0
6587 2.0
6588 2.0
6589 2.0
6590 2.0
6591 2.0
6592 2.0
6593 3.0
6594 3.0
6595 2.0
6596 2.0
6597 3.0
6598 3.0
6599 2.0
6600 2.0
6601 3.0
6602 3.0
6603 2.0
6604 2.0
6605 3.0
6606 3.0
6607 2.0
6608 2.0
6609 3.0
6610 3.0
6611 2.0
6612 2.0
6613 3.0
6614 3.0
6615 2.0
6616 2.0
6617 3.0
6618 3.0
6619 2.0
6620 2.0
6621 3.0
6622 3.0
6623 2.0
6624 2.0
6625 3.0
6626 3.0
6627 2.0
6628 2.0
6629 3.0
6630 3.0
6631 2.0
6632 2.0
6633 3.0
6634 3.0
6635 2.0
6636 2.0
6637 3.0
6638 3.0
6639 2.0
6640 2.0
6641 3.0
6642 3.0
6643 2.0
6644 2.0
6645 3.0
6646 3.0
6647 2.0
6648 2.0
6649 3.0
6650 3.0
6651 2.0
6652 2.0
6653 3.0
6654 3.0
6655 2.0
6656 2.0
6657 2.0
6658 3.0
6659 3.0
6660 2.0
6661 3.0
6662 3.0
6663 2.0
6664 3.0
6665 3.0
6666 2.0
6667 3.0
6668 3.0
6669 2.0
6670 3.0
6671 3.0
6672 2.0
6673 3.0
6674 3.0
6675 2.0
6676 3.0
6677 3.0
6678 2.0
6679 3.0
6680 3.0
6681 2.0
6682 3.0
6683 3.0
6684 2.0
6685 3.0
6686 3.0
6687 2.0
6688 3.0
6689 3.0
6690 2.0
6691 3.0
6692 3.0
6693 2.0
6694 3.0
6695 3.0
6696 2.0
6697 3.0
6698 3.0
6699 2.0
6700 3.0
6701 3.0
6702 2.0
6703 3.0
6704 3.0
6705 3.0
6706 3.0
6707 2.0
6708 2.0
6709 2.0
6710 3.0
6711 3.0
6712 2.0
6713 2.0
6714 2.0
6715 3.0
6716 3.0
6717 2.0
6718 2.0
6719 2.0
6720 3.0
6721 3.0
6722 2.0
6723 2.0
6724 2.0
6725 3.0
6726 3.0
6727 2.0
6728 2.0
6729 2.0
6730 3.0
6731 3.0
6732 2.0
6733 2.0
6734 2.0
6735 3.0
6736 3.0
6737 2.0
6738 2.0
6739 2.0
6740 3.0
6741 3.0
6742 2.0
6743 2.0
6744 2.0
6745 3.0
6746 3.0
6747 2.0
6748 2.0
6749 2.0
6750 3.0
6751 3.0
6752 2.0
6753 2.0
6754 2.0
6755 3.0
6756 3.0
6757 2.0
6758 2.0
6759 2.0
6760 3.0
6761 3.0
6762 2.0
6763 2.0
6764 2.0
6765 3.0
6766 3.0
6767 2.0
6768 2.0
6769 2.0
6770 3.0
6771 3.0
6772 2.0
6773 2.0
6774 2.0
6775 3.0
6776 3.0
6777 2.0
6778 2.0
6779 2.0
6780 3.0
6781 3.0
6782 2.0
6783 2.0
6784 2.0
6785 2.0
6786 2.0
6787 2.0
6788 2.0
6789 2.0
6790 2.0
6791 2.0
6792 2.0
6793 2.0
6794 2.0
6795 2.0
6796 2.0
6797 2.0
6798 2.0
6799 2.0
6800 2.0
6801 2.0
6802 2.0
6803 2.0
6804 2.0
6805 2.0
6806 2.0
6807 2.0
6808 2.0
6809 2.0
6810 2.0
6811 2.0
6812 2.0
6813 2.0
6814 2.0
6815 2.0
6816 2.0
6817 2.0
6818 2.0
6819 2.0
6820 2.0
6821 2.0
6822 2.0
6823 2.0
6824 2.0
6825 2.0
6826 2.0
6827 2.0
6828 2.0
6829 2.0
6830 2.0
6831 2.0
6832 2.0
6833 2.0
6834 2.0
6835 2.0
6836 2.0
6837 2.0
6838 2.0
6839 2.0
6840 2.0
6841 2.0
6842 2.0
6843 2.0
6844 2.0
6845 2.0
6846 2.0
6847 2.0
6848 2.0
6849 2.0
6850 2.0
6851 2.0
6852 2.0
6853 2.0
6854 2.0
6855 2.0
6856 2.0
6857 2.0
6858 2.0
6859 2.0
6860 2.0
6861 2.0
6862 2.0
6863 2.0
6864 2.0
6865 2.0
6866 2.0
6867 2.0
6868 2.0
6869 2.0
6870 2.0
6871 2.0
6872 2.0
6873 2.0
6874 2.0
6875 2.0
6876 2.0
6877 2.0
6878 2.0
6879 2.0
6880 2.0
6881 3.0
6882 4.0
6883 3.0
6884 3.0
6885 3.0
6886 3.0
6887 3.0
6888 4.0
6889 3.0
6890 3.0
6891 3.0
6892 3.0
6893 3.0
6894 4.0
6895 3.0
6896 3.0
6897 3.0
6898 3.0
6899 3.0
6900 4.0
6901 3.0
6902 3.0
6903 3.0
6904 3.0
6905 3.0
6906 4.0
6907 3.0
6908 3.0
6909 3.0
6910 3.0
6911 3.0
6912 4.0
6913 3.0
6914 3.0
6915 3.0
6916 3.0
6917 3.0
6918 4.0
6919 3.0
6920 3.0
6921 3.0
6922 3.0
6923 3.0
6924 4.0
6925 3.0
6926 3.0
6927 3.0
6928 3.0
6929 3.0
6930 4.0
6931 3.0
6932 3.0
6933 3.0
6934 3.0
6935 3.0
6936 4.0
6937 3.0
6938 3.0
6939 3.0
6940 3.0
6941 3.0
6942 4.0
6943 3.0
6944 3.0
6945 3.0
6946 3.0
6947 3.0
6948 4.0
6949 3.0
6950 3.0
6951 3.0
6952 3.0
6953 3.0
6954 4.0
6955 3.0
6956 3.0
6957 3.0
6958 3.0
6959 3.0
6960 4.0
6961 3.0
6962 3.0
6963 3.0
6964 3.0
6965 3.0
6966 4.0
6967 3.0
6968 3.0
6969 3.0
6970 3.0
6971 3.0
6972 4.0
6973 3.0
6974 3.0
6975 3.0
6976 3.0
6977 1.0
6978 2.0
6979 2.0
6980 2.0
6981 2.0
6982 2.0
6983 2.0
6984 2.0
6985 2.0
6986 2.0
6987 2.0
6988 2.0
6989 2.0
6990 2.0
6991 2.0
6992 2.0
6993 2.0
6994 2.0
6995 2.0
6996 2.0
6997 2.0
6998 2.0
6999 2.0
7000 2.0
7001 2.0
7002 2.0
7003 2.0
7004 2.0
7005 2.0
7006 2.0
7007 2.0
7008 2.0
7009 2.0
7010 2.0
7011 2.0
7012 2.0
7013 2.0
7014 2.0
7015 2.0
7016 2.0
7017 2.0
7018 2.0
7019 2.0
7020 2.0
7021 2.0
7022 2.0
7023 2.0
7024 2.0
7025 2.0
7026 2.0
7027 2.0
7028 2.0
7029 2.0
7030 2.0
7031 2.0
7032 2.0
7033 2.0
7034 2.0
7035 2.0
7036 2.0
7037 2.0
7038 2.0
7039 2.0
7040 2.0
7041 1.0
7042 3.0
7043 3.0
7044 3.0
7045 3.0
7046 3.0
7047 3.0
7048 3.0
7049 3.0
7050 3.0
7051 3.0
7052 3.0
7053 3.0
7054 3.0
7055 3.0
7056 3.0
7057 3.0
7058 3.0
7059 3.0
7060 3.0
7061 3.0
7062 3.0
7063 3.0
7064 3.0
7065 3.0
7066 3.0
7067 3.0
7068 3.0
7069 3.0
7070 3.0
7071 3.0
7072 3.0
7073 3.0
7074 3.0
7075 3.0
7076 3.0
7077 3.0
7078 3.0
7079 3.0
7080 3.0
7081 3.0
7082 3.0
7083 3.0
7084 3.0
7085 3.0
7086 3.0
7087 3.0
7088 3.0
7089 3.0
7090 3.0
7091 3.0
7092 3.0
7093 3.0
7094 3.0
7095 3.0
7096 3.0
7097 3.0
7098 3.0
7099 3.0
7100 3.0
7101 3.0
7102 3.0
7103 3.0
7104 3.0
7105 3.0
7106 3.0
7107 3.0
7108 3.0
7109 3.0
7110 3.0
7111 3.0
7112 3.0
7113 3.0
7114 3.0
7115 3.0
7116 3.0
7117 3.0
7118 3.0
7119 3.0
7120 3.0
7121 3.0
7122 3.0
7123 3.0
7124 3.0
7125 3.0
7126 3.0
7127 3.0
7128 3.0
7129 3.0
7130 3.0
7131 3.0
7132 3.0
7133 3.0
7134 3.0
7135 3.0
7136 2.0
7137 2.0
7138 2.0
7139 2.0
7140 2.0
7141 2.0
7142 2.0
7143 2.0
7144 2.0
7145 2.0
7146 2.0
7147 2.0
7148 2.0
7149 2.0
7150 2.0
7151 2.0
7152 2.0
7153 2.0
7154 2.0
7155 2.0
7156 2.0
7157 2.0
7158 2.0
7159 2.0
7160 2.0
7161 2.0
7162 2.0
7163 2.0
7164 2.0
7165 2.0
7166 2.0
7167 2.0
7168 2.0
7169 2.0
7170 2.0
7171 2.0
7172 2.0
7173 2.0
7174 2.0
7175 2.0
7176 2.0
7177 2.0
7178 2.0
7179 2.0
7180 2.0
7181 2.0
7182 2.0
7183 3.0
7184 3.0
7185 2.0
7186 2.0
7187 3.0
7188 3.0
7189 2.0
7190 2.0
7191 3.0
7192 3.0
7193 2.0
7194 2.0
7195 3.0
7196 3.0
7197 2.0
7198 2.0
7199 3.0
7200 3.0
7201 2.0
7202 2.0
7203 3.0
7204 3.0
7205 2.0
7206 2.0
7207 3.0
7208 3.0
7209 2.0
7210 2.0
7211 3.0
7212 3.0
7213 2.0
7214 2.0
7215 3.0
7216 3.0
7217 2.0
7218 2.0
7219 3.0
7220 3.0
7221 2.0
7222 2.0
7223 3.0
7224 3.0
7225 2.0
7226 2.0
7227 3.0
7228 3.0
7229 2.0
7230 2.0
7231 3.0
7232 3.0
7233 2.0
7234 2.0
7235 3.0
7236 3.0
7237 2.0
7238 2.0
7239 3.0
7240 3.0
7241 2.0
7242 2.0
7243 3.0
7244 3.0
7245 2.0
7246 2.0
7247 2.0
7248 3.0
7249 3.0
7250 2.0
7251 3.0
7252 3.0
7253 2.0
7254 3.0
7255 3.0
7256 2.0
7257 3.0
7258 3.0
7259 2.0
7260 3.0
7261 3.0
7262 2.0
7263 3.0
7264 3.0
7265 2.0
7266 3.0
7267 3.0
7268 2.0
7269 3.0
7270 3.0
7271 2.0
7272 3.0
7273 3.0
7274 2.0
7275 3.0
7276 3.0
7277 2.0
7278 3.0
7279 3.0
7280 2.0
7281 3.0
7282 3.0
7283 2.0
7284 3.0
7285 3.0
7286 2.0
7287 3.0
7288 3.0
7289 2.0
7290 3.0
7291 3.0
7292 2.0
7293 3.0
7294 3.0
7295 3.0
7296 3.0
7297 2.0
7298 2.0
7299 2.0
7300 3.0
7301 3.0
7302 2.0
7303 2.0
7304 2.0
7305 3.0
7306 3.0
7307 2.0
7308 2.0
7309 2.0
7310 3.0
7311 3.0
7312 2.0
7313 2.0
7314 2.0
7315 3.0
7316 3.0
7317 2.0
7318 2.0
7319 2.0
7320 3.0
7321 3.0
7322 2.0
7323 2.0
7324 2.0
7325 3.0
7326 3.0
7327 2.0
7328 2.0
7329 2.0
7330 3.0
7331 3.0
7332 2.0
7333 2.0
7334 2.0
7335 3.0
7336 3.0
7337 2.0
7338 2.0
7339 2.0
7340 3.0
7341 3.0
7342 2.0
7343 2.0
7344 2.0
7345 3.0
7346 3.0
7347 2.0
7348 2.0
7349 2.0
7350 3.0
7351 3.0
7352 2.0
7353 2.0
7354 2.0
7355 3.0
7356 3.0
7357 2.0
7358 2.0
7359 2.0
7360 3.0
7361 3.0
7362 2.0
7363 2.0
7364 2.0
7365 3.0
7366 3.0
7367 2.0
7368 2.0
7369 2.0
7370 3.0
7371 3.0
7372 2.0
7373 2.0
7374 2.0
7375 2.0
7376 2.0
7377 2.0
7378 2.0
7379 2.0
7380 2.0
7381 2.0
7382 2.0
7383 2.0
7384 2.0
7385 2.0
7386 2.0
7387 2.0
7388 2.0
7389 2.0
7390 2.0
7391 2.0
7392 2.0
7393 2.0
7394 2.0
7395 2.0
7396 2.0
7397 2.0
7398 2.0
7399 2.0
7400 2.0
7401 2.0
7402 2.0
7403 2.0
7404 2.0
7405 2.0
7406 2.0
7407 2.0
7408 2.0
7409 2.0
7410 2.0
7411 2.0
7412 2.0
7413 2.0
7414 2.0
7415 2.0
7416 2.0
7417 2.0
7418 2.0
7419 2.0
7420 2.0
7421 2.0
7422 2.0
7423 2.0
7424 2.0
7425 2.0
7426 2.0
7427 2.0
7428 2.0
7429 2.0
7430 2.0
7431 2.0
7432 2.0
7433 2.0
7434 2.0
7435 2.0
7436 2.0
7437 2.0
7438 2.0
7439 2.0
7440 2.0
7441 2.0
7442 2.0
7443 2.0
7444 2.0
7445 2.0
7446 2.0
7447 2.0
7448 2.0
7449 2.0
7450 2.0
7451 2.0
7452 2.0
7453 2.0
7454 2.0
7455 2.0
7456 2.0
7457 2.0
7458 2.0
7459 2.0
7460 2.0
7461 2.0
7462 2.0
7463 2.0
7464 2.0
7465 2.0
7466 2.0
7467 2.0
7468 2.0
7469 2.0
7470 2.0
7471 3.0
7472 4.0
7473 3.0
7474 3.0
7475 3.0
7476 3.0
7477 3.0
7478 4.0
7479 3.0
7480 3.0
7481 3.0
7482 3.0
7483 3.0
7484 4.0
7485 3.0
7486 3.0
7487 3.0
7488 3.0
7489 3.0
7490 4.0
7491 3.0
7492 3.0
7493 3.0
7494 3.0
7495 3.0
7496 4.0
7497 3.0
7498 3.0
7499 3.0
7500 3.0
7501 3.0
7502 4.0
7503 3.0
7504 3.0
7505 3.0
7506 3.0
7507 3.0
7508 4.0
7509 3.0
7510 3.0
7511 3.0
7512 3.0
7513 3.0
7514 4.0
7515 3.0
7516 3.0
7517 3.0
7518 3.0
7519 3.0
7520 4.0
7521 3.0
7522 3.0
7523 3.0
7524 3.0
7525 3.0
7526 4.0
7527 3.0
7528 3.0
7529 3.0
7530 3.0
7531 3.0
7532 4.0
7533 3.0
7534 3.0
7535 3.0
7536 3.0
7537 3.0
7538 4.0
7539 3.0
7540 3.0
7541 3.0
7542 3.0
7543 3.0
7544 4.0
7545 3.0
7546 3.0
7547 3.0
7548 3.0
7549 3.0
7550 4.0
7551 3.0
7552 3.0
7553 3.0
7554 3.0
7555 3.0
7556 4.0
7557 3.0
7558 3.0
7559 3.0
7560 3.0
7561 3.0
7562 4.0
7563 3.0
7564 3.0
7565 3.0
7566 3.0
7567 1.0
7568 2.0
7569 2.0
7570 2.0
7571 2.0
7572 2.0
7573 2.0
7574 2.0
7575 2.0
7576 2.0
7577 2.0
7578 2.0
7579 2.0
7580 2.0
7581 2.0
7582 2.0
7583 2.0
7584 2.0
7585 2.0
7586 2.0
7587 2.0
7588 2.0
7589 2.0
7590 2.0
7591 2.0
7592 2.0
7593 2.0
7594 2.0
7595 2.0
7596 2.0
7597 2.0
7598 2.0
7599 2.0
7600 2.0
7601 2.0
7602 2.0
7603 2.0
7604 2.0
7605 2.0
7606 2.0
7607 2.0
7608 2.0
7609 2.0
7610 2.0
7611 2.0
7612 2.0
7613 2.0
7614 2.0
7615 2.0
7616 2.0
7617 2.0
7618 2.0
7619 2.0
7620 2.0
7621 2.0
7622 2.0
7623 2.0
7624 2.0
7625 2.0
7626 2.0
7627 2.0
7628 2.0
7629 2.0
7630 2.0
7631 1.0
7632 3.0
7633 3.0
7634 3.0
7635 3.0
7636 3.0
7637 3.0
7638 3.0
7639 3.0
7640 3.0
7641 3.0
7642 3.0
7643 3.0
7644 3.0
7645 3.0
7646 3.0
7647 3.0
7648 3.0
7649 3.0
7650 3.0
7651 3.0
7652 3.0
7653 3.0
7654 3.0
7655 3.0
7656 3.0
7657 3.0
7658 3.0
7659 3.0
7660 3.0
7661 3.0
7662 3.0
7663 3.0
7664 3.0
7665 3.0
7666 3.0
7667 3.0
7668 3.0
7669 3.0
7670 3.0
7671 3.0
7672 3.0
7673 3.0
7674 3.0
7675 3.0
7676 3.0
7677 3.0
7678 3.0
7679 3.0
7680 3.0
7681 3.0
7682 3.0
7683 3.0
7684 3.0
7685 3.0
7686 3.0
7687 3.0
7688 3.0
7689 3.0
7690 3.0
7691 3.0
7692 3.0
7693 3.0
7694 3.0
7695 3.0
7696 3.0
7697 3.0
7698 3.0
7699 3.0
7700 3.0
7701 3.0
7702 3.0
7703 3.0
7704 3.0
7705 3.0
7706 3.0
7707 3.0
7708 3.0
7709 3.0
7710 3.0
7711 3.0
7712 3.0
7713 3.0
7714 3.0
7715 3.0
7716 3.0
7717 3.0
7718 3.0
7719 3.0
7720 3.0
7721 3.0
7722 3.0
7723 3.0
7724 3.0
7725 3.0
7726 2.0
7727 2.0
7728 2.0
7729 2.0
7730 2.0
7731 2.0
7732 2.0
7733 2.0
7734 2.0
7735 2.0
7736 2.0
7737 2.0
7738 2.0
7739 2.0
7740 2.0
7741 2.0
7742 2.0
7743 2.0
7744 2.0
7745 2.0
7746 2.0
7747 2.0
7748 2.0
7749 2.0
7750 2.0
7751 2.0
7752 2.0
7753 2.0
7754 2.0
7755 2.0
7756 2.0
7757 2.0
7758 2.0
7759 2.0
7760 2.0
7761 2.0
7762 2.0
7763 2.0
7764 2.0
7765 2.0
7766 2.0
7767 2.0
7768 2.0
7769 2.0
7770 2.0
7771 2.0
7772 2.0
7773 3.0
7774 3.0
7775 2.0
7776 2.0
7777 3.0
7778 3.0
7779 2.0
7780 2.0
7781 3.0
7782 3.0
7783 2.0
7784 2.0
7785 3.0
7786 3.0
7787 2.0
7788 2.0
7789 3.0
7790 3.0
7791 2.0
7792 2.0
7793 3.0
7794 3.0
7795 2.0
7796 2.0
7797 3.0
7798 3.0
7799 2.0
7800 2.0
7801 3.0
7802 3.0
7803 2.0
7804 2.0
7805 3.0
7806 3.0
7807 2.0
7808 2.0
7809 3.0
7810 3.0
7811 2.0
7812 2.0
7813 3.0
7814 3.0
7815 2.0
7816 2.0
7817 3.0
7818 3.0
7819 2.0
7820 2.0
7821 3.0
7822 3.0
7823 2.0
7824 2.0
7825 3.0
7826 3.0
7827 2.0
7828 2.0
7829 3.0
7830 3.0
7831 2.0
7832 2.0
7833 3.0
7834 3.0
7835 2.0
7836 2.0
7837 2.0
7838 3.0
7839 3.0
7840 2.0
7841 3.0
7842 3.0
7843 2.0
7844 3.0
7845 3.0
7846 2.0
7847 3.0
7848 3.0
7849 2.0
7850 3.0
7851 3.0
7852 2.0
7853 3.0
7854 3.0
7855 2.0
7856 3.0
7857 3.0
7858 2.0
7859 3.0
7860 3.0
7861 2.0
7862 3.0
7863 3.0
7864 2.0
7865 3.0
7866 3.0
7867 2.0
7868 3.0
7869 3.0
7870 2.0
7871 3.0
7872 3.0
7873 2.0
7874 3.0
7875 3.0
7876 2.0
7877 3.0
7878 3.0
7879 2.0
7880 3.0
7881 3.0
7882 2.0
7883 3.0
7884 3.0
7885 3.0
7886 3.0
7887 2.0
7888 2.0
7889 2.0
7890 3.0
7891 3.0
7892 2.0
7893 2.0
7894 2.0
7895 3.0
7896 3.0
7897 2.0
7898 2.0
7899 2.0
7900 3.0
7901 3.0
7902 2.0
7903 2.0
7904 2.0
7905 3.0
7906 3.0
7907 2.0
7908 2.0
7909 2.0
7910 3.0
7911 3.0
7912 2.0
7913 2.0
7914 2.0
7915 3.0
7916 3.0
7917 2.0
7918 2.0
7919 2.0
7920 3.0
7921 3.0
7922 2.0
7923 2.0
7924 2.0
7925 3.0
7926 3.0
7927 2.0
7928 2.0
7929 2.0
7930 3.0
7931 3.0
7932 2.0
7933 2.0
7934 2.0
7935 3.0
7936 3.0
7937 2.0
7938 2.0
7939 2.0
7940 3.0
7941 3.0
7942 2.0
7943 2.0
7944 2.0
7945 3.0
7946 3.0
7947 2.0
7948 2.0
7949 2.0
7950 3.0
7951 3.0
7952 2.0
7953 2.0
7954 2.0
7955 3.0
7956 3.0
7957 2.0
7958 2.0
7959 2.0
7960 3.0
7961 3.0
7962 2.0
7963 2.0
7964 2.0
7965 2.0
7966 2.0
7967 2.0
7968 2.0
7969 2.0
7970 2.0
7971 2.0
7972 2.0
7973 2.0
7974 2.0
7975 2.0
7976 2.0
7977 2.0
7978 2.0
7979 2.0
7980 2.0
7981 2.0
7982 2.0
7983 2.0
7984 2.0
7985 2.0
7986 2.0
7987 2.0
7988 2.0
7989 2.0
7990 2.0
7991 2.0
7992 2.0
7993 2.0
7994 2.0
7995 2.0
7996 2.0
7997 2.0
7998 2.0
7999 2.0
8000 2.0
8001 2.0
8002 2.0
8003 2.0
8004 2.0
8005 2.0
8006 2.0
8007 2.0
8008 2.0
8009 2.0
8010 2.0
8011 2.0
8012 2.0
8013 2.0
8014 2.0
8015 2.0
8016 2.0
8017 2.0
8018 2.0
8019 2.0
8020 2.0
8021 2.0
8022 2.0
8023 2.0
8024 2.0
8025 2.0
8026 2.0
8027 2.0
8028 2.0
8029 2.0
8030 2.0
8031 2.0
8032 2.0
8033 2.0
8034 2.0
8035 2.0
8036 2.0
8037 2.0
8038 2.0
8039 2.0
8040 2.0
8041 2.0
8042 2.0
8043 2.0
8044 2.0
8045 2.0
8046 2.0
8047 2.0
8048 2.0
8049 2.0
8050 2.0
8051 2.0
8052 2.0
8053 2.0
8054 2.0
8055 2.0
8056 2.0
8057 2.0
8058 2.0
8059 2.0
8060 2.0
8061 3.0
8062 4.0
8063 3.0
8064 3.0
8065 3.0
8066 3.0
8067 3.0
8068 4.0
8069 3.0
8070 3.0
8071 3.0
8072 3.0
8073 3.0
8074 4.0
8075 3.0
8076 3.0
8077 3.0
8078 3.0
8079 3.0
8080 4.0
8081 3.0
8082 3.0
8083 3.0
8084 3.0
8085 3.0
8086 4.0
8087 3.0
8088 3.0
8089 3.0
8090 3.0
8091 3.0
8092 4.0
8093 3.0
8094 3.0
8095 3.0
8096 3.0
8097 3.0
8098 4.0
8099 3.0
8100 3.0
8101 3.0
8102 3.0
8103 3.0
8104 4.0
8105 3.0
8106 3.0
8107 3.0
8108 3.0
8109 3.0
8110 4.0
8111 3.0
8112 3.0
8113 3.0
8114 3.0
8115 3.0
8116 4.0
8117 3.0
8118 3.0
8119 3.0
8120 3.0
8121 3.0
8122 4.0
8123 3.0
8124 3.0
8125 3.0
8126 3.0
8127 3.0
8128 4.0
8129 3.0
8130 3.0
8131 3.0
8132 3.0
8133 3.0
8134 4.0
8135 3.0
8136 3.0
8137 3.0
8138 3.0
8139 3.0
8140 4.0
8141 3.0
8142 3.0
8143 3.0
8144 3.0
8145 3.0
8146 4.0
8147 3.0
8148 3.0
8149 3.0
8150 3.0
8151 3.0
8152 4.0
8153 3.0
8154 3.0
8155 3.0
8156 3.0
8157 1.0
8158 2.0
8159 2.0
8160 2.0
8161 2.0
8162 2.0
8163 2.0
8164 2.0
8165 2.0
8166 2.0
8167 2.0
8168 2.0
8169 2.0
8170 2.0
8171 2.0
8172 2.0
8173 2.0
8174 2.0
8175 2.0
8176 2.0
8177 2.0
8178 2.0
8179 2.0
8180 2.0
8181 2.0
8182 2.0
8183 2.0
8184 2.0
8185 2.0
8186 2.0
8187 2.0
8188 2.0
8189 2.0
8190 2.0
8191 2.0
8192 2.0
8193 2.0
8194 2.0
8195 2.0
8196 2.0
8197 2.0
8198 2.0
8199 2.0
8200 2.0
8201 2.0
8202 2.0
8203 2.0
8204 2.0
8205 2.0
8206 2.0
8207 2.0
8208 2.0
8209 2.0
8210 2.0
8211 2.0
8212 2.0
8213 2.0
8214 2.0
8215 2.0
8216 2.0
8217 2.0
8218 2.0
8219 2.0
8220 2.0
8221 1.0
8222 3.0
8223 3.0
8224 3.0
8225 3.0
8226 3.0
8227 3.0
8228 3.0
8229 3.0
8230 3.0
8231 3.0
8232 3.0
8233 3.0
8234 3.0
8235 3.0
8236 3.0
8237 3.0
8238 3.0
8239 3.0
8240 3.0
8241 3.0
8242 3.0
8243 3.0
8244 3.0
8245 3.0
8246 3.0
8247 3.0
8248 3.0
8249 3.0
8250 3.0
8251 3.0
8252 3.0
8253 3.0
8254 3.0
8255 3.0
8256 3.0
8257 3.0
8258 3.0
8259 3.0
8260 3.0
8261 3.0
8262 3.0
8263 3.0
8264 3.0
8265 3.0
8266 3.0
8267 3.0
8268 3.0
8269 3.0
8270 3.0
8271 3.0
8272 3.0
8273 3.0
8274 3.0
8275 3.0
8276 3.0
8277 3.0
8278 3.0
8279 3.0
8280 3.0
8281 3.0
8282 3.0
8283 3.0
8284 3.0
8285 3.0
8286 3.0
8287 3.0
8288 3.0
8289 3.0
8290 3.0
8291 3.0
8292 3.0
8293 3.0
8294 3.0
8295 3.0
8296 3.0
8297 3.0
8298 3.0
8299 3.0
8300 3.0
8301 3.0
8302 3.0
8303 3.0
8304 3.0
8305 3.0
8306 3.0
8307 3.0
8308 3.0
8309 3.0
8310 3.0
8311 3.0
8312 3.0
8313 3.0
8314 3.0
8315 3.0
8316 3.0
8317 3.0
8318 2.0
8319 2.0
8320 2.0
8321 2.0
8322 2.0
8323 2.0
8324 2.0
8325 2.0
8326 2.0
8327 2.0
8328 2.0
8329 2.0
8330 2.0
8331 2.0
8332 2.0
8333 2.0
8334 2.0
8335 2.0
8336 2.0
8337 2.0
8338 2.0
8339 2.0
8340 2.0
8341 2.0
8342 2.0
8343 2.0
8344 2.0
8345 2.0
8346 2.0
8347 2.0
8348 2.0
8349 2.0
8350 2.0
8351 2.0
8352 2.0
8353 2.0
8354 2.0
8355 2.0
8356 2.0
8357 2.0
8358 2.0
8359 2.0
8360 2.0
8361 2.0
8362 2.0
8363 2.0
8364 2.0
8365 3.0
8366 3.0
8367 2.0
8368 2.0
8369 3.0
8370 3.0
8371 2.0
8372 2.0
8373 3.0
8374 3.0
8375 2.0
8376 2.0
8377 3.0
8378 3.0
8379 2.0
8380 2.0
8381 3.0
8382 3.0
8383 2.0
8384 2.0
8385 3.0
8386 3.0
8387 2.0
8388 2.0
8389 3.0
8390 3.0
8391 2.0
8392 2.0
8393 3.0
8394 3.0
8395 2.0
8396 2.0
8397 3.0
8398 3.0
8399 2.0
8400 2.0
8401 3.0
8402 3.0
8403 2.0
8404 2.0
8405 3.0
8406 3.0
8407 2.0
8408 2.0
8409 3.0
8410 3.0
8411 2.0
8412 2.0
8413 3.0
8414 3.0
8415 2.0
8416 2.0
8417 3.0
8418 3.0
8419 2.0
8420 2.0
8421 3.0
8422 3.0
8423 2.0
8424 2.0
8425 3.0
8426 3.0
8427 2.0
8428 2.0
8429 2.0
8430 3.0
8431 3.0
8432 2.0
8433 3.0
8434 3.0
8435 2.0
8436 3.0
8437 3.0
8438 2.0
8439 3.0
8440 3.0
8441 2.0
8442 3.0
8443 3.0
8444 2.0
8445 3.0
8446 3.0
8447 2.0
8448 3.0
8449 3.0
8450 2.0
8451 3.0
8452 3.0
8453 2.0
8454 3.0
8455 3.0
8456 2.0
8457 3.0
8458 3.0
8459 2.0
8460 3.0
8461 3.0
8462 2.0
8463 3.0
8464 3.0
8465 2.0
8466 3.0
8467 3.0
8468 2.0
8469 3.0
8470 3.0
8471 2.0
8472 3.0
8473 3.0
8474 2.0
8475 3.0
8476 3.0
8477 3.0
8478 3.0
8479 2.0
8480 2.0
8481 2.0
8482 3.0
8483 3.0
8484 2.0
8485 2.0
8486 2.0
8487 3.0
8488 3.0
8489 2.0
8490 2.0
8491 2.0
8492 3.0
8493 3.0
8494 2.0
8495 2.0
8496 2.0
8497 3.0
8498 3.0
8499 2.0
8500 2.0
8501 2.0
8502 3.0
8503 3.0
8504 2.0
8505 2.0
8506 2.0
8507 3.0
8508 3.0
8509 2.0
8510 2.0
8511 2.0
8512 3.0
8513 3.0
8514 2.0
8515 2.0
8516 2.0
8517 3.0
8518 3.0
8519 2.0
8520 2.0
8521 2.0
8522 3.0
8523 3.0
8524 2.0
8525 2.0
8526 2.0
8527 3.0
8528 3.0
8529 2.0
8530 2.0
8531 2.0
8532 3.0
8533 3.0
8534 2.0
8535 2.0
8536 2.0
8537 3.0
8538 3.0
8539 2.0
8540 2.0
8541 2.0
8542 3.0
8543 3.0
8544 2.0
8545 2.0
8546 2.0
8547 3.0
8548 3.0
8549 2.0
8550 2.0
8551 2.0
8552 3.0
8553 3.0
8554 2.0
8555 2.0
8556 2.0
8557 2.0
8558 2.0
8559 2.0
8560 2.0
8561 2.0
8562 2.0
8563 2.0
8564 2.0
8565 2.0
8566 2.0
8567 2.0
8568 2.0
8569 2.0
8570 2.0
8571 2.0
8572 2.0
8573 2.0
8574 2.0
8575 2.0
8576 2.0
8577 2.0
8578 2.0
8579 2.0
8580 2.0
8581 2.0
8582 2.0
8583 2.0
8584 2.0
8585 2.0
8586 2.0
8587 2.0
8588 2.0
8589 2.0
8590 2.0
8591 2.0
8592 2.0
8593 2.0
8594 2.0
8595 2.0
8596 2.0
8597 2.0
8598 2.0
8599 2.0
8600 2.0
8601 2.0
8602 2.0
8603 2.0
8604 2.0
8605 2.0
8606 2.0
8607 2.0
8608 2.0
8609 2.0
8610 2.0
8611 2.0
8612 2.0
8613 2.0
8614 2.0
8615 2.0
8616 2.0
8617 2.0
8618 2.0
8619 2.0
8620 2.0
8621 2.0
8622 2.0
8623 2.0
8624 2.0
8625 2.0
8626 2.0
8627 2.0
8628 2.0
8629 2.0
8630 2.0
8631 2.0
8632 2.0
8633 2.0
8634 2.0
8635 2.0
8636 2.0
8637 2.0
8638 2.0
8639 2.0
8640 2.0
8641 2.0
8642 2.0
8643 2.0
8644 2.0
8645 2.0
8646 2.0
8647 2.0
8648 2.0
8649 2.0
8650 2.0
8651 2.0
8652 2.0
8653 3.0
8654 4.0
8655 3.0
8656 3.0
8657 3.0
8658 3.0
8659 3.0
8660 4.0
8661 3.0
8662 3.0
8663 3.0
8664 3.0
8665 3.0
8666 4.0
8667 3.0
8668 3.0
8669 3.0
8670 3.0
8671 3.0
8672 4.0
8673 3.0
8674 3.0
8675 3.0
8676 3.0
8677 3.0
8678 4.0
8679 3.0
8680 3.0
8681 3.0
8682 3.0
8683 3.0
8684 4.0
8685 3.0
8686 3.0
8687 3.0
8688 3.0
8689 3.0
8690 4.0
8691 3.0
8692 3.0
8693 3.0
8694 3.0
8695 3.0
8696 4.0
8697 3.0
8698 3.0
8699 3.0
8700 3.0
8701 3.0
8702 4.0
8703 3.0
8704 3.0
8705 3.0
8706 3.0
8707 3.0
8708 4.0
8709 3.0
8710 3.0
8711 3.0
8712 3.0
8713 3.0
8714 4.0
8715 3.0
8716 3.0
8717 3.0
8718 3.0
8719 3.0
8720 4.0
8721 3.0
8722 3.0
8723 3.0
8724 3.0
8725 3.0
8726 4.0
8727 3.0
8728 3.0
8729 3.0
8730 3.0
8731 3.0
8732 4.0
8733 3.0
8734 3.0
8735 3.0
8736 3.0
8737 3.0
8738 4.0
8739 3.0
8740 3.0
8741 3.0
8742 3.0
8743 3.0
8744 4.0
8745 3.0
8746 3.0
8747 3.0
8748 3.0
8749 1.0
8750 2.0
8751 2.0
8752 2.0
8753 2.0
8754 2.0
8755 2.0
8756 2.0
8757 2.0
8758 2.0
8759 2.0
8760 2.0
8761 2.0
8762 2.0
8763 2.0
8764 2.0
8765 2.0
8766 2.0
8767 2.0
8768 2.0
8769 2.0
8770 2.0
8771 2.0
8772 2.0
8773 2.0
8774 2.0
8775 2.0
8776 2.0
8777 2.0
8778 2.0
8779 2.0
8780 2.0
8781 2.0
8782 2.0
8783 2.0
8784 2.0
8785 2.0
8786 2.0
8787 2.0
8788 2.0
8789 2.0
8790 2.0
8791 2.0
8792 2.0
8793 2.0
8794 2.0
8795 2.0
8796 2.0
8797 2.0
8798 2.0
8799 2.0
8800 2.0
8801 2.0
8802 2.0
8803 2.0
8804 2.0
8805 2.0
8806 2.0
8807 2.0
8808 2.0
8809 2.0
8810 2.0
8811 2.0
8812 2.0
8813 1.0
8814 3.0
8815 3.0
8816 3.0
8817 3.0
8818 3.0
8819 3.0
8820 3.0
8821 3.0
8822 3.0
8823 3.0
8824 3.0
8825 3.0
8826 3.0
8827 3.0
8828 3.0
8829 3.0
8830 3.0
8831 3.0
8832 3.0
8833 3.0
8834 3.0
8835 3.0
8836 3.0
8837 3.0
8838 3.0
8839 3.0
8840 3.0
8841 3.0
8842 3.0
8843 3.0
8844 3.0
8845 3.0
8846 3.0
8847 3.0
8848 3.0
8849 3.0
8850 3.0
8851 3.0
8852 3.0
8853 3.0
8854 3.0
8855 3.0
8856 3.0
8857 3.0
8858 3.0
8859 3.0
8860 3.0
8861 3.0
8862 3.0
8863 3.0
8864 3.0
8865 3.0
8866 3.0
8867 3.0
8868 3.0
8869 3.0
8870 3.0
8871 3.0
8872 3.0
8873 3.0
8874 3.0
8875 3.0
8876 3.0
8877 3.0
8878 3.0
8879 3.0
8880 3.0
8881 3.0
8882 3.0
8883 3.0
8884 3.0
8885 3.0
8886 3.0
8887 3.0
8888 3.0
8889 3.0
8890 3.0
8891 3.0
8892 3.0
8893 3.0
8894 3.0
8895 3.0
8896 3.0
8897 3.0
8898 3.0
8899 3.0
8900 3.0
8901 3.0
8902 3.0
8903 3.0
8904 3.0
8905 3.0
8906 3.0
8907 3.0
8908 2.0
8909 2.0
8910 2.0
8911 2.0
8912 2.0
8913 2.0
8914 2.0
8915 2.0
8916 2.0
8917 2.0
8918 2.0
8919 2.0
8920 2.0
8921 2.0
8922 2.0
8923 2.0
8924 2.0
8925 2.0
8926 2.0
8927 2.0
8928 2.0
8929 2.0
8930 2.0
8931 2.0
8932 2.0
8933 2.0
8934 2.0
8935 2.0
8936 2.0
8937 2.0
8938 2.0
8939 2.0
8940 2.0
8941 2.0
8942 2.0
8943 2.0
8944 2.0
8945 2.0
8946 2.0
8947 2.0
8948 2.0
8949 2.0
8950 2.0
8951 2.0
8952 2.0
8953 2.0
8954 2.0
8955 3.0
8956 3.0
8957 2.0
8958 2.0
8959 3.0
8960 3.0
8961 2.0
8962 2.0
8963 3.0
8964 3.0
8965 2.0
8966 2.0
8967 3.0
8968 3.0
8969 2.0
8970 2.0
8971 3.0
8972 3.0
8973 2.0
8974 2.0
8975 3.0
8976 3.0
8977 2.0
8978 2.0
8979 3.0
8980 3.0
8981 2.0
8982 2.0
8983 3.0
8984 3.0
8985 2.0
8986 2.0
8987 3.0
8988 3.0
8989 2.0
8990 2.0
8991 3.0
8992 3.0
8993 2.0
8994 2.0
8995 3.0
8996 3.0
8997 2.0
8998 2.0
8999 3.0
9000 3.0
9001 2.0
9002 2.0
9003 3.0
9004 3.0
9005 2.0
9006 2.0
9007 3.0
9008 3.0
9009 2.0
9010 2.0
9011 3.0
9012 3.0
9013 2.0
9014 2.0
9015 3.0
9016 3.0
9017 2.0
9018 2.0
9019 2.0
9020 3.0
9021 3.0
9022 2.0
9023 3.0
9024 3.0
9025 2.0
9026 3.0
9027 3.0
9028 2.0
9029 3.0
9030 3.0
9031 2.0
9032 3.0
9033 3.0
9034 2.0
9035 3.0
9036 3.0
9037 2.0
9038 3.0
9039 3.0
9040 2.0
9041 3.0
9042 3.0
9043 2.0
9044 3.0
9045 3.0
9046 2.0
9047 3.0
9048 3.0
9049 2.0
9050 3.0
9051 3.0
9052 2.0
9053 3.0
9054 3.0
9055 2.0
9056 3.0
9057 3.0
9058 2.0
9059 3.0
9060 3.0
9061 2.0
9062 3.0
9063 3.0
9064 2.0
9065 3.0
9066 3.0
9067 3.0
9068 3.0
9069 2.0
9070 2.0
9071 2.0
9072 3.0
9073 3.0
9074 2.0
9075 2.0
9076 2.0
9077 3.0
9078 3.0
9079 2.0
9080 2.0
9081 2.0
9082 3.0
9083 3.0
9084 2.0
9085 2.0
9086 2.0
9087 3.0
9088 3.0
9089 2.0
9090 2.0
9091 2.0
9092 3.0
9093 3.0
9094 2.0
9095 2.0
9096 2.0
9097 3.0
9098 3.0
9099 2.0
9100 2.0
9101 2.0
9102 3.0
9103 3.0
9104 2.0
9105 2.0
9106 2.0
9107 3.0
9108 3.0
9109 2.0
9110 2.0
9111 2.0
9112 3.0
9113 3.0
9114 2.0
9115 2.0
9116 2.0
9117 3.0
9118 3.0
9119 2.0
9120 2.0
9121 2.0
9122 3.0
9123 3.0
9124 2.0
9125 2.0
9126 2.0
9127 3.0
9128 3.0
9129 2.0
9130 2.0
9131 2.0
9132 3.0
9133 3.0
9134 2.0
9135 2.0
9136 2.0
9137 3.0
9138 3.0
9139 2.0
9140 2.0
9141 2.0
9142 3.0
9143 3.0
9144 2.0
9145 2.0
9146 2.0
9147 2.0
9148 2.0
9149 2.0
9150 2.0
9151 2.0
9152 2.0
9153 2.0
9154 2.0
9155 2.0
9156 2.0
9157 2.0
9158 2.0
9159 2.0
9160 2.0
9161 2.0
9162 2.0
9163 2.0
9164 2.0
9165 2.0
9166 2.0
9167 2.0
9168 2.0
9169 2.0
9170 2.0
9171 2.0
9172 2.0
9173 2.0
9174 2.0
9175 2.0
9176 2.0
9177 2.0
9178 2.0
9179 2.0
9180 2.0
9181 2.0
9182 2.0
9183 2.0
9184 2.0
9185 2.0
9186 2.0
9187 2.0
9188 2.0
9189 2.0
9190 2.0
9191 2.0
9192 2.0
9193 2.0
9194 2.0
9195 2.0
9196 2.0
9197 2.0
9198 2.0
9199 2.0
9200 2.0
9201 2.0
9202 2.0
9203 2.0
9204 2.0
9205 2.0
9206 2.0
9207 2.0
9208 2.0
9209 2.0
9210 2.0
9211 2.0
9212 2.0
9213 2.0
9214 2.0
9215 2.0
9216 2.0
9217 2.0
9218 2.0
9219 2.0
9220 2.0
9221 2.0
9222 2.0
9223 2.0
9224 2.0
9225 2.0
9226 2.0
9227 2.0
9228 2.0
9229 2.0
9230 2.0
9231 2.0
9232 2.0
9233 2.0
9234 2.0
9235 2.0
9236 2.0
9237 2.0
9238 2.0
9239 2.0
9240 2.0
9241 2.0
9242 2.0
9243 3.0
9244 4.0
9245 3.0
9246 3.0
9247 3.0
9248 3.0
9249 3.0
9250 4.0
9251 3.0
9252 3.0
9253 3.0
9254 3.0
9255 3.0
9256 4.0
9257 3.0
9258 3.0
9259 3.0
9260 3.0
9261 3.0
9262 4.0
9263 3.0
9264 3.0
9265 3.0
9266 3.0
9267 3.0
9268 4.0
9269 3.0
9270 3.0
9271 3.0
9272 3.0
9273 3.0
9274 4.0
9275 3.0
9276 3.0
9277 3.0
9278 3.0
9279 3.0
9280 4.0
9281 3.0
9282 3.0
9283 3.0
9284 3.0
9285 3.0
9286 4.0
9287 3.0
9288 3.0
9289 3.0
9290 3.0
9291 3.0
9292 4.0
9293 3.0
9294 3.0
9295 3.0
9296 3.0
9297 3.0
9298 4.0
9299 3.0
9300 3.0
9301 3.0
9302 3.0
9303 3.0
9304 4.0
9305 3.0
9306 3.0
9307 3.0
9308 3.0
9309 3.0
9310 4.0
9311 3.0
9312 3.0
9313 3.0
9314 3.0
9315 3.0
9316 4.0
9317 3.0
9318 3.0
9319 3.0
9320 3.0
9321 3.0
9322 4.0
9323 3.0
9324 3.0
9325 3.0
9326 3.0
9327 3.0
9328 4.0
9329 3.0
9330 3.0
9331 3.0
9332 3.0
9333 3.0
9334 4.0
9335 3.0
9336 3.0
9337 3.0
9338 3.0
9339 1.0
9340 2.0
9341 2.0
9342 2.0
9343 2.0
9344 2.0
9345 2.0
9346 2.0
9347 2.0
9348 2.0
9349 2.0
9350 2.0
9351 2.0
9352 2.0
9353 2.0
9354 2.0
9355 2.0
9356 2.0
9357 2.0
9358 2.0
9359 2.0
9360 2.0
9361 2.0
9362 2.0
9363 2.0
9364 2.0
9365 2.0
9366 2.0
9367 2.0
9368 2.0
9369 2.0
9370 2.0
9371 2.0
9372 2.0
9373 2.0
9374 2.0
9375 2.0
9376 2.0
9377 2.0
9378 2.0
9379 2.0
9380 2.0
9381 2.0
9382 2.0
9383 2.0
9384 2.0
9385 2.0
9386 2.0
9387 2.0
9388 2.0
9389 2.0
9390 2.0
9391 2.0
9392 2.0
9393 2.0
9394 2.0
9395 2.0
9396 2.0
9397 2.0
9398 2.0
9399 2.0
9400 2.0
9401 2.0
9402 2.0
9403 1.0
9404 3.0
9405 3.0
9406 3.0
9407 3.0
9408 3.0
9409 3.0
9410 3.0
9411 3.0
9412 3.0
9413 3.0
9414 3.0
9415 3.0
9416 3.0
9417 3.0
9418 3.0
9419 3.0
9420 3.0
9421 3.0
9422 3.0
9423 3.0
9424 3.0
9425 3.0
9426 3.0
9427 3.0
9428 3.0
9429 3.0
9430 3.0
9431 3.0
9432 3.0
9433 3.0
9434 3.0
9435 3.0
9436 3.0
9437 3.0
9438 3.0
9439 3.0
9440 3.0
9441 3.0
9442 3.0
9443 3.0
9444 3.0
9445 3.0
9446 3.0
9447 3.0
9448 3.0
9449 3.0
9450 3.0
9451 3.0
9452 3.0
9453 3.0
9454 3.0
9455 3.0
9456 3.0
9457 3.0
9458 3.0
9459 3.0
9460 3.0
9461 3.0
9462 3.0
9463 3.0
9464 3.0
9465 3.0
9466 3.0
9467 3.0
9468 3.0
9469 3.0
9470 3.0
9471 3.0
9472 3.0
9473 3.0
9474 3.0
9475 3.0
9476 3.0
9477 3.0
9478 3.0
9479 3.0
9480 3.0
9481 3.0
9482 1.0
9483 1.0
9484 1.0
9485 1.0
9486 1.0
9487 1.0
9488 1.0
9489 1.0
9490 1.0
9491 1.0
9492 1.0
9493 1.0
9494 1.0
9495 1.0
9496 1.0
9497 1.0

edges:
1 2
1 47
2 31
3 4
3 50
4 32
5 6
5 53
6 33
7 8
7 56
8 34
9 10
9 59
10 35
11 12
11 62
12 36
13 14
13 65
14 37
15 16
15 68
16 38
17 18
17 71
18 39
19 20
19 74
20 40
21 22
21 77
22 41
23 24
23 80
24 42
25 26
25 83
26 43
27 28
27 86
28 44
29 30
29 89
30 45
31 48
32 51
33 54
34 57
35 60
36 63
37 66
38 69
39 72
40 75
41 78
42 81
43 84
44 87
45 90
46 92
46 93
47 157
47 158
48 159
49 96
49 97
50 160
50 161
51 162
52 100
52 101
53 163
53 164
54 165
55 104
55 105
56 166
56 167
57 168
58 108
58 109
59 169
59 170
60 171
61 112
61 113
62 172
62 173
63 174
64 116
64 117
65 175
65 176
66 177
67 120
67 121
68 178
68 179
69 180
70 124
70 125
71 181
71 182
72 183
73 128
73 129
74 184
74 185
75 186
76 132
76 133
77 187
77 188
78 189
79 136
79 137
80 190
80 191
81 192
82 140
82 141
83 193
83 194
84 195
85 144
85 145
86 196
86 197
87 198
88 148
88 149
89 199
89 200
90 201
91 152
91 153
92 93
92 156
92 204
92 205
93 94
93 204
93 205
94 157
94 205
94 206
95 158
95 207
95 208
96 97
96 159
96 209
96 210
97 98
97 209
97 210
98 160
98 210
98 211
99 161
99 212
99 213
100 101
100 162
100 214
100 215
101 102
101 214
101 215
102 163
102 215
102 216
103 164
103 217
103 218
104 105
104 165
104 219
104 220
105 106
105 219
105 220
106 166
106 220
106 221
107 167
107 222
107 223
108 109
108 168
108 224
108 225
109 110
109 224
109 225
110 169
110 225
110 226
111 170
111 227
111 228
112 113
112 171
112 229
112 230
113 114
113 229
113 230
114 172
114 230
114 231
115 173
115 232
115 233
116 117
116 174
116 234
116 235
117 118
117 234
117 235
118 175
118 235
118 236
119 176
119 237
119 238
120 121
120 177
120 239
120 240
121 122
121 239
121 240
122 178
122 240
122 241
123 179
123 242
123 243
124 125
124 180
124 244
124 245
125 126
125 244
125 245
126 181
126 245
126 246
127 182
127 247
127 248
128 129
128 183
128 249
128 250
129 130
129 249
129 250
130 184
130 250
130 251
131 185
131 252
131 253
132 133
132 186
132 254
132 255
133 134
133 254
133 255
134 187
134 255
134 256
135 188
135 257
135 258
136 137
136 189
136 259
136 260
137 138
137 259
137 260
138 190
138 260
138 261
139 191
139 262
139 263
140 141
140 192
140 264
140 265
141 142
141 264
141 265
142 193
142 265
142 266
143 194
143 267
143 268
144 145
144 195
144 269
144 270
145 146
145 269
145 270
146 196
146 270
146 271
147 197
147 272
147 273
148 149
148 198
148 274
148 275
149 150
149 274
149 275
150 199
150 275
150 276
151 200
151 277
151 278
152 153
152 201
152 279
152 280
153 154
153 279
153 280
154 202
154 280
154 281
155 203
155 282
155 283
156 204
157 158
157 206
157 284
157 285
158 207
158 284
158 285
159 209
160 161
160 211
160 286
160 287
161 212
161 286
161 287
162 214
163 164
163 216
163 288
163 289
164 217
164 288
164 289
165 219
166 167
166 221
166 290
166 291
167 222
167 290
167 291
168 224
169 170
169 226
169 292
169 293
170 227
170 292
170 293
171 229
172 173
172 231
172 294
172 295
173 232
173 294
173 295
174 234
175 176
175 236
175 296
175 297
176 237
176 296
176 297
177 239
178 179
178 241
178 298
178 299
179 242
179 298
179 299
180 244
181 182
181 246
181 300
181 301
182 247
182 300
182 301
183 249
184 185
184 251
184 302
184 303
185 252
185 302
185 303
186 254
187 188
187 256
187 304
187 305
188 257
188 304
188 305
189 259
190 191
190 261
190 306
190 307
191 262
191 306
191 307
192 264
193 194
193 266
193 308
193 309
194 267
194 308
194 309
195 269
196 197
196 271
196 310
196 311
197 272
197 310
197 311
198 274
199 200
199 276
199 312
199 313
200 277
200 312
200 313
201 279
202 203
202 281
202 314
202 315
203 282
203 314
203 315
204 205
204 316
205 316
206 284
206 317
207 285
207 318
208 319
209 210
209 320
210 320
211 286
211 321
212 287
212 322
213 323
214 215
214 324
215 324
216 288
216 325
217 289
217 326
218 327
219 220
219 328
220 328
221 290
221 329
222 291
222 330
223 331
224 225
224 332
225 332
226 292
226 333
227 293
227 334
228 335
229 230
229 336
230 336
231 294
231 337
232 295
232 338
233 339
234 235
234 340
235 340
236 296
236 341
237 297
237 342
238 343
239 240
239 344
240 344
241 298
241 345
242 299
242 346
243 347
244 245
244 348
245 348
246 300
246 349
247 301
247 350
248 351
249 250
249 352
250 352
251 302
251 353
252 303
252 354
253 355
254 255
254 356
255 356
256 304
256 357
257 305
257 358
258 359
259 260
259 360
260 360
261 306
261 361
262 307
262 362
263 363
264 265
264 364
265 364
266 308
266 365
267 309
267 366
268 367
269 270
269 368
270 368
271 310
271 369
272 311
272 370
273 371
274 275
274 372
275 372
276 312
276 373
277 313
277 374
278 375
279 280
279 376
280 376
281 314
281 377
282 315
282 378
283 379
284 285
284 317
285 318
286 287
286 321
287 322
288 289
288 325
289 326
290 291
290 329
291 330
292 293
292 333
293 334
294 295
294 337
295 338
296 297
296 341
297 342
298 299
298 345
299 346
300 301
300 349
301 350
302 303
302 353
303 354
304 305
304 357
305 358
306 307
306 361
307 362
308 309
308 365
309 366
310 311
310 369
311 370
312 313
312 373
313 374
314 315
314 377
315 378
316 380
316 381
317 381
318 382
318 383
319 384
319 385
320 386
320 387
321 387
322 388
322 389
323 390
323 391
324 392
324 393
325 393
326 394
326 395
327 396
327 397
328 398
328 399
329 399
330 400
330 401
331 402
331 403
332 404
332 405
333 405
334 406
334 407
335 408
335 409
336 410
336 411
337 411
338 412
338 413
339 414
339 415
340 416
340 417
341 417
342 418
342 419
343 420
343 421
344 422
344 423
345 423
346 424
346 425
347 426
347 427
348 428
348 429
349 429
350 430
350 431
351 432
351 433
352 434
352 435
353 435
354 436
354 437
355 438
355 439
356 440
356 441
357 441
358 442
358 443
359 444
359 445
360 446
360 447
361 447
362 448
362 449
363 450
363 451
364 452
364 453
365 453
366 454
366 455
367 456
367 457
368 458
368 459
369 459
370 460
370 461
371 462
371 463
372 464
372 465
373 465
374 466
374 467
375 468
375 469
376 470
376 471
377 471
378 472
378 473
379 474
379 475
380 381
380 476
380 541
380 542
381 477
381 541
381 542
382 383
382 478
382 543
382 544
383 479
383 543
383 544
384 385
384 479
384 545
384 546
385 480
385 545
385 546
386 387
386 480
386 547
386 548
387 481
387 547
387 548
388 389
388 482
388 549
388 550
389 483
389 549
389 550
390 391
390 483
390 551
390 552
391 484
391 551
391 552
392 393
392 484
392 553
392 554
393 485
393 553
393 554
394 395
394 486
394 555
394 556
395 487
395 555
395 556
396 397
396 487
396 557
396 558
397 488
397 557
397 558
398 399
398 488
398 559
398 560
399 489
399 559
399 560
400 401
400 490
400 561
400 562
401 491
401 561
401 562
402 403
402 491
402 563
402 564
403 492
403 563
403 564
404 405
404 492
404 565
404 566
405 493
405 565
405 566
406 407
406 494
406 567
406 568
407 495
407 567
407 568
408 409
408 495
408 569
408 570
409 496
409 569
409 570
410 411
410 496
410 571
410 572
411 497
411 571
411 572
412 413
412 498
412 573
412 574
413 499
413 573
413 574
414 415
414 499
414 575
414 576
415 500
415 575
415 576
416 417
416 500
416 577
416 578
417 501
417 577
417 578
418 419
418 502
418 579
418 580
419 503
419 579
419 580
420 421
420 503
420 581
420 582
421 504
421 581
421 582
422 423
422 504
422 583
422 584
423 505
423 583
423 584
424 425
424 506
424 585
424 586
425 507
425 585
425 586
426 427
426 507
426 587
426 588
427 508
427 587
427 588
428 429
428 508
428 589
428 590
429 509
429 589
429 590
430 431
430 510
430 591
430 592
431 511
431 591
431 592
432 433
432 511
432 593
432 594
433 512
433 593
433 594
434 435
434 512
434 595
434 596
435 513
435 595
435 596
436 437
436 514
436 597
436 598
437 515
437 597
437 598
438 439
438 515
438 599
438 600
439 516
439 599
439 600
440 441
440 516
440 601
440 602
441 517
441 601
441 602
442 443
442 518
442 603
442 604
443 519
443 603
443 604
444 445
444 519
444 605
444 606
445 520
445 605
445 606
446 447
446 520
446 607
446 608
447 521
447 607
447 608
448 449
448 522
448 609
448 610
449 523
449 609
449 610
450 451
450 523
450 611
450 612
451 524
451 611
451 612
452 453
452 524
452 613
452 614
453 525
453 613
453 614
454 455
454 526
454 615
454 616
455 527
455 615
455 616
456 457
456 527
456 617
456 618
457 528
457 617
457 618
458 459
458 528
458 619
458 620
459 529
459 619
459 620
460 461
460 530
460 621
460 622
461 531
461 621
461 622
462 463
462 531
462 623
462 624
463 532
463 623
463 624
464 465
464 532
464 625
464 626
465 533
465 625
465 626
466 467
466 534
466 627
466 628
467 535
467 627
467 628
468 469
468 535
468 629
468 630
469 536
469 629
469 630
470 471
470 536
470 631
470 632
471 537
471 631
471 632
472 473
472 538
472 633
472 634
473 539
473 633
473 634
474 475
474 539
475 540
476 541
477 478
477 542
478 543
479 544
479 545
480 546
480 547
481 482
481 548
482 549
483 550
483 551
484 552
484 553
485 486
485 554
486 555
487 556
487 557
488 558
488 559
489 490
489 560
490 561
491 562
491 563
492 564
492 565
493 494
493 566
494 567
495 568
495 569
496 570
496 571
497 498
497 572
498 573
499 574
499 575
500 576
500 577
501 502
501 578
502 579
503 580
503 581
504 582
504 583
505 506
505 584
506 585
507 586
507 587
508 588
508 589
509 510
509 590
510 591
511 592
511 593
512 594
512 595
513 514
513 596
514 597
515 598
515 599
516 600
516 601
517 518
517 602
518 603
519 604
519 605
520 606
520 607
521 522
521 608
522 609
523 610
523 611
524 612
524 613
525 526
525 614
526 615
527 616
527 617
528 618
528 619
529 530
529 620
530 621
531 622
531 623
532 624
532 625
533 534
533 626
534 627
535 628
535 629
536 630
536 631
537 538
537 632
538 633
539 634
541 542
541 635
542 635
543 544
543 636
544 636
545 546
545 637
546 637
547 548
547 638
548 638
549 550
549 639
550 639
551 552
551 640
552 640
553 554
553 641
554 641
555 556
555 642
556 642
557 558
557 643
558 643
559 560
559 644
560 644
561 562
561 645
562 645
563 564
563 646
564 646
565 566
565 647
566 647
567 568
567 648
568 648
569 570
569 649
570 649
571 572
571 650
572 650
573 574
573 651
574 651
575 576
575 652
576 652
577 578
577 653
578 653
579 580
579 654
580 654
581 582
581 655
582 655
583 584
583 656
584 656
585 586
585 657
586 657
587 588
587 658
588 658
589 590
589 659
590 659
591 592
591 660
592 660
593 594
593 661
594 661
595 596
595 662
596 662
597 598
597 663
598 663
599 600
599 664
600 664
601 602
601 665
602 665
603 604
603 666
604 666
605 606
605 667
606 667
607 608
607 668
608 668
609 610
609 669
610 669
611 612
611 670
612 670
613 614
613 671
614 671
615 616
615 672
616 672
617 618
617 673
618 673
619 620
619 674
620 674
621 622
621 675
622 675
623 624
623 676
624 676
625 626
625 677
626 677
627 628
627 678
628 678
629 630
629 679
630 679
631 632
631 680
632 680
633 634
633 681
634 681
635 682
635 683
636 747
636 748
637 749
638 686
638 687
639 750
639 751
640 752
641 690
641 691
642 753
642 754
643 755
644 694
644 695
645 756
645 757
646 758
647 698
647 699
648 759
648 760
649 761
650 702
650 703
651 762
651 763
652 764
653 706
653 707
654 765
654 766
655 767
656 710
656 711
657 768
657 769
658 770
659 714
659 715
660 771
660 772
661 773
662 718
662 719
663 774
663 775
664 776
665 722
665 723
666 777
666 778
667 779
668 726
668 727
669 780
669 781
670 782
671 730
671 731
672 783
672 784
673 785
674 734
674 735
675 786
675 787
676 788
677 738
677 739
678 789
678 790
679 791
680 742
680 743
681 792
681 793
682 683
682 746
682 794
682 795
683 684
683 794
683 795
684 747
684 795
684 796
685 748
685 797
685 798
686 687
686 749
686 799
686 800
687 688
687 799
687 800
688 750
688 800
688 801
689 751
689 802
689 803
690 691
690 752
690 804
690 805
691 692
691 804
691 805
692 753
692 805
692 806
693 754
693 807
693 808
694 695
694 755
694 809
694 810
695 696
695 809
695 810
696 756
696 810
696 811
697 757
697 812
697 813
698 699
698 758
698 814
698 815
699 700
699 814
699 815
700 759
700 815
700 816
701 760
701 817
701 818
702 703
702 761
702 819
702 820
703 704
703 819
703 820
704 762
704 820
704 821
705 763
705 822
705 823
706 707
706 764
706 824
706 825
707 708
707 824
707 825
708 765
708 825
708 826
709 766
709 827
709 828
710 711
710 767
710 829
710 830
711 712
711 829
711 830
712 768
712 830
712 831
713 769
713 832
713 833
714 715
714 770
714 834
714 835
715 716
715 834
715 835
716 771
716 835
716 836
717 772
717 837
717 838
718 719
718 773
718 839
718 840
719 720
719 839
719 840
720 774
720 840
720 841
721 775
721 842
721 843
722 723
722 776
722 844
722 845
723 724
723 844
723 845
724 777
724 845
724 846
725 778
725 847
725 848
726 727
726 779
726 849
726 850
727 728
727 849
727 850
728 780
728 850
728 851
729 781
729 852
729 853
730 731
730 782
730 854
730 855
731 732
731 854
731 855
732 783
732 855
732 856
733 784
733 857
733 858
734 735
734 785
734 859
734 860
735 736
735 859
735 860
736 786
736 860
736 861
737 787
737 862
737 863
738 739
738 788
738 864
738 865
739 740
739 864
739 865
740 789
740 865
740 866
741 790
741 867
741 868
742 743
742 791
742 869
742 870
743 744
743 869
743 870
744 792
744 870
744 871
745 793
745 872
745 873
746 794
747 748
747 796
747 874
747 875
748 797
748 874
748 875
749 799
750 751
750 801
750 876
750 877
751 802
751 876
751 877
752 804
753 754
753 806
753 878
753 879
754 807
754 878
754 879
755 809
756 757
756 811
756 880
756 881
757 812
757 880
757 881
758 814
759 760
759 816
759 882
759 883
760 817
760 882
760 883
761 819
762 763
762 821
762 884
762 885
763 822
763 884
763 885
764 824
765 766
765 826
765 886
765 887
766 827
766 886
766 887
767 829
768 769
768 831
768 888
768 889
769 832
769 888
769 889
770 834
771 772
771 836
771 890
771 891
772 837
772 890
772 891
773 839
774 775
774 841
774 892
774 893
775 842
775 892
775 893
776 844
777 778
777 846
777 894
777 895
778 847
778 894
778 895
779 849
780 781
780 851
780 896
780 897
781 852
781 896
781 897
782 854
783 784
783 856
783 898
783 899
784 857
784 898
784 899
785 859
786 787
786 861
786 900
786 901
787 862
787 900
787 901
788 864
789 790
789 866
789 902
789 903
790 867
790 902
790 903
791 869
792 793
792 871
792 904
792 905
793 872
793 904
793 905
794 795
794 906
795 906
796 874
796 907
797 875
797 908
798 909
799 800
799 910
800 910
801 876
801 911
802 877
802 912
803 913
804 805
804 914
805 914
806 878
806 915
807 879
807 916
808 917
809 810
809 918
810 918
811 880
811 919
812 881
812 920
813 921
814 815
814 922
815 922
816 882
816 923
817 883
817 924
818 925
819 820
819 926
820 926
821 884
821 927
822 885
822 928
823 929
824 825
824 930
825 930
826 886
826 931
827 887
827 932
828 933
829 830
829 934
830 934
831 888
831 935
832 889
832 936
833 937
834 835
834 938
835 938
836 890
836 939
837 891
837 940
838 941
839 840
839 942
840 942
841 892
841 943
842 893
842 944
843 945
844 845
844 946
845 946
846 894
846 947
847 895
847 948
848 949
849 850
849 950
850 950
851 896
851 951
852 897
852 952
853 953
854 855
854 954
855 954
856 898
856 955
857 899
857 956
858 957
859 860
859 958
860 958
861 900
861 959
862 901
862 960
863 961
864 865
864 962
865 962
866 902
866 963
867 903
867 964
868 965
869 870
869 966
870 966
871 904
871 967
872 905
872 968
873 969
874 875
874 907
875 908
876 877
876 911
877 912
878 879
878 915
879 916
880 881
880 919
881 920
882 883
882 923
883 924
884 885
884 927
885 928
886 887
886 931
887 932
888 889
888 935
889 936
890 891
890 939
891 940
892 893
892 943
893 944
894 895
894 947
895 948
896 897
896 951
897 952
898 899
898 955
899 956
900 901
900 959
901 960
902 903
902 963
903 964
904 905
904 967
905 968
906 970
906 971
907 971
908 972
908 973
909 974
909 975
910 976
910 977
911 977
912 978
912 979
913 980
913 981
914 982
914 983
915 983
916 984
916 985
917 986
917 987
918 988
918 989
919 989
920 990
920 991
921 992
921 993
922 994
922 995
923 995
924 996
924 997
925 998
925 999
926 1000
926 1001
927 1001
928 1002
928 1003
929 1004
929 1005
930 1006
930 1007
931 1007
932 1008
932 1009
933 1010
933 1011
934 1012
934 1013
935 1013
936 1014
936 1015
937 1016
937 1017
938 1018
938 1019
939 1019
940 1020
940 1021
941 1022
941 1023
942 1024
942 1025
943 1025
944 1026
944 1027
945 1028
945 1029
946 1030
946 1031
947 1031
948 1032
948 1033
949 1034
949 1035
950 1036
950 1037
951 1037
952 1038
952 1039
953 1040
953 1041
954 1042
954 1043
955 1043
956 1044
956 1045
957 1046
957 1047
958 1048
958 1049
959 1049
960 1050
960 1051
961 1052
961 1053
962 1054
962 1055
963 1055
964 1056
964 1057
965 1058
965 1059
966 1060
966 1061
967 1061
968 1062
968 1063
969 1064
969 1065
970 971
970 1066
970 1131
970 1132
971 1067
971 1131
971 1132
972 973
972 1068
972 1133
972 1134
973 1069
973 1133
973 1134
974 975
974 1069
974 1135
974 1136
975 1070
975 1135
975 1136
976 977
976 1070
976 1137
976 1138
977 1071
977 1137
977 1138
978 979
978 1072
978 1139
978 1140
979 1073
979 1139
979 1140
980 981
980 1073
980 1141
980 1142
981 1074
981 1141
981 1142
982 983
982 1074
982 1143
982 1144
983 1075
983 1143
983 1144
984 985
984 1076
984 1145
984 1146
985 1077
985 1145
985 1146
986 987
986 1077
986 1147
986 1148
987 1078
987 1147
987 1148
988 989
988 1078
988 1149
988 1150
989 1079
989 1149
989 1150
990 991
990 1080
990 1151
990 1152
991 1081
991 1151
991 1152
992 993
992 1081
992 1153
992 1154
993 1082
993 1153
993 1154
994 995
994 1082
994 1155
994 1156
995 1083
995 1155
995 1156
996 997
996 1084
996 1157
996 1158
997 1085
997 1157
997 1158
998 999
998 1085
998 1159
998 1160
999 1086
999 1159
999 1160
1000 1001
1000 1086
1000 1161
1000 1162
1001 1087
1001 1161
1001 1162
1002 1003
1002 1088
1002 1163
1002 1164
1003 1089
1003 1163
1003 1164
1004 1005
1004 1089
1004 1165
1004 1166
1005 1090
1005 1165
1005 1166
1006 1007
1006 1090
1006 1167
1006 1168
1007 1091
1007 1167
1007 1168
1008 1009
1008 1092
1008 1169
1008 1170
1009 1093
1009 1169
1009 1170
1010 1011
1010 1093
1010 1171
1010 1172
1011 1094
1011 1171
1011 1172
1012 1013
1012 1094
1012 1173
1012 1174
1013 1095
1013 1173
1013 1174
1014 1015
1014 1096
1014 1175
1014 1176
1015 1097
1015 1175
1015 1176
1016 1017
1016 1097
1016 1177
1016 1178
1017 1098
1017 1177
1017 1178
1018 1019
1018 1098
1018 1179
1018 1180
1019 1099
1019 1179
1019 1180
1020 1021
1020 1100
1020 1181
1020 1182
1021 1101
1021 1181
1021 1182
1022 1023
1022 1101
1022 1183
1022 1184
1023 1102
1023 1183
1023 1184
1024 1025
1024 1102
1024 1185
1024 1186
1025 1103
1025 1185
1025 1186
1026 1027
1026 1104
1026 1187
1026 1188
1027 1105
1027 1187
1027 1188
1028 1029
1028 1105
1028 1189
1028 1190
1029 1106
1029 1189
1029 1190
1030 1031
1030 1106
1030 1191
1030 1192
1031 1107
1031 1191
1031 1192
1032 1033
1032 1108
1032 1193
1032 1194
1033 1109
1033 1193
1033 1194
1034 1035
1034 1109
1034 1195
1034 1196
1035 1110
1035 1195
1035 1196
1036 1037
1036 1110
1036 1197
1036 1198
1037 1111
1037 1197
1037 1198
1038 1039
1038 1112
1038 1199
1038 1200
1039 1113
1039 1199
1039 1200
1040 1041
1040 1113
1040 1201
1040 1202
1041 1114
1041 1201
1041 1202
1042 1043
1042 1114
1042 1203
1042 1204
1043 1115
1043 1203
1043 1204
1044 1045
1044 1116
1044 1205
1044 1206
1045 1117
1045 1205
1045 1206
1046 1047
1046 1117
1046 1207
1046 1208
1047 1118
1047 1207
1047 1208
1048 1049
1048 1118
1048 1209
1048 1210
1049 1119
1049 1209
1049 1210
1050 1051
1050 1120
1050 1211
1050 1212
1051 1121
1051 1211
1051 1212
1052 1053
1052 1121
1052 1213
1052 1214
1053 1122
1053 1213
1053 1214
1054 1055
1054 1122
1054 1215
1054 1216
1055 1123
1055 1215
1055 1216
1056 1057
1056 1124
1056 1217
1056 1218
1057 1125
1057 1217
1057 1218
1058 1059
1058 1125
1058 1219
1058 1220
1059 1126
1059 1219
1059 1220
1060 1061
1060 1126
1060 1221
1060 1222
1061 1127
1061 1221
1061 1222
1062 1063
1062 1128
1062 1223
1062 1224
1063 1129
1063 1223
1063 1224
1064 1065
1064 1129
1064 1225
1064 1226
1065 1130
1065 1225
1065 1226
1066 1131
1067 1068
1067 1132
1068 1133
1069 1134
1069 1135
1070 1136
1070 1137
1071 1072
1071 1138
1072 1139
1073 1140
1073 1141
1074 1142
1074 1143
1075 1076
1075 1144
1076 1145
1077 1146
1077 1147
1078 1148
1078 1149
1079 1080
1079 1150
1080 1151
1081 1152
1081 1153
1082 1154
1082 1155
1083 1084
1083 1156
1084 1157
1085 1158
1085 1159
1086 1160
1086 1161
1087 1088
1087 1162
1088 1163
1089 1164
1089 1165
1090 1166
1090 1167
1091 1092
1091 1168
1092 1169
1093 1170
1093 1171
1094 1172
1094 1173
1095 1096
1095 1174
1096 1175
1097 1176
1097 1177
1098 1178
1098 1179
1099 1100
1099 1180
1100 1181
1101 1182
1101 1183
1102 1184
1102 1185
1103 1104
1103 1186
1104 1187
1105 1188
1105 1189
1106 1190
1106 1191
1107 1108
1107 1192
1108 1193
1109 1194
1109 1195
1110 1196
1110 1197
1111 1112
1111 1198
1112 1199
1113 1200
1113 1201
1114 1202
1114 1203
1115 1116
1115 1204
1116 1205
1117 1206
1117 1207
1118 1208
1118 1209
1119 1120
1119 1210
1120 1211
1121 1212
1121 1213
1122 1214
1122 1215
1123 1124
1123 1216
1124 1217
1125 1218
1125 1219
1126 1220
1126 1221
1127 1128
1127 1222
1128 1223
1129 1224
1129 1225
1130 1226
1131 1132
1131 1227
1132 1227
1133 1134
1133 1228
1134 1228
1135 1136
1135 1229
1136 1229
1137 1138
1137 1230
1138 1230
1139 1140
1139 1231
1140 1231
1141 1142
1141 1232
1142 1232
1143 1144
1143 1233
1144 1233
1145 1146
1145 1234
1146 1234
1147 1148
1147 1235
1148 1235
1149 1150
1149 1236
1150 1236
1151 1152
1151 1237
1152 1237
1153 1154
1153 1238
1154 1238
1155 1156
1155 1239
1156 1239
1157 1158
1157 1240
1158 1240
1159 1160
1159 1241
1160 1241
1161 1162
1161 1242
1162 1242
1163 1164
1163 1243
1164 1243
1165 1166
1165 1244
1166 1244
1167 1168
1167 1245
1168 1245
1169 1170
1169 1246
1170 1246
1171 1172
1171 1247
1172 1247
1173 1174
1173 1248
1174 1248
1175 1176
1175 1249
1176 1249
1177 1178
1177 1250
1178 1250
1179 1180
1179 1251
1180 1251
1181 1182
1181 1252
1182 1252
1183 1184
1183 1253
1184 1253
1185 1186
1185 1254
1186 1254
1187 1188
1187 1255
1188 1255
1189 1190
1189 1256
1190 1256
1191 1192
1191 1257
1192 1257
1193 1194
1193 1258
1194 1258
1195 1196
1195 1259
1196 1259
1197 1198
1197 1260
1198 1260
1199 1200
1199 1261
1200 1261
1201 1202
1201 1262
1202 1262
1203 1204
1203 1263
1204 1263
1205 1206
1205 1264
1206 1264
1207 1208
1207 1265
1208 1265
1209 1210
1209 1266
1210 1266
1211 1212
1211 1267
1212 1267
1213 1214
1213 1268
1214 1268
1215 1216
1215 1269
1216 1269
1217 1218
1217 1270
1218 1270
1219 1220
1219 1271
1220 1271
1221 1222
1221 1272
1222 1272
1223 1224
1223 1273
1224 1273
1225 1226
1227 1274
1227 1275
1228 1339
1228 1340
1229 1341
1230 1278
1230 1279
1231 1342
1231 1343
1232 1344
1233 1282
1233 1283
1234 1345
1234 1346
1235 1347
1236 1286
1236 1287
1237 1348
1237 1349
1238 1350
1239 1290
1239 1291
1240 1351
1240 1352
1241 1353
1242 1294
1242 1295
1243 1354
1243 1355
1244 1356
1245 1298
1245 1299
1246 1357
1246 1358
1247 1359
1248 1302
1248 1303
1249 1360
1249 1361
1250 1362
1251 1306
1251 1307
1252 1363
1252 1364
1253 1365
1254 1310
1254 1311
1255 1366
1255 1367
1256 1368
1257 1314
1257 1315
1258 1369
1258 1370
1259 1371
1260 1318
1260 1319
1261 1372
1261 1373
1262 1374
1263 1322
1263 1323
1264 1375
1264 1376
1265 1377
1266 1326
1266 1327
1267 1378
1267 1379
1268 1380
1269 1330
1269 1331
1270 1381
1270 1382
1271 1383
1272 1334
1272 1335
1273 1384
1273 1385
1274 1275
1274 1338
1274 1386
1274 1387
1275 1276
1275 1386
1275 1387
1276 1339
1276 1387
1276 1388
1277 1340
1277 1389
1277 1390
1278 1279
1278 1341
1278 1391
1278 1392
1279 1280
1279 1391
1279 1392
1280 1342
1280 1392
1280 1393
1281 1343
1281 1394
1281 1395
1282 1283
1282 1344
1282 1396
1282 1397
1283 1284
1283 1396
1283 1397
1284 1345
1284 1397
1284 1398
1285 1346
1285 1399
1285 1400
1286 1287
1286 1347
1286 1401
1286 1402
1287 1288
1287 1401
1287 1402
1288 1348
1288 1402
1288 1403
1289 1349
1289 1404
1289 1405
1290 1291
1290 1350
1290 1406
1290 1407
1291 1292
1291 1406
1291 1407
1292 1351
1292 1407
1292 1408
1293 1352
1293 1409
1293 1410
1294 1295
1294 1353
1294 1411
1294 1412
1295 1296
1295 1411
1295 1412
1296 1354
1296 1412
1296 1413
1297 1355
1297 1414
1297 1415
1298 1299
1298 1356
1298 1416
1298 1417
1299 1300
1299 1416
1299 1417
1300 1357
1300 1417
1300 1418
1301 1358
1301 1419
1301 1420
1302 1303
1302 1359
1302 1421
1302 1422
1303 1304
1303 1421
1303 1422
1304 1360
1304 1422
1304 1423
1305 1361
1305 1424
1305 1425
1306 1307
1306 1362
1306 1426
1306 1427
1307 1308
1307 1426
1307 1427
1308 1363
1308 1427
1308 1428
1309 1364
1309 1429
1309 1430
1310 1311
1310 1365
1310 1431
1310 1432
1311 1312
1311 1431
1311 1432
1312 1366
1312 1432
1312 1433
1313 1367
1313 1434
1313 1435
1314 1315
1314 1368
1314 1436
1314 1437
1315 1316
1315 1436
1315 1437
1316 1369
1316 1437
1316 1438
1317 1370
1317 1439
1317 1440
1318 1319
1318 1371
1318 1441
1318 1442
1319 1320
1319 1441
1319 1442
1320 1372
1320 1442
1320 1443
1321 1373
1321 1444
1321 1445
1322 1323
1322 1374
1322 1446
1322 1447
1323 1324
1323 1446
1323 1447
1324 1375
1324 1447
1324 1448
1325 1376
1325 1449
1325 1450
1326 1327
1326 1377
1326 1451
1326 1452
1327 1328
1327 1451
1327 1452
1328 1378
1328 1452
1328 1453
1329 1379
1329 1454
1329 1455
1330 1331
1330 1380
1330 1456
1330 1457
1331 1332
1331 1456
1331 1457
1332 1381
1332 1457
1332 1458
1333 1382
1333 1459
1333 1460
1334 1335
1334 1383
1334 1461
1334 1462
1335 1336
1335 1461
1335 1462
1336 1384
1336 1462
1336 1463
1337 1385
1337 1464
1337 1465
1338 1386
1339 1340
1339 1388
1339 1466
1339 1467
1340 1389
1340 1466
1340 1467
1341 1391
1342 1343
1342 1393
1342 1468
1342 1469
1343 1394
1343 1468
1343 1469
1344 1396
1345 1346
1345 1398
1345 1470
1345 1471
1346 1399
1346 1470
1346 1471
1347 1401
1348 1349
1348 1403
1348 1472
1348 1473
1349 1404
1349 1472
1349 1473
1350 1406
1351 1352
1351 1408
1351 1474
1351 1475
1352 1409
1352 1474
1352 1475
1353 1411
1354 1355
1354 1413
1354 1476
1354 1477
1355 1414
1355 1476
1355 1477
1356 1416
1357 1358
1357 1418
1357 1478
1357 1479
1358 1419
1358 1478
1358 1479
1359 1421
1360 1361
1360 1423
1360 1480
1360 1481
1361 1424
1361 1480
1361 1481
1362 1426
1363 1364
1363 1428
1363 1482
1363 1483
1364 1429
1364 1482
1364 1483
1365 1431
1366 1367
1366 1433
1366 1484
1366 1485
1367 1434
1367 1484
1367 1485
1368 1436
1369 1370
1369 1438
1369 1486
1369 1487
1370 1439
1370 1486
1370 1487
1371 1441
1372 1373
1372 1443
1372 1488
1372 1489
1373 1444
1373 1488
1373 1489
1374 1446
1375 1376
1375 1448
1375 1490
1375 1491
1376 1449
1376 1490
1376 1491
1377 1451
1378 1379
1378 1453
1378 1492
1378 1493
1379 1454
1379 1492
1379 1493
1380 1456
1381 1382
1381 1458
1381 1494
1381 1495
1382 1459
1382 1494
1382 1495
1383 1461
1384 1385
1384 1463
1384 1496
1384 1497
1385 1464
1385 1496
1385 1497
1386 1387
1386 1498
1387 1498
1388 1466
1388 1499
1389 1467
1389 1500
1390 1501
1391 1392
1391 1502
1392 1502
1393 1468
1393 1503
1394 1469
1394 1504
1395 1505
1396 1397
1396 1506
1397 1506
1398 1470
1398 1507
1399 1471
1399 1508
1400 1509
1401 1402
1401 1510
1402 1510
1403 1472
1403 1511
1404 1473
1404 1512
1405 1513
1406 1407
1406 1514
1407 1514
1408 1474
1408 1515
1409 1475
1409 1516
1410 1517
1411 1412
1411 1518
1412 1518
1413 1476
1413 1519
1414 1477
1414 1520
1415 1521
1416 1417
1416 1522
1417 1522
1418 1478
1418 1523
1419 1479
1419 1524
1420 1525
1421 1422
1421 1526
1422 1526
1423 1480
1423 1527
1424 1481
1424 1528
1425 1529
1426 1427
1426 1530
1427 1530
1428 1482
1428 1531
1429 1483
1429 1532
1430 1533
1431 1432
1431 1534
1432 1534
1433 1484
1433 1535
1434 1485
1434 1536
1435 1537
1436 1437
1436 1538
1437 1538
1438 1486
1438 1539
1439 1487
1439 1540
1440 1541
1441 1442
1441 1542
1442 1542
1443 1488
1443 1543
1444 1489
1444 1544
1445 1545
1446 1447
1446 1546
1447 1546
1448 1490
1448 1547
1449 1491
1449 1548
1450 1549
1451 1452
1451 1550
1452 1550
1453 1492
1453 1551
1454 1493
1454 1552
1455 1553
1456 1457
1456 1554
1457 1554
1458 1494
1458 1555
1459 1495
1459 1556
1460 1557
1461 1462
1461 1558
1462 1558
1463 1496
1463 1559
1464 1497
1464 1560
1465 1561
1466 1467
1466 1499
1467 1500
1468 1469
1468 1503
1469 1504
1470 1471
1470 1507
1471 1508
1472 1473
1472 1511
1473 1512
1474 1475
1474 1515
1475 1516
1476 1477
1476 1519
1477 1520
1478 1479
1478 1523
1479 1524
1480 1481
1480 1527
1481 1528
1482 1483
1482 1531
1483 1532
1484 1485
1484 1535
1485 1536
1486 1487
1486 1539
1487 1540
1488 1489
1488 1543
1489 1544
1490 1491
1490 1547
1491 1548
1492 1493
1492 1551
1493 1552
1494 1495
1494 1555
1495 1556
1496 1497
1496 1559
1497 1560
1498 1562
1498 1563
1499 1563
1500 1564
1500 1565
1501 1566
1501 1567
1502 1568
1502 1569
1503 1569
1504 1570
1504 1571
1505 1572
1505 1573
1506 1574
1506 1575
1507 1575
1508 1576
1508 1577
1509 1578
1509 1579
1510 1580
1510 1581
1511 1581
1512 1582
1512 1583
1513 1584
1513 1585
1514 1586
1514 1587
1515 1587
1516 1588
1516 1589
1517 1590
1517 1591
1518 1592
1518 1593
1519 1593
1520 1594
1520 1595
1521 1596
1521 1597
1522 1598
1522 1599
1523 1599
1524 1600
1524 1601
1525 1602
1525 1603
1526 1604
1526 1605
1527 1605
1528 1606
1528 1607
1529 1608
1529 1609
1530 1610
1530 1611
1531 1611
1532 1612
1532 1613
1533 1614
1533 1615
1534 1616
1534 1617
1535 1617
1536 1618
1536 1619
1537 1620
1537 1621
1538 1622
1538 1623
1539 1623
1540 1624
1540 1625
1541 1626
1541 1627
1542 1628
1542 1629
1543 1629
1544 1630
1544 1631
1545 1632
1545 1633
1546 1634
1546 1635
1547 1635
1548 1636
1548 1637
1549 1638
1549 1639
1550 1640
1550 1641
1551 1641
1552 1642
1552 1643
1553 1644
1553 1645
1554 1646
1554 1647
1555 1647
1556 1648
1556 1649
1557 1650
1557 1651
1558 1652
1558 1653
1559 1653
1560 1654
1560 1655
1561 1656
1561 1657
1562 1563
1562 1658
1562 1723
1562 1724
1563 1659
1563 1723
1563 1724
1564 1565
1564 1660
1564 1725
1564 1726
1565 1661
1565 1725
1565 1726
1566 1567
1566 1661
1566 1727
1566 1728
1567 1662
1567 1727
1567 1728
1568 1569
1568 1662
1568 1729
1568 1730
1569 1663
1569 1729
1569 1730
1570 1571
1570 1664
1570 1731
1570 1732
1571 1665
1571 1731
1571 1732
1572 1573
1572 1665
1572 1733
1572 1734
1573 1666
1573 1733
1573 1734
1574 1575
1574 1666
1574 1735
1574 1736
1575 1667
1575 1735
1575 1736
1576 1577
1576 1668
1576 1737
1576 1738
1577 1669
1577 1737
1577 1738
1578 1579
1578 1669
1578 1739
1578 1740
1579 1670
1579 1739
1579 1740
1580 1581
1580 1670
1580 1741
1580 1742
1581 1671
1581 1741
1581 1742
1582 1583
1582 1672
1582 1743
1582 1744
1583 1673
1583 1743
1583 1744
1584 1585
1584 1673
1584 1745
1584 1746
1585 1674
1585 1745
1585 1746
1586 1587
1586 1674
1586 1747
1586 1748
1587 1675
1587 1747
1587 1748
1588 1589
1588 1676
1588 1749
1588 1750
1589 1677
1589 1749
1589 1750
1590 1591
1590 1677
1590 1751
1590 1752
1591 1678
1591 1751
1591 1752
1592 1593
1592 1678
1592 1753
1592 1754
1593 1679
1593 1753
1593 1754
1594 1595
1594 1680
1594 1755
1594 1756
1595 1681
1595 1755
1595 1756
1596 1597
1596 1681
1596 1757
1596 1758
1597 1682
1597 1757
1597 1758
1598 1599
1598 1682
1598 1759
1598 1760
1599 1683
1599 1759
1599 1760
1600 1601
1600 1684
1600 1761
1600 1762
1601 1685
1601 1761
1601 1762
1602 1603
1602 1685
1602 1763
1602 1764
1603 1686
1603 1763
1603 1764
1604 1605
1604 1686
1604 1765
1604 1766
1605 1687
1605 1765
1605 1766
1606 1607
1606 1688
1606 1767
1606 1768
1607 1689
1607 1767
1607 1768
1608 1609
1608 1689
1608 1769
1608 1770
1609 1690
1609 1769
1609 1770
1610 1611
1610 1690
1610 1771
1610 1772
1611 1691
1611 1771
1611 1772
1612 1613
1612 1692
1612 1773
1612 1774
1613 1693
1613 1773
1613 1774
1614 1615
1614 1693
1614 1775
1614 1776
1615 1694
1615 1775
1615 1776
1616 1617
1616 1694
1616 1777
1616 1778
1617 1695
1617 1777
1617 1778
1618 1619
1618 1696
1618 1779
1618 1780
1619 1697
1619 1779
1619 1780
1620 1621
1620 1697
1620 1781
1620 1782
1621 1698
1621 1781
1621 1782
1622 1623
1622 1698
1622 1783
1622 1784
1623 1699
1623 1783
1623 1784
1624 1625
1624 1700
1624 1785
1624 1786
1625 1701
1625 1785
1625 1786
1626 1627
1626 1701
1626 1787
1626 1788
1627 1702
1627 1787
1627 1788
1628 1629
1628 1702
1628 1789
1628 1790
1629 1703
1629 1789
1629 1790
1630 1631
1630 1704
1630 1791
1630 1792
1631 1705
1631 1791
1631 1792
1632 1633
1632 1705
1632 1793
1632 1794
1633 1706
1633 1793
1633 1794
1634 1635
1634 1706
1634 1795
1634 1796
1635 1707
1635 1795
1635 1796
1636 1637
1636 1708
1636 1797
1636 1798
1637 1709
1637 1797
1637 1798
1638 1639
1638 1709
1638 1799
1638 1800
1639 1710
1639 1799
1639 1800
1640 1641
1640 1710
1640 1801
1640 1802
1641 1711
1641 1801
1641 1802
1642 1643
1642 1712
1642 1803
1642 1804
1643 1713
1643 1803
1643 1804
1644 1645
1644 1713
1644 1805
1644 1806
1645 1714
1645 1805
1645 1806
1646 1647
1646 1714
1646 1807
1646 1808
1647 1715
1647 1807
1647 1808
1648 1649
1648 1716
1648 1809
1648 1810
1649 1717
1649 1809
1649 1810
1650 1651
1650 1717
1650 1811
1650 1812
1651 1718
1651 1811
1651 1812
1652 1653
1652 1718
1652 1813
1652 1814
1653 1719
1653 1813
1653 1814
1654 1655
1654 1720
1654 1815
1654 1816
1655 1721
1655 1815
1655 1816
1656 1657
1656 1721
1657 1722
1658 1723
1659 1660
1659 1724
1660 1725
1661 1726
1661 1727
1662 1728
1662 1729
1663 1664
1663 1730
1664 1731
1665 1732
1665 1733
1666 1734
1666 1735
1667 1668
1667 1736
1668 1737
1669 1738
1669 1739
1670 1740
1670 1741
1671 1672
1671 1742
1672 1743
1673 1744
1673 1745
1674 1746
1674 1747
1675 1676
1675 1748
1676 1749
1677 1750
1677 1751
1678 1752
1678 1753
1679 1680
1679 1754
1680 1755
1681 1756
1681 1757
1682 1758
1682 1759
1683 1684
1683 1760
1684 1761
1685 1762
1685 1763
1686 1764
1686 1765
1687 1688
1687 1766
1688 1767
1689 1768
1689 1769
1690 1770
1690 1771
1691 1692
1691 1772
1692 1773
1693 1774
1693 1775
1694 1776
1694 1777
1695 1696
1695 1778
1696 1779
1697 1780
1697 1781
1698 1782
1698 1783
1699 1700
1699 1784
1700 1785
1701 1786
1701 1787
1702 1788
1702 1789
1703 1704
1703 1790
1704 1791
1705 1792
1705 1793
1706 1794
1706 1795
1707 1708
1707 1796
1708 1797
1709 1798
1709 1799
1710 1800
1710 1801
1711 1712
1711 1802
1712 1803
1713 1804
1713 1805
1714 1806
1714 1807
1715 1716
1715 1808
1716 1809
1717 1810
1717 1811
1718 1812
1718 1813
1719 1720
1719 1814
1720 1815
1721 1816
1723 1724
1723 1817
1724 1817
1725 1726
1725 1818
1726 1818
1727 1728
1727 1819
1728 1819
1729 1730
1729 1820
1730 1820
1731 1732
1731 1821
1732 1821
1733 1734
1733 1822
1734 1822
1735 1736
1735 1823
1736 1823
1737 1738
1737 1824
1738 1824
1739 1740
1739 1825
1740 1825
1741 1742
1741 1826
1742 1826
1743 1744
1743 1827
1744 1827
1745 1746
1745 1828
1746 1828
1747 1748
1747 1829
1748 1829
1749 1750
1749 1830
1750 1830
1751 1752
1751 1831
1752 1831
1753 1754
1753 1832
1754 1832
1755 1756
1755 1833
1756 1833
1757 1758
1757 1834
1758 1834
1759 1760
1759 1835
1760 1835
1761 1762
1761 1836
1762 1836
1763 1764
1763 1837
1764 1837
1765 1766
1765 1838
1766 1838
1767 1768
1767 1839
1768 1839
1769 1770
1769 1840
1770 1840
1771 1772
1771 1841
1772 1841
1773 1774
1773 1842
1774 1842
1775 1776
1775 1843
1776 1843
1777 1778
1777 1844
1778 1844
1779 1780
1779 1845
1780 1845
1781 1782
1781 1846
1782 1846
1783 1784
1783 1847
1784 1847
1785 1786
1785 1848
1786 1848
1787 1788
1787 1849
1788 1849
1789 1790
1789 1850
1790 1850
1791 1792
1791 1851
1792 1851
1793 1794
1793 1852
1794 1852
1795 1796
1795 1853
1796 1853
1797 1798
1797 1854
1798 1854
1799 1800
1799 1855
1800 1855
1801 1802
1801 1856
1802 1856
1803 1804
1803 1857
1804 1857
1805 1806
1805 1858
1806 1858
1807 1808
1807 1859
1808 1859
1809 1810
1809 1860
1810 1860
1811 1812
1811 1861
1812 1861
1813 1814
1813 1862
1814 1862
1815 1816
1815 1863
1816 1863
1817 1864
1817 1865
1818 1929
1818 1930
1819 1931
1820 1868
1820 1869
1821 1932
1821 1933
1822 1934
1823 1872
1823 1873
1824 1935
1824 1936
1825 1937
1826 1876
1826 1877
1827 1938
1827 1939
1828 1940
1829 1880
1829 1881
1830 1941
1830 1942
1831 1943
1832 1884
1832 1885
1833 1944
1833 1945
1834 1946
1835 1888
1835 1889
1836 1947
1836 1948
1837 1949
1838 1892
1838 1893
1839 1950
1839 1951
1840 1952
1841 1896
1841 1897
1842 1953
1842 1954
1843 1955
1844 1900
1844 1901
1845 1956
1845 1957
1846 1958
1847 1904
1847 1905
1848 1959
1848 1960
1849 1961
1850 1908
1850 1909
1851 1962
1851 1963
1852 1964
1853 1912
1853 1913
1854 1965
1854 1966
1855 1967
1856 1916
1856 1917
1857 1968
1857 1969
1858 1970
1859 1920
1859 1921
1860 1971
1860 1972
1861 1973
1862 1924
1862 1925
1863 1974
1863 1975
1864 1865
1864 1928
1864 1976
1864 1977
1865 1866
1865 1976
1865 1977
1866 1929
1866 1977
1866 1978
1867 1930
1867 1979
1867 1980
1868 1869
1868 1931
1868 1981
1868 1982
1869 1870
1869 1981
1869 1982
1870 1932
1870 1982
1870 1983
1871 1933
1871 1984
1871 1985
1872 1873
1872 1934
1872 1986
1872 1987
1873 1874
1873 1986
1873 1987
1874 1935
1874 1987
1874 1988
1875 1936
1875 1989
1875 1990
1876 1877
1876 1937
1876 1991
1876 1992
1877 1878
1877 1991
1877 1992
1878 1938
1878 1992
1878 1993
1879 1939
1879 1994
1879 1995
1880 1881
1880 1940
1880 1996
1880 1997
1881 1882
1881 1996
1881 1997
1882 1941
1882 1997
1882 1998
1883 1942
1883 1999
1883 2000
1884 1885
1884 1943
1884 2001
1884 2002
1885 1886
1885 2001
1885 2002
1886 1944
1886 2002
1886 2003
1887 1945
1887 2004
1887 2005
1888 1889
1888 1946
1888 2006
1888 2007
1889 1890
1889 2006
1889 2007
1890 1947
1890 2007
1890 2008
1891 1948
1891 2009
1891 2010
1892 1893
1892 1949
1892 2011
1892 2012
1893 1894
1893 2011
1893 2012
1894 1950
1894 2012
1894 2013
1895 1951
1895 2014
1895 2015
1896 1897
1896 1952
1896 2016
1896 2017
1897 1898
1897 2016
1897 2017
1898 1953
1898 2017
1898 2018
1899 1954
1899 2019
1899 2020
1900 1901
1900 1955
1900 2021
1900 2022
1901 1902
1901 2021
1901 2022
1902 1956
1902 2022
1902 2023
1903 1957
1903 2024
1903 2025
1904 1905
1904 1958
1904 2026
1904 2027
1905 1906
1905 2026
1905 2027
1906 1959
1906 2027
1906 2028
1907 1960
1907 2029
1907 2030
1908 1909
1908 1961
1908 2031
1908 2032
1909 1910
1909 2031
1909 2032
1910 1962
1910 2032
1910 2033
1911 1963
1911 2034
1911 2035
1912 1913
1912 1964
1912 2036
1912 2037
1913 1914
1913 2036
1913 2037
1914 1965
1914 2037
1914 2038
1915 1966
1915 2039
1915 2040
1916 1917
1916 1967
1916 2041
1916 2042
1917 1918
1917 2041
1917 2042
1918 1968
1918 2042
1918 2043
1919 1969
1919 2044
1919 2045
1920 1921
1920 1970
1920 2046
1920 2047
1921 1922
1921 2046
1921 2047
1922 1971
1922 2047
1922 2048
1923 1972
1923 2049
1923 2050
1924 1925
1924 1973
1924 2051
1924 2052
1925 1926
1925 2051
1925 2052
1926 1974
1926 2052
1926 2053
1927 1975
1927 2054
1927 2055
1928 1976
1929 1930
1929 1978
1929 2056
1929 2057
1930 1979
1930 2056
1930 2057
1931 1981
1932 1933
1932 1983
1932 2058
1932 2059
1933 1984
1933 2058
1933 2059
1934 1986
1935 1936
1935 1988
1935 2060
1935 2061
1936 1989
1936 2060
1936 2061
1937 1991
1938 1939
1938 1993
1938 2062
1938 2063
1939 1994
1939 2062
1939 2063
1940 1996
1941 1942
1941 1998
1941 2064
1941 2065
1942 1999
1942 2064
1942 2065
1943 2001
1944 1945
1944 2003
1944 2066
1944 2067
1945 2004
1945 2066
1945 2067
1946 2006
1947 1948
1947 2008
1947 2068
1947 2069
1948 2009
1948 2068
1948 2069
1949 2011
1950 1951
1950 2013
1950 2070
1950 2071
1951 2014
1951 2070
1951 2071
1952 2016
1953 1954
1953 2018
1953 2072
1953 2073
1954 2019
1954 2072
1954 2073
1955 2021
1956 1957
1956 2023
1956 2074
1956 2075
1957 2024
1957 2074
1957 2075
1958 2026
1959 1960
1959 2028
1959 2076
1959 2077
1960 2029
1960 2076
1960 2077
1961 2031
1962 1963
1962 2033
1962 2078
1962 2079
1963 2034
1963 2078
1963 2079
1964 2036
1965 1966
1965 2038
1965 2080
1965 2081
1966 2039
1966 2080
1966 2081
1967 2041
1968 1969
1968 2043
1968 2082
1968 2083
1969 2044
1969 2082
1969 2083
1970 2046
1971 1972
1971 2048
1971 2084
1971 2085
1972 2049
1972 2084
1972 2085
1973 2051
1974 1975
1974 2053
1974 2086
1974 2087
1975 2054
1975 2086
1975 2087
1976 1977
1976 2088
1977 2088
1978 2056
1978 2089
1979 2057
1979 2090
1980 2091
1981 1982
1981 2092
1982 2092
1983 2058
1983 2093
1984 2059
1984 2094
1985 2095
1986 1987
1986 2096
1987 2096
1988 2060
1988 2097
1989 2061
1989 2098
1990 2099
1991 1992
1991 2100
1992 2100
1993 2062
1993 2101
1994 2063
1994 2102
1995 2103
1996 1997
1996 2104
1997 2104
1998 2064
1998 2105
1999 2065
1999 2106
2000 2107
2001 2002
2001 2108
2002 2108
2003 2066
2003 2109
2004 2067
2004 2110
2005 2111
2006 2007
2006 2112
2007 2112
2008 2068
2008 2113
2009 2069
2009 2114
2010 2115
2011 2012
2011 2116
2012 2116
2013 2070
2013 2117
2014 2071
2014 2118
2015 2119
2016 2017
2016 2120
2017 2120
2018 2072
2018 2121
2019 2073
2019 2122
2020 2123
2021 2022
2021 2124
2022 2124
2023 2074
2023 2125
2024 2075
2024 2126
2025 2127
2026 2027
2026 2128
2027 2128
2028 2076
2028 2129
2029 2077
2029 2130
2030 2131
2031 2032
2031 2132
2032 2132
2033 2078
2033 2133
2034 2079
2034 2134
2035 2135
2036 2037
2036 2136
2037 2136
2038 2080
2038 2137
2039 2081
2039 2138
2040 2139
2041 2042
2041 2140
2042 2140
2043 2082
2043 2141
2044 2083
2044 2142
2045 2143
2046 2047
2046 2144
2047 2144
2048 2084
2048 2145
2049 2085
2049 2146
2050 2147
2051 2052
2051 2148
2052 2148
2053 2086
2053 2149
2054 2087
2054 2150
2055 2151
2056 2057
2056 2089
2057 2090
2058 2059
2058 2093
2059 2094
2060 2061
2060 2097
2061 2098
2062 2063
2062 2101
2063 2102
2064 2065
2064 2105
2065 2106
2066 2067
2066 2109
2067 2110
2068 2069
2068 2113
2069 2114
2070 2071
2070 2117
2071 2118
2072 2073
2072 2121
2073 2122
2074 2075
2074 2125
2075 2126
2076 2077
2076 2129
2077 2130
2078 2079
2078 2133
2079 2134
2080 2081
2080 2137
2081 2138
2082 2083
2082 2141
2083 2142
2084 2085
2084 2145
2085 2146
2086 2087
2086 2149
2087 2150
2088 2152
2088 2153
2089 2153
2090 2154
2090 2155
2091 2156
2091 2157
2092 2158
2092 2159
2093 2159
2094 2160
2094 2161
2095 2162
2095 2163
2096 2164
2096 2165
2097 2165
2098 2166
2098 2167
2099 2168
2099 2169
2100 2170
2100 2171
2101 2171
2102 2172
2102 2173
2103 2174
2103 2175
2104 2176
2104 2177
2105 2177
2106 2178
2106 2179
2107 2180
2107 2181
2108 2182
2108 2183
2109 2183
2110 2184
2110 2185
2111 2186
2111 2187
2112 2188
2112 2189
2113 2189
2114 2190
2114 2191
2115 2192
2115 2193
2116 2194
2116 2195
2117 2195
2118 2196
2118 2197
2119 2198
2119 2199
2120 2200
2120 2201
2121 2201
2122 2202
2122 2203
2123 2204
2123 2205
2124 2206
2124 2207
2125 2207
2126 2208
2126 2209
2127 2210
2127 2211
2128 2212
2128 2213
2129 2213
2130 2214
2130 2215
2131 2216
2131 2217
2132 2218
2132 2219
2133 2219
2134 2220
2134 2221
2135 2222
2135 2223
2136 2224
2136 2225
2137 2225
2138 2226
2138 2227
2139 2228
2139 2229
2140 2230
2140 2231
2141 2231
2142 2232
2142 2233
2143 2234
2143 2235
2144 2236
2144 2237
2145 2237
2146 2238
2146 2239
2147 2240
2147 2241
2148 2242
2148 2243
2149 2243
2150 2244
2150 2245
2151 2246
2151 2247
2152 2153
2152 2248
2152 2313
2152 2314
2153 2249
2153 2313
2153 2314
2154 2155
2154 2250
2154 2315
2154 2316
2155 2251
2155 2315
2155 2316
2156 2157
2156 2251
2156 2317
2156 2318
2157 2252
2157 2317
2157 2318
2158 2159
2158 2252
2158 2319
2158 2320
2159 2253
2159 2319
2159 2320
2160 2161
2160 2254
2160 2321
2160 2322
2161 2255
2161 2321
2161 2322
2162 2163
2162 2255
2162 2323
2162 2324
2163 2256
2163 2323
2163 2324
2164 2165
2164 2256
2164 2325
2164 2326
2165 2257
2165 2325
2165 2326
2166 2167
2166 2258
2166 2327
2166 2328
2167 2259
2167 2327
2167 2328
2168 2169
2168 2259
2168 2329
2168 2330
2169 2260
2169 2329
2169 2330
2170 2171
2170 2260
2170 2331
2170 2332
2171 2261
2171 2331
2171 2332
2172 2173
2172 2262
2172 2333
2172 2334
2173 2263
2173 2333
2173 2334
2174 2175
2174 2263
2174 2335
2174 2336
2175 2264
2175 2335
2175 2336
2176 2177
2176 2264
2176 2337
2176 2338
2177 2265
2177 2337
2177 2338
2178 2179
2178 2266
2178 2339
2178 2340
2179 2267
2179 2339
2179 2340
2180 2181
2180 2267
2180 2341
2180 2342
2181 2268
2181 2341
2181 2342
2182 2183
2182 2268
2182 2343
2182 2344
2183 2269
2183 2343
2183 2344
2184 2185
2184 2270
2184 2345
2184 2346
2185 2271
2185 2345
2185 2346
2186 2187
2186 2271
2186 2347
2186 2348
2187 2272
2187 2347
2187 2348
2188 2189
2188 2272
2188 2349
2188 2350
2189 2273
2189 2349
2189 2350
2190 2191
2190 2274
2190 2351
2190 2352
2191 2275
2191 2351
2191 2352
2192 2193
2192 2275
2192 2353
2192 2354
2193 2276
2193 2353
2193 2354
2194 2195
2194 2276
2194 2355
2194 2356
2195 2277
2195 2355
2195 2356
2196 2197
2196 2278
2196 2357
2196 2358
2197 2279
2197 2357
2197 2358
2198 2199
2198 2279
2198 2359
2198 2360
2199 2280
2199 2359
2199 2360
2200 2201
2200 2280
2200 2361
2200 2362
2201 2281
2201 2361
2201 2362
2202 2203
2202 2282
2202 2363
2202 2364
2203 2283
2203 2363
2203 2364
2204 2205
2204 2283
2204 2365
2204 2366
2205 2284
2205 2365
2205 2366
2206 2207
2206 2284
2206 2367
2206 2368
2207 2285
2207 2367
2207 2368
2208 2209
2208 2286
2208 2369
2208 2370
2209 2287
2209 2369
2209 2370
2210 2211
2210 2287
2210 2371
2210 2372
2211 2288
2211 2371
2211 2372
2212 2213
2212 2288
2212 2373
2212 2374
2213 2289
2213 2373
2213 2374
2214 2215
2214 2290
2214 2375
2214 2376
2215 2291
2215 2375
2215 2376
2216 2217
2216 2291
2216 2377
2216 2378
2217 2292
2217 2377
2217 2378
2218 2219
2218 2292
2218 2379
2218 2380
2219 2293
2219 2379
2219 2380
2220 2221
2220 2294
2220 2381
2220 2382
2221 2295
2221 2381
2221 2382
2222 2223
2222 2295
2222 2383
2222 2384
2223 2296
2223 2383
2223 2384
2224 2225
2224 2296
2224 2385
2224 2386
2225 2297
2225 2385
2225 2386
2226 2227
2226 2298
2226 2387
2226 2388
2227 2299
2227 2387
2227 2388
2228 2229
2228 2299
2228 2389
2228 2390
2229 2300
2229 2389
2229 2390
2230 2231
2230 2300
2230 2391
2230 2392
2231 2301
2231 2391
2231 2392
2232 2233
2232 2302
2232 2393
2232 2394
2233 2303
2233 2393
2233 2394
2234 2235
2234 2303
2234 2395
2234 2396
2235 2304
2235 2395
2235 2396
2236 2237
2236 2304
2236 2397
2236 2398
2237 2305
2237 2397
2237 2398
2238 2239
2238 2306
2238 2399
2238 2400
2239 2307
2239 2399
2239 2400
2240 2241
2240 2307
2240 2401
2240 2402
2241 2308
2241 2401
2241 2402
2242 2243
2242 2308
2242 2403
2242 2404
2243 2309
2243 2403
2243 2404
2244 2245
2244 2310
2244 2405
2244 2406
2245 2311
2245 2405
2245 2406
2246 2247
2246 2311
2247 2312
2248 2313
2249 2250
2249 2314
2250 2315
2251 2316
2251 2317
2252 2318
2252 2319
2253 2254
2253 2320
2254 2321
2255 2322
2255 2323
2256 2324
2256 2325
2257 2258
2257 2326
2258 2327
2259 2328
2259 2329
2260 2330
2260 2331
2261 2262
2261 2332
2262 2333
2263 2334
2263 2335
2264 2336
2264 2337
2265 2266
2265 2338
2266 2339
2267 2340
2267 2341
2268 2342
2268 2343
2269 2270
2269 2344
2270 2345
2271 2346
2271 2347
2272 2348
2272 2349
2273 2274
2273 2350
2274 2351
2275 2352
2275 2353
2276 2354
2276 2355
2277 2278
2277 2356
2278 2357
2279 2358
2279 2359
2280 2360
2280 2361
2281 2282
2281 2362
2282 2363
2283 2364
2283 2365
2284 2366
2284 2367
2285 2286
2285 2368
2286 2369
2287 2370
2287 2371
2288 2372
2288 2373
2289 2290
2289 2374
2290 2375
2291 2376
2291 2377
2292 2378
2292 2379
2293 2294
2293 2380
2294 2381
2295 2382
2295 2383
2296 2384
2296 2385
2297 2298
2297 2386
2298 2387
2299 2388
2299 2389
2300 2390
2300 2391
2301 2302
2301 2392
2302 2393
2303 2394
2303 2395
2304 2396
2304 2397
2305 2306
2305 2398
2306 2399
2307 2400
2307 2401
2308 2402
2308 2403
2309 2310
2309 2404
2310 2405
2311 2406
2313 2314
2313 2407
2314 2407
2315 2316
2315 2408
2316 2408
2317 2318
2317 2409
2318 2409
2319 2320
2319 2410
2320 2410
2321 2322
2321 2411
2322 2411
2323 2324
2323 2412
2324 2412
2325 2326
2325 2413
2326 2413
2327 2328
2327 2414
2328 2414
2329 2330
2329 2415
2330 2415
2331 2332
2331 2416
2332 2416
2333 2334
2333 2417
2334 2417
2335 2336
2335 2418
2336 2418
2337 2338
2337 2419
2338 2419
2339 2340
2339 2420
2340 2420
2341 2342
2341 2421
2342 2421
2343 2344
2343 2422
2344 2422
2345 2346
2345 2423
2346 2423
2347 2348
2347 2424
2348 2424
2349 2350
2349 2425
2350 2425
2351 2352
2351 2426
2352 2426
2353 2354
2353 2427
2354 2427
2355 2356
2355 2428
2356 2428
2357 2358
2357 2429
2358 2429
2359 2360
2359 2430
2360 2430
2361 2362
2361 2431
2362 2431
2363 2364
2363 2432
2364 2432
2365 2366
2365 2433
2366 2433
2367 2368
2367 2434
2368 2434
2369 2370
2369 2435
2370 2435
2371 2372
2371 2436
2372 2436
2373 2374
2373 2437
2374 2437
2375 2376
2375 2438
2376 2438
2377 2378
2377 2439
2378 2439
2379 2380
2379 2440
2380 2440
2381 2382
2381 2441
2382 2441
2383 2384
2383 2442
2384 2442
2385 2386
2385 2443
2386 2443
2387 2388
2387 2444
2388 2444
2389 2390
2389 2445
2390 2445
2391 2392
2391 2446
2392 2446
2393 2394
2393 2447
2394 2447
2395 2396
2395 2448
2396 2448
2397 2398
2397 2449
2398 2449
2399 2400
2399 2450
2400 2450
2401 2402
2401 2451
2402 2451
2403 2404
2403 2452
2404 2452
2405 2406
2405 2453
2406 2453
2407 2454
2407 2455
2408 2519
2408 2520
2409 2521
2410 2458
2410 2459
2411 2522
2411 2523
2412 2524
2413 2462
2413 2463
2414 2525
2414 2526
2415 2527
2416 2466
2416 2467
2417 2528
2417 2529
2418 2530
2419 2470
2419 2471
2420 2531
2420 2532
2421 2533
2422 2474
2422 2475
2423 2534
2423 2535
2424 2536
2425 2478
2425 2479
2426 2537
2426 2538
2427 2539
2428 2482
2428 2483
2429 2540
2429 2541
2430 2542
2431 2486
2431 2487
2432 2543
2432 2544
2433 2545
2434 2490
2434 2491
2435 2546
2435 2547
2436 2548
2437 2494
2437 2495
2438 2549
2438 2550
2439 2551
2440 2498
2440 2499
2441 2552
2441 2553
2442 2554
2443 2502
2443 2503
2444 2555
2444 2556
2445 2557
2446 2506
2446 2507
2447 2558
2447 2559
2448 2560
2449 2510
2449 2511
2450 2561
2450 2562
2451 2563
2452 2514
2452 2515
2453 2564
2453 2565
2454 2455
2454 2518
2454 2566
2454 2567
2455 2456
2455 2566
2455 2567
2456 2519
2456 2567
2456 2568
2457 2520
2457 2569
2457 2570
2458 2459
2458 2521
2458 2571
2458 2572
2459 2460
2459 2571
2459 2572
2460 2522
2460 2572
2460 2573
2461 2523
2461 2574
2461 2575
2462 2463
2462 2524
2462 2576
2462 2577
2463 2464
2463 2576
2463 2577
2464 2525
2464 2577
2464 2578
2465 2526
2465 2579
2465 2580
2466 2467
2466 2527
2466 2581
2466 2582
2467 2468
2467 2581
2467 2582
2468 2528
2468 2582
2468 2583
2469 2529
2469 2584
2469 2585
2470 2471
2470 2530
2470 2586
2470 2587
2471 2472
2471 2586
2471 2587
2472 2531
2472 2587
2472 2588
2473 2532
2473 2589
2473 2590
2474 2475
2474 2533
2474 2591
2474 2592
2475 2476
2475 2591
2475 2592
2476 2534
2476 2592
2476 2593
2477 2535
2477 2594
2477 2595
2478 2479
2478 2536
2478 2596
2478 2597
2479 2480
2479 2596
2479 2597
2480 2537
2480 2597
2480 2598
2481 2538
2481 2599
2481 2600
2482 2483
2482 2539
2482 2601
2482 2602
2483 2484
2483 2601
2483 2602
2484 2540
2484 2602
2484 2603
2485 2541
2485 2604
2485 2605
2486 2487
2486 2542
2486 2606
2486 2607
2487 2488
2487 2606
2487 2607
2488 2543
2488 2607
2488 2608
2489 2544
2489 2609
2489 2610
2490 2491
2490 2545
2490 2611
2490 2612
2491 2492
2491 2611
2491 2612
2492 2546
2492 2612
2492 2613
2493 2547
2493 2614
2493 2615
2494 2495
2494 2548
2494 2616
2494 2617
2495 2496
2495 2616
2495 2617
2496 2549
2496 2617
2496 2618
2497 2550
2497 2619
2497 2620
2498 2499
2498 2551
2498 2621
2498 2622
2499 2500
2499 2621
2499 2622
2500 2552
2500 2622
2500 2623
2501 2553
2501 2624
2501 2625
2502 2503
2502 2554
2502 2626
2502 2627
2503 2504
2503 2626
2503 2627
2504 2555
2504 2627
2504 2628
2505 2556
2505 2629
2505 2630
2506 2507
2506 2557
2506 2631
2506 2632
2507 2508
2507 2631
2507 2632
2508 2558
2508 2632
2508 2633
2509 2559
2509 2634
2509 2635
2510 2511
2510 2560
2510 2636
2510 2637
2511 2512
2511 2636
2511 2637
2512 2561
2512 2637
2512 2638
2513 2562
2513 2639
2513 2640
2514 2515
2514 2563
2514 2641
2514 2642
2515 2516
2515 2641
2515 2642
2516 2564
2516 2642
2516 2643
2517 2565
2517 2644
2517 2645
2518 2566
2519 2520
2519 2568
2519 2646
2519 2647
2520 2569
2520 2646
2520 2647
2521 2571
2522 2523
2522 2573
2522 2648
2522 2649
2523 2574
2523 2648
2523 2649
2524 2576
2525 2526
2525 2578
2525 2650
2525 2651
2526 2579
2526 2650
2526 2651
2527 2581
2528 2529
2528 2583
2528 2652
2528 2653
2529 2584
2529 2652
2529 2653
2530 2586
2531 2532
2531 2588
2531 2654
2531 2655
2532 2589
2532 2654
2532 2655
2533 2591
2534 2535
2534 2593
2534 2656
2534 2657
2535 2594
2535 2656
2535 2657
2536 2596
2537 2538
2537 2598
2537 2658
2537 2659
2538 2599
2538 2658
2538 2659
2539 2601
2540 2541
2540 2603
2540 2660
2540 2661
2541 2604
2541 2660
2541 2661
2542 2606
2543 2544
2543 2608
2543 2662
2543 2663
2544 2609
2544 2662
2544 2663
2545 2611
2546 2547
2546 2613
2546 2664
2546 2665
2547 2614
2547 2664
2547 2665
2548 2616
2549 2550
2549 2618
2549 2666
2549 2667
2550 2619
2550 2666
2550 2667
2551 2621
2552 2553
2552 2623
2552 2668
2552 2669
2553 2624
2553 2668
2553 2669
2554 2626
2555 2556
2555 2628
2555 2670
2555 2671
2556 2629
2556 2670
2556 2671
2557 2631
2558 2559
2558 2633
2558 2672
2558 2673
2559 2634
2559 2672
2559 2673
2560 2636
2561 2562
2561 2638
2561 2674
2561 2675
2562 2639
2562 2674
2562 2675
2563 2641
2564 2565
2564 2643
2564 2676
2564 2677
2565 2644
2565 2676
2565 2677
2566 2567
2566 2678
2567 2678
2568 2646
2568 2679
2569 2647
2569 2680
2570 2681
2571 2572
2571 2682
2572 2682
2573 2648
2573 2683
2574 2649
2574 2684
2575 2685
2576 2577
2576 2686
2577 2686
2578 2650
2578 2687
2579 2651
2579 2688
2580 2689
2581 2582
2581 2690
2582 2690
2583 2652
2583 2691
2584 2653
2584 2692
2585 2693
2586 2587
2586 2694
2587 2694
2588 2654
2588 2695
2589 2655
2589 2696
2590 2697
2591 2592
2591 2698
2592 2698
2593 2656
2593 2699
2594 2657
2594 2700
2595 2701
2596 2597
2596 2702
2597 2702
2598 2658
2598 2703
2599 2659
2599 2704
2600 2705
2601 2602
2601 2706
2602 2706
2603 2660
2603 2707
2604 2661
2604 2708
2605 2709
2606 2607
2606 2710
2607 2710
2608 2662
2608 2711
2609 2663
2609 2712
2610 2713
2611 2612
2611 2714
2612 2714
2613 2664
2613 2715
2614 2665
2614 2716
2615 2717
2616 2617
2616 2718
2617 2718
2618 2666
2618 2719
2619 2667
2619 2720
2620 2721
2621 2622
2621 2722
2622 2722
2623 2668
2623 2723
2624 2669
2624 2724
2625 2725
2626 2627
2626 2726
2627 2726
2628 2670
2628 2727
2629 2671
2629 2728
2630 2729
2631 2632
2631 2730
2632 2730
2633 2672
2633 2731
2634 2673
2634 2732
2635 2733
2636 2637
2636 2734
2637 2734
2638 2674
2638 2735
2639 2675
2639 2736
2640 2737
2641 2642
2641 2738
2642 2738
2643 2676
2643 2739
2644 2677
2644 2740
2645 2741
2646 2647
2646 2679
2647 2680
2648 2649
2648 2683
2649 2684
2650 2651
2650 2687
2651 2688
2652 2653
2652 2691
2653 2692
2654 2655
2654 2695
2655 2696
2656 2657
2656 2699
2657 2700
2658 2659
2658 2703
2659 2704
2660 2661
2660 2707
2661 2708
2662 2663
2662 2711
2663 2712
2664 2665
2664 2715
2665 2716
2666 2667
2666 2719
2667 2720
2668 2669
2668 2723
2669 2724
2670 2671
2670 2727
2671 2728
2672 2673
2672 2731
2673 2732
2674 2675
2674 2735
2675 2736
2676 2677
2676 2739
2677 2740
2678 2742
2678 2743
2679 2743
2680 2744
2680 2745
2681 2746
2681 2747
2682 2748
2682 2749
2683 2749
2684 2750
2684 2751
2685 2752
2685 2753
2686 2754
2686 2755
2687 2755
2688 2756
2688 2757
2689 2758
2689 2759
2690 2760
2690 2761
2691 2761
2692 2762
2692 2763
2693 2764
2693 2765
2694 2766
2694 2767
2695 2767
2696 2768
2696 2769
2697 2770
2697 2771
2698 2772
2698 2773
2699 2773
2700 2774
2700 2775
2701 2776
2701 2777
2702 2778
2702 2779
2703 2779
2704 2780
2704 2781
2705 2782
2705 2783
2706 2784
2706 2785
2707 2785
2708 2786
2708 2787
2709 2788
2709 2789
2710 2790
2710 2791
2711 2791
2712 2792
2712 2793
2713 2794
2713 2795
2714 2796
2714 2797
2715 2797
2716 2798
2716 2799
2717 2800
2717 2801
2718 2802
2718 2803
2719 2803
2720 2804
2720 2805
2721 2806
2721 2807
2722 2808
2722 2809
2723 2809
2724 2810
2724 2811
2725 2812
2725 2813
2726 2814
2726 2815
2727 2815
2728 2816
2728 2817
2729 2818
2729 2819
2730 2820
2730 2821
2731 2821
2732 2822
2732 2823
2733 2824
2733 2825
2734 2826
2734 2827
2735 2827
2736 2828
2736 2829
2737 2830
2737 2831
2738 2832
2738 2833
2739 2833
2740 2834
2740 2835
2741 2836
2741 2837
2742 2743
2742 2838
2742 2903
2742 2904
2743 2839
2743 2903
2743 2904
2744 2745
2744 2840
2744 2905
2744 2906
2745 2841
2745 2905
2745 2906
2746 2747
2746 2841
2746 2907
2746 2908
2747 2842
2747 2907
2747 2908
2748 2749
2748 2842
2748 2909
2748 2910
2749 2843
2749 2909
2749 2910
2750 2751
2750 2844
2750 2911
2750 2912
2751 2845
2751 2911
2751 2912
2752 2753
2752 2845
2752 2913
2752 2914
2753 2846
2753 2913
2753 2914
2754 2755
2754 2846
2754 2915
2754 2916
2755 2847
2755 2915
2755 2916
2756 2757
2756 2848
2756 2917
2756 2918
2757 2849
2757 2917
2757 2918
2758 2759
2758 2849
2758 2919
2758 2920
2759 2850
2759 2919
2759 2920
2760 2761
2760 2850
2760 2921
2760 2922
2761 2851
2761 2921
2761 2922
2762 2763
2762 2852
2762 2923
2762 2924
2763 2853
2763 2923
2763 2924
2764 2765
2764 2853
2764 2925
2764 2926
2765 2854
2765 2925
2765 2926
2766 2767
2766 2854
2766 2927
2766 2928
2767 2855
2767 2927
2767 2928
2768 2769
2768 2856
2768 2929
2768 2930
2769 2857
2769 2929
2769 2930
2770 2771
2770 2857
2770 2931
2770 2932
2771 2858
2771 2931
2771 2932
2772 2773
2772 2858
2772 2933
2772 2934
2773 2859
2773 2933
2773 2934
2774 2775
2774 2860
2774 2935
2774 2936
2775 2861
2775 2935
2775 2936
2776 2777
2776 2861
2776 2937
2776 2938
2777 2862
2777 2937
2777 2938
2778 2779
2778 2862
2778 2939
2778 2940
2779 2863
2779 2939
2779 2940
2780 2781
2780 2864
2780 2941
2780 2942
2781 2865
2781 2941
2781 2942
2782 2783
2782 2865
2782 2943
2782 2944
2783 2866
2783 2943
2783 2944
2784 2785
2784 2866
2784 2945
2784 2946
2785 2867
2785 2945
2785 2946
2786 2787
2786 2868
2786 2947
2786 2948
2787 2869
2787 2947
2787 2948
2788 2789
2788 2869
2788 2949
2788 2950
2789 2870
2789 2949
2789 2950
2790 2791
2790 2870
2790 2951
2790 2952
2791 2871
2791 2951
2791 2952
2792 2793
2792 2872
2792 2953
2792 2954
2793 2873
2793 2953
2793 2954
2794 2795
2794 2873
2794 2955
2794 2956
2795 2874
2795 2955
2795 2956
2796 2797
2796 2874
2796 2957
2796 2958
2797 2875
2797 2957
2797 2958
2798 2799
2798 2876
2798 2959
2798 2960
2799 2877
2799 2959
2799 2960
2800 2801
2800 2877
2800 2961
2800 2962
2801 2878
2801 2961
2801 2962
2802 2803
2802 2878
2802 2963
2802 2964
2803 2879
2803 2963
2803 2964
2804 2805
2804 2880
2804 2965
2804 2966
2805 2881
2805 2965
2805 2966
2806 2807
2806 2881
2806 2967
2806 2968
2807 2882
2807 2967
2807 2968
2808 2809
2808 2882
2808 2969
2808 2970
2809 2883
2809 2969
2809 2970
2810 2811
2810 2884
2810 2971
2810 2972
2811 2885
2811 2971
2811 2972
2812 2813
2812 2885
2812 2973
2812 2974
2813 2886
2813 2973
2813 2974
2814 2815
2814 2886
2814 2975
2814 2976
2815 2887
2815 2975
2815 2976
2816 2817
2816 2888
2816 2977
2816 2978
2817 2889
2817 2977
2817 2978
2818 2819
2818 2889
2818 2979
2818 2980
2819 2890
2819 2979
2819 2980
2820 2821
2820 2890
2820 2981
2820 2982
2821 2891
2821 2981
2821 2982
2822 2823
2822 2892
2822 2983
2822 2984
2823 2893
2823 2983
2823 2984
2824 2825
2824 2893
2824 2985
2824 2986
2825 2894
2825 2985
2825 2986
2826 2827
2826 2894
2826 2987
2826 2988
2827 2895
2827 2987
2827 2988
2828 2829
2828 2896
2828 2989
2828 2990
2829 2897
2829 2989
2829 2990
2830 2831
2830 2897
2830 2991
2830 2992
2831 2898
2831 2991
2831 2992
2832 2833
2832 2898
2832 2993
2832 2994
2833 2899
2833 2993
2833 2994
2834 2835
2834 2900
2834 2995
2834 2996
2835 2901
2835 2995
2835 2996
2836 2837
2836 2901
2837 2902
2838 2903
2839 2840
2839 2904
2840 2905
2841 2906
2841 2907
2842 2908
2842 2909
2843 2844
2843 2910
2844 2911
2845 2912
2845 2913
2846 2914
2846 2915
2847 2848
2847 2916
2848 2917
2849 2918
2849 2919
2850 2920
2850 2921
2851 2852
2851 2922
2852 2923
2853 2924
2853 2925
2854 2926
2854 2927
2855 2856
2855 2928
2856 2929
2857 2930
2857 2931
2858 2932
2858 2933
2859 2860
2859 2934
2860 2935
2861 2936
2861 2937
2862 2938
2862 2939
2863 2864
2863 2940
2864 2941
2865 2942
2865 2943
2866 2944
2866 2945
2867 2868
2867 2946
2868 2947
2869 2948
2869 2949
2870 2950
2870 2951
2871 2872
2871 2952
2872 2953
2873 2954
2873 2955
2874 2956
2874 2957
2875 2876
2875 2958
2876 2959
2877 2960
2877 2961
2878 2962
2878 2963
2879 2880
2879 2964
2880 2965
2881 2966
2881 2967
2882 2968
2882 2969
2883 2884
2883 2970
2884 2971
2885 2972
2885 2973
2886 2974
2886 2975
2887 2888
2887 2976
2888 2977
2889 2978
2889 2979
2890 2980
2890 2981
2891 2892
2891 2982
2892 2983
2893 2984
2893 2985
2894 2986
2894 2987
2895 2896
2895 2988
2896 2989
2897 2990
2897 2991
2898 2992
2898 2993
2899 2900
2899 2994
2900 2995
2901 2996
2903 2904
2903 2997
2904 2997
2905 2906
2905 2998
2906 2998
2907 2908
2907 2999
2908 2999
2909 2910
2909 3000
2910 3000
2911 2912
2911 3001
2912 3001
2913 2914
2913 3002
2914 3002
2915 2916
2915 3003
2916 3003
2917 2918
2917 3004
2918 3004
2919 2920
2919 3005
2920 3005
2921 2922
2921 3006
2922 3006
2923 2924
2923 3007
2924 3007
2925 2926
2925 3008
2926 3008
2927 2928
2927 3009
2928 3009
2929 2930
2929 3010
2930 3010
2931 2932
2931 3011
2932 3011
2933 2934
2933 3012
2934 3012
2935 2936
2935 3013
2936 3013
2937 2938
2937 3014
2938 3014
2939 2940
2939 3015
2940 3015
2941 2942
2941 3016
2942 3016
2943 2944
2943 3017
2944 3017
2945 2946
2945 3018
2946 3018
2947 2948
2947 3019
2948 3019
2949 2950
2949 3020
2950 3020
2951 2952
2951 3021
2952 3021
2953 2954
2953 3022
2954 3022
2955 2956
2955 3023
2956 3023
2957 2958
2957 3024
2958 3024
2959 2960
2959 3025
2960 3025
2961 2962
2961 3026
2962 3026
2963 2964
2963 3027
2964 3027
2965 2966
2965 3028
2966 3028
2967 2968
2967 3029
2968 3029
2969 2970
2969 3030
2970 3030
2971 2972
2971 3031
2972 3031
2973 2974
2973 3032
2974 3032
2975 2976
2975 3033
2976 3033
2977 2978
2977 3034
2978 3034
2979 2980
2979 3035
2980 3035
2981 2982
2981 3036
2982 3036
2983 2984
2983 3037
2984 3037
2985 2986
2985 3038
2986 3038
2987 2988
2987 3039
2988 3039
2989 2990
2989 3040
2990 3040
2991 2992
2991 3041
2992 3041
2993 2994
2993 3042
2994 3042
2995 2996
2995 3043
2996 3043
2997 3044
2997 3045
2998 3109
2998 3110
2999 3111
3000 3048
3000 3049
3001 3112
3001 3113
3002 3114
3003 3052
3003 3053
3004 3115
3004 3116
3005 3117
3006 3056
3006 3057
3007 3118
3007 3119
3008 3120
3009 3060
3009 3061
3010 3121
3010 3122
3011 3123
3012 3064
3012 3065
3013 3124
3013 3125
3014 3126
3015 3068
3015 3069
3016 3127
3016 3128
3017 3129
3018 3072
3018 3073
3019 3130
3019 3131
3020 3132
3021 3076
3021 3077
3022 3133
3022 3134
3023 3135
3024 3080
3024 3081
3025 3136
3025 3137
3026 3138
3027 3084
3027 3085
3028 3139
3028 3140
3029 3141
3030 3088
3030 3089
3031 3142
3031 3143
3032 3144
3033 3092
3033 3093
3034 3145
3034 3146
3035 3147
3036 3096
3036 3097
3037 3148
3037 3149
3038 3150
3039 3100
3039 3101
3040 3151
3040 3152
3041 3153
3042 3104
3042 3105
3043 3154
3043 3155
3044 3045
3044 3108
3044 3156
3044 3157
3045 3046
3045 3156
3045 3157
3046 3109
3046 3157
3046 3158
3047 3110
3047 3159
3047 3160
3048 3049
3048 3111
3048 3161
3048 3162
3049 3050
3049 3161
3049 3162
3050 3112
3050 3162
3050 3163
3051 3113
3051 3164
3051 3165
3052 3053
3052 3114
3052 3166
3052 3167
3053 3054
3053 3166
3053 3167
3054 3115
3054 3167
3054 3168
3055 3116
3055 3169
3055 3170
3056 3057
3056 3117
3056 3171
3056 3172
3057 3058
3057 3171
3057 3172
3058 3118
3058 3172
3058 3173
3059 3119
3059 3174
3059 3175
3060 3061
3060 3120
3060 3176
3060 3177
3061 3062
3061 3176
3061 3177
3062 3121
3062 3177
3062 3178
3063 3122
3063 3179
3063 3180
3064 3065
3064 3123
3064 3181
3064 3182
3065 3066
3065 3181
3065 3182
3066 3124
3066 3182
3066 3183
3067 3125
3067 3184
3067 3185
3068 3069
3068 3126
3068 3186
3068 3187
3069 3070
3069 3186
3069 3187
3070 3127
3070 3187
3070 3188
3071 3128
3071 3189
3071 3190
3072 3073
3072 3129
3072 3191
3072 3192
3073 3074
3073 3191
3073 3192
3074 3130
3074 3192
3074 3193
3075 3131
3075 3194
3075 3195
3076 3077
3076 3132
3076 3196
3076 3197
3077 3078
3077 3196
3077 3197
3078 3133
3078 3197
3078 3198
3079 3134
3079 3199
3079 3200
3080 3081
3080 3135
3080 3201
3080 3202
3081 3082
3081 3201
3081 3202
3082 3136
3082 3202
3082 3203
3083 3137
3083 3204
3083 3205
3084 3085
3084 3138
3084 3206
3084 3207
3085 3086
3085 3206
3085 3207
3086 3139
3086 3207
3086 3208
3087 3140
3087 3209
3087 3210
3088 3089
3088 3141
3088 3211
3088 3212
3089 3090
3089 3211
3089 3212
3090 3142
3090 3212
3090 3213
3091 3143
3091 3214
3091 3215
3092 3093
3092 3144
3092 3216
3092 3217
3093 3094
3093 3216
3093 3217
3094 3145
3094 3217
3094 3218
3095 3146
3095 3219
3095 3220
3096 3097
3096 3147
3096 3221
3096 3222
3097 3098
3097 3221
3097 3222
3098 3148
3098 3222
3098 3223
3099 3149
3099 3224
3099 3225
3100 3101
3100 3150
3100 3226
3100 3227
3101 3102
3101 3226
3101 3227
3102 3151
3102 3227
3102 3228
3103 3152
3103 3229
3103 3230
3104 3105
3104 3153
3104 3231
3104 3232
3105 3106
3105 3231
3105 3232
3106 3154
3106 3232
3106 3233
3107 3155
3107 3234
3107 3235
3108 3156
3109 3110
3109 3158
3109 3236
3109 3237
3110 3159
3110 3236
3110 3237
3111 3161
3112 3113
3112 3163
3112 3238
3112 3239
3113 3164
3113 3238
3113 3239
3114 3166
3115 3116
3115 3168
3115 3240
3115 3241
3116 3169
3116 3240
3116 3241
3117 3171
3118 3119
3118 3173
3118 3242
3118 3243
3119 3174
3119 3242
3119 3243
3120 3176
3121 3122
3121 3178
3121 3244
3121 3245
3122 3179
3122 3244
3122 3245
3123 3181
3124 3125
3124 3183
3124 3246
3124 3247
3125 3184
3125 3246
3125 3247
3126 3186
3127 3128
3127 3188
3127 3248
3127 3249
3128 3189
3128 3248
3128 3249
3129 3191
3130 3131
3130 3193
3130 3250
3130 3251
3131 3194
3131 3250
3131 3251
3132 3196
3133 3134
3133 3198
3133 3252
3133 3253
3134 3199
3134 3252
3134 3253
3135 3201
3136 3137
3136 3203
3136 3254
3136 3255
3137 3204
3137 3254
3137 3255
3138 3206
3139 3140
3139 3208
3139 3256
3139 3257
3140 3209
3140 3256
3140 3257
3141 3211
3142 3143
3142 3213
3142 3258
3142 3259
3143 3214
3143 3258
3143 3259
3144 3216
3145 3146
3145 3218
3145 3260
3145 3261
3146 3219
3146 3260
3146 3261
3147 3221
3148 3149
3148 3223
3148 3262
3148 3263
3149 3224
3149 3262
3149 3263
3150 3226
3151 3152
3151 3228
3151 3264
3151 3265
3152 3229
3152 3264
3152 3265
3153 3231
3154 3155
3154 3233
3154 3266
3154 3267
3155 3234
3155 3266
3155 3267
3156 3157
3156 3268
3157 3268
3158 3236
3158 3269
3159 3237
3159 3270
3160 3271
3161 3162
3161 3272
3162 3272
3163 3238
3163 3273
3164 3239
3164 3274
3165 3275
3166 3167
3166 3276
3167 3276
3168 3240
3168 3277
3169 3241
3169 3278
3170 3279
3171 3172
3171 3280
3172 3280
3173 3242
3173 3281
3174 3243
3174 3282
3175 3283
3176 3177
3176 3284
3177 3284
3178 3244
3178 3285
3179 3245
3179 3286
3180 3287
3181 3182
3181 3288
3182 3288
3183 3246
3183 3289
3184 3247
3184 3290
3185 3291
3186 3187
3186 3292
3187 3292
3188 3248
3188 3293
3189 3249
3189 3294
3190 3295
3191 3192
3191 3296
3192 3296
3193 3250
3193 3297
3194 3251
3194 3298
3195 3299
3196 3197
3196 3300
3197 3300
3198 3252
3198 3301
3199 3253
3199 3302
3200 3303
3201 3202
3201 3304
3202 3304
3203 3254
3203 3305
3204 3255
3204 3306
3205 3307
3206 3207
3206 3308
3207 3308
3208 3256
3208 3309
3209 3257
3209 3310
3210 3311
3211 3212
3211 3312
3212 3312
3213 3258
3213 3313
3214 3259
3214 3314
3215 3315
3216 3217
3216 3316
3217 3316
3218 3260
3218 3317
3219 3261
3219 3318
3220 3319
3221 3222
3221 3320
3222 3320
3223 3262
3223 3321
3224 3263
3224 3322
3225 3323
3226 3227
3226 3324
3227 3324
3228 3264
3228 3325
3229 3265
3229 3326
3230 3327
3231 3232
3231 3328
3232 3328
3233 3266
3233 3329
3234 3267
3234 3330
3235 3331
3236 3237
3236 3269
3237 3270
3238 3239
3238 3273
3239 3274
3240 3241
3240 3277
3241 3278
3242 3243
3242 3281
3243 3282
3244 3245
3244 3285
3245 3286
3246 3247
3246 3289
3247 3290
3248 3249
3248 3293
3249 3294
3250 3251
3250 3297
3251 3298
3252 3253
3252 3301
3253 3302
3254 3255
3254 3305
3255 3306
3256 3257
3256 3309
3257 3310
3258 3259
3258 3313
3259 3314
3260 3261
3260 3317
3261 3318
3262 3263
3262 3321
3263 3322
3264 3265
3264 3325
3265 3326
3266 3267
3266 3329
3267 3330
3268 3332
3268 3333
3269 3333
3270 3334
3270 3335
3271 3336
3271 3337
3272 3338
3272 3339
3273 3339
3274 3340
3274 3341
3275 3342
3275 3343
3276 3344
3276 3345
3277 3345
3278 3346
3278 3347
3279 3348
3279 3349
3280 3350
3280 3351
3281 3351
3282 3352
3282 3353
3283 3354
3283 3355
3284 3356
3284 3357
3285 3357
3286 3358
3286 3359
3287 3360
3287 3361
3288 3362
3288 3363
3289 3363
3290 3364
3290 3365
3291 3366
3291 3367
3292 3368
3292 3369
3293 3369
3294 3370
3294 3371
3295 3372
3295 3373
3296 3374
3296 3375
3297 3375
3298 3376
3298 3377
3299 3378
3299 3379
3300 3380
3300 3381
3301 3381
3302 3382
3302 3383
3303 3384
3303 3385
3304 3386
3304 3387
3305 3387
3306 3388
3306 3389
3307 3390
3307 3391
3308 3392
3308 3393
3309 3393
3310 3394
3310 3395
3311 3396
3311 3397
3312 3398
3312 3399
3313 3399
3314 3400
3314 3401
3315 3402
3315 3403
3316 3404
3316 3405
3317 3405
3318 3406
3318 3407
3319 3408
3319 3409
3320 3410
3320 3411
3321 3411
3322 3412
3322 3413
3323 3414
3323 3415
3324 3416
3324 3417
3325 3417
3326 3418
3326 3419
3327 3420
3327 3421
3328 3422
3328 3423
3329 3423
3330 3424
3330 3425
3331 3426
3331 3427
3332 3333
3332 3428
3332 3493
3332 3494
3333 3429
3333 3493
3333 3494
3334 3335
3334 3430
3334 3495
3334 3496
3335 3431
3335 3495
3335 3496
3336 3337
3336 3431
3336 3497
3336 3498
3337 3432
3337 3497
3337 3498
3338 3339
3338 3432
3338 3499
3338 3500
3339 3433
3339 3499
3339 3500
3340 3341
3340 3434
3340 3501
3340 3502
3341 3435
3341 3501
3341 3502
3342 3343
3342 3435
3342 3503
3342 3504
3343 3436
3343 3503
3343 3504
3344 3345
3344 3436
3344 3505
3344 3506
3345 3437
3345 3505
3345 3506
3346 3347
3346 3438
3346 3507
3346 3508
3347 3439
3347 3507
3347 3508
3348 3349
3348 3439
3348 3509
3348 3510
3349 3440
3349 3509
3349 3510
3350 3351
3350 3440
3350 3511
3350 3512
3351 3441
3351 3511
3351 3512
3352 3353
3352 3442
3352 3513
3352 3514
3353 3443
3353 3513
3353 3514
3354 3355
3354 3443
3354 3515
3354 3516
3355 3444
3355 3515
3355 3516
3356 3357
3356 3444
3356 3517
3356 3518
3357 3445
3357 3517
3357 3518
3358 3359
3358 3446
3358 3519
3358 3520
3359 3447
3359 3519
3359 3520
3360 3361
3360 3447
3360 3521
3360 3522
3361 3448
3361 3521
3361 3522
3362 3363
3362 3448
3362 3523
3362 3524
3363 3449
3363 3523
3363 3524
3364 3365
3364 3450
3364 3525
3364 3526
3365 3451
3365 3525
3365 3526
3366 3367
3366 3451
3366 3527
3366 3528
3367 3452
3367 3527
3367 3528
3368 3369
3368 3452
3368 3529
3368 3530
3369 3453
3369 3529
3369 3530
3370 3371
3370 3454
3370 3531
3370 3532
3371 3455
3371 3531
3371 3532
3372 3373
3372 3455
3372 3533
3372 3534
3373 3456
3373 3533
3373 3534
3374 3375
3374 3456
3374 3535
3374 3536
3375 3457
3375 3535
3375 3536
3376 3377
3376 3458
3376 3537
3376 3538
3377 3459
3377 3537
3377 3538
3378 3379
3378 3459
3378 3539
3378 3540
3379 3460
3379 3539
3379 3540
3380 3381
3380 3460
3380 3541
3380 3542
3381 3461
3381 3541
3381 3542
3382 3383
3382 3462
3382 3543
3382 3544
3383 3463
3383 3543
3383 3544
3384 3385
3384 3463
3384 3545
3384 3546
3385 3464
3385 3545
3385 3546
3386 3387
3386 3464
3386 3547
3386 3548
3387 3465
3387 3547
3387 3548
3388 3389
3388 3466
3388 3549
3388 3550
3389 3467
3389 3549
3389 3550
3390 3391
3390 3467
3390 3551
3390 3552
3391 3468
3391 3551
3391 3552
3392 3393
3392 3468
3392 3553
3392 3554
3393 3469
3393 3553
3393 3554
3394 3395
3394 3470
3394 3555
3394 3556
3395 3471
3395 3555
3395 3556
3396 3397
3396 3471
3396 3557
3396 3558
3397 3472
3397 3557
3397 3558
3398 3399
3398 3472
3398 3559
3398 3560
3399 3473
3399 3559
3399 3560
3400 3401
3400 3474
3400 3561
3400 3562
3401 3475
3401 3561
3401 3562
3402 3403
3402 3475
3402 3563
3402 3564
3403 3476
3403 3563
3403 3564
3404 3405
3404 3476
3404 3565
3404 3566
3405 3477
3405 3565
3405 3566
3406 3407
3406 3478
3406 3567
3406 3568
3407 3479
3407 3567
3407 3568
3408 3409
3408 3479
3408 3569
3408 3570
3409 3480
3409 3569
3409 3570
3410 3411
3410 3480
3410 3571
3410 3572
3411 3481
3411 3571
3411 3572
3412 3413
3412 3482
3412 3573
3412 3574
3413 3483
3413 3573
3413 3574
3414 3415
3414 3483
3414 3575
3414 3576
3415 3484
3415 3575
3415 3576
3416 3417
3416 3484
3416 3577
3416 3578
3417 3485
3417 3577
3417 3578
3418 3419
3418 3486
3418 3579
3418 3580
3419 3487
3419 3579
3419 3580
3420 3421
3420 3487
3420 3581
3420 3582
3421 3488
3421 3581
3421 3582
3422 3423
3422 3488
3422 3583
3422 3584
3423 3489
3423 3583
3423 3584
3424 3425
3424 3490
3424 3585
3424 3586
3425 3491
3425 3585
3425 3586
3426 3427
3426 3491
3426 3587
3426 3588
3427 3492
3427 3587
3427 3588
3428 3493
3429 3430
3429 3494
3430 3495
3431 3496
3431 3497
3432 3498
3432 3499
3433 3434
3433 3500
3434 3501
3435 3502
3435 3503
3436 3504
3436 3505
3437 3438
3437 3506
3438 3507
3439 3508
3439 3509
3440 3510
3440 3511
3441 3442
3441 3512
3442 3513
3443 3514
3443 3515
3444 3516
3444 3517
3445 3446
3445 3518
3446 3519
3447 3520
3447 3521
3448 3522
3448 3523
3449 3450
3449 3524
3450 3525
3451 3526
3451 3527
3452 3528
3452 3529
3453 3454
3453 3530
3454 3531
3455 3532
3455 3533
3456 3534
3456 3535
3457 3458
3457 3536
3458 3537
3459 3538
3459 3539
3460 3540
3460 3541
3461 3462
3461 3542
3462 3543
3463 3544
3463 3545
3464 3546
3464 3547
3465 3466
3465 3548
3466 3549
3467 3550
3467 3551
3468 3552
3468 3553
3469 3470
3469 3554
3470 3555
3471 3556
3471 3557
3472 3558
3472 3559
3473 3474
3473 3560
3474 3561
3475 3562
3475 3563
3476 3564
3476 3565
3477 3478
3477 3566
3478 3567
3479 3568
3479 3569
3480 3570
3480 3571
3481 3482
3481 3572
3482 3573
3483 3574
3483 3575
3484 3576
3484 3577
3485 3486
3485 3578
3486 3579
3487 3580
3487 3581
3488 3582
3488 3583
3489 3490
3489 3584
3490 3585
3491 3586
3491 3587
3492 3588
3493 3494
3493 3589
3494 3589
3495 3496
3495 3590
3496 3590
3497 3498
3497 3591
3498 3591
3499 3500
3499 3592
3500 3592
3501 3502
3501 3593
3502 3593
3503 3504
3503 3594
3504 3594
3505 3506
3505 3595
3506 3595
3507 3508
3507 3596
3508 3596
3509 3510
3509 3597
3510 3597
3511 3512
3511 3598
3512 3598
3513 3514
3513 3599
3514 3599
3515 3516
3515 3600
3516 3600
3517 3518
3517 3601
3518 3601
3519 3520
3519 3602
3520 3602
3521 3522
3521 3603
3522 3603
3523 3524
3523 3604
3524 3604
3525 3526
3525 3605
3526 3605
3527 3528
3527 3606
3528 3606
3529 3530
3529 3607
3530 3607
3531 3532
3531 3608
3532 3608
3533 3534
3533 3609
3534 3609
3535 3536
3535 3610
3536 3610
3537 3538
3537 3611
3538 3611
3539 3540
3539 3612
3540 3612
3541 3542
3541 3613
3542 3613
3543 3544
3543 3614
3544 3614
3545 3546
3545 3615
3546 3615
3547 3548
3547 3616
3548 3616
3549 3550
3549 3617
3550 3617
3551 3552
3551 3618
3552 3618
3553 3554
3553 3619
3554 3619
3555 3556
3555 3620
3556 3620
3557 3558
3557 3621
3558 3621
3559 3560
3559 3622
3560 3622
3561 3562
3561 3623
3562 3623
3563 3564
3563 3624
3564 3624
3565 3566
3565 3625
3566 3625
3567 3568
3567 3626
3568 3626
3569 3570
3569 3627
3570 3627
3571 3572
3571 3628
3572 3628
3573 3574
3573 3629
3574 3629
3575 3576
3575 3630
3576 3630
3577 3578
3577 3631
3578 3631
3579 3580
3579 3632
3580 3632
3581 3582
3581 3633
3582 3633
3583 3584
3583 3634
3584 3634
3585 3586
3585 3635
3586 3635
3587 3588
3589 3636
3589 3637
3590 3701
3590 3702
3591 3703
3592 3640
3592 3641
3593 3704
3593 3705
3594 3706
3595 3644
3595 3645
3596 3707
3596 3708
3597 3709
3598 3648
3598 3649
3599 3710
3599 3711
3600 3712
3601 3652
3601 3653
3602 3713
3602 3714
3603 3715
3604 3656
3604 3657
3605 3716
3605 3717
3606 3718
3607 3660
3607 3661
3608 3719
3608 3720
3609 3721
3610 3664
3610 3665
3611 3722
3611 3723
3612 3724
3613 3668
3613 3669
3614 3725
3614 3726
3615 3727
3616 3672
3616 3673
3617 3728
3617 3729
3618 3730
3619 3676
3619 3677
3620 3731
3620 3732
3621 3733
3622 3680
3622 3681
3623 3734
3623 3735
3624 3736
3625 3684
3625 3685
3626 3737
3626 3738
3627 3739
3628 3688
3628 3689
3629 3740
3629 3741
3630 3742
3631 3692
3631 3693
3632 3743
3632 3744
3633 3745
3634 3696
3634 3697
3635 3746
3635 3747
3636 3637
3636 3700
3636 3748
3636 3749
3637 3638
3637 3748
3637 3749
3638 3701
3638 3749
3638 3750
3639 3702
3639 3751
3639 3752
3640 3641
3640 3703
3640 3753
3640 3754
3641 3642
3641 3753
3641 3754
3642 3704
3642 3754
3642 3755
3643 3705
3643 3756
3643 3757
3644 3645
3644 3706
3644 3758
3644 3759
3645 3646
3645 3758
3645 3759
3646 3707
3646 3759
3646 3760
3647 3708
3647 3761
3647 3762
3648 3649
3648 3709
3648 3763
3648 3764
3649 3650
3649 3763
3649 3764
3650 3710
3650 3764
3650 3765
3651 3711
3651 3766
3651 3767
3652 3653
3652 3712
3652 3768
3652 3769
3653 3654
3653 3768
3653 3769
3654 3713
3654 3769
3654 3770
3655 3714
3655 3771
3655 3772
3656 3657
3656 3715
3656 3773
3656 3774
3657 3658
3657 3773
3657 3774
3658 3716
3658 3774
3658 3775
3659 3717
3659 3776
3659 3777
3660 3661
3660 3718
3660 3778
3660 3779
3661 3662
3661 3778
3661 3779
3662 3719
3662 3779
3662 3780
3663 3720
3663 3781
3663 3782
3664 3665
3664 3721
3664 3783
3664 3784
3665 3666
3665 3783
3665 3784
3666 3722
3666 3784
3666 3785
3667 3723
3667 3786
3667 3787
3668 3669
3668 3724
3668 3788
3668 3789
3669 3670
3669 3788
3669 3789
3670 3725
3670 3789
3670 3790
3671 3726
3671 3791
3671 3792
3672 3673
3672 3727
3672 3793
3672 3794
3673 3674
3673 3793
3673 3794
3674 3728
3674 3794
3674 3795
3675 3729
3675 3796
3675 3797
3676 3677
3676 3730
3676 3798
3676 3799
3677 3678
3677 3798
3677 3799
3678 3731
3678 3799
3678 3800
3679 3732
3679 3801
3679 3802
3680 3681
3680 3733
3680 3803
3680 3804
3681 3682
3681 3803
3681 3804
3682 3734
3682 3804
3682 3805
3683 3735
3683 3806
3683 3807
3684 3685
3684 3736
3684 3808
3684 3809
3685 3686
3685 3808
3685 3809
3686 3737
3686 3809
3686 3810
3687 3738
3687 3811
3687 3812
3688 3689
3688 3739
3688 3813
3688 3814
3689 3690
3689 3813
3689 3814
3690 3740
3690 3814
3690 3815
3691 3741
3691 3816
3691 3817
3692 3693
3692 3742
3692 3818
3692 3819
3693 3694
3693 3818
3693 3819
3694 3743
3694 3819
3694 3820
3695 3744
3695 3821
3695 3822
3696 3697
3696 3745
3696 3823
3696 3824
3697 3698
3697 3823
3697 3824
3698 3746
3698 3824
3698 3825
3699 3747
3699 3826
3699 3827
3700 3748
3701 3702
3701 3750
3701 3828
3701 3829
3702 3751
3702 3828
3702 3829
3703 3753
3704 3705
3704 3755
3704 3830
3704 3831
3705 3756
3705 3830
3705 3831
3706 3758
3707 3708
3707 3760
3707 3832
3707 3833
3708 3761
3708 3832
3708 3833
3709 3763
3710 3711
3710 3765
3710 3834
3710 3835
3711 3766
3711 3834
3711 3835
3712 3768
3713 3714
3713 3770
3713 3836
3713 3837
3714 3771
3714 3836
3714 3837
3715 3773
3716 3717
3716 3775
3716 3838
3716 3839
3717 3776
3717 3838
3717 3839
3718 3778
3719 3720
3719 3780
3719 3840
3719 3841
3720 3781
3720 3840
3720 3841
3721 3783
3722 3723
3722 3785
3722 3842
3722 3843
3723 3786
3723 3842
3723 3843
3724 3788
3725 3726
3725 3790
3725 3844
3725 3845
3726 3791
3726 3844
3726 3845
3727 3793
3728 3729
3728 3795
3728 3846
3728 3847
3729 3796
3729 3846
3729 3847
3730 3798
3731 3732
3731 3800
3731 3848
3731 3849
3732 3801
3732 3848
3732 3849
3733 3803
3734 3735
3734 3805
3734 3850
3734 3851
3735 3806
3735 3850
3735 3851
3736 3808
3737 3738
3737 3810
3737 3852
3737 3853
3738 3811
3738 3852
3738 3853
3739 3813
3740 3741
3740 3815
3740 3854
3740 3855
3741 3816
3741 3854
3741 3855
3742 3818
3743 3744
3743 3820
3743 3856
3743 3857
3744 3821
3744 3856
3744 3857
3745 3823
3746 3747
3746 3825
3746 3858
3746 3859
3747 3826
3747 3858
3747 3859
3748 3749
3748 3860
3749 3860
3750 3828
3750 3861
3751 3829
3751 3862
3752 3863
3753 3754
3753 3864
3754 3864
3755 3830
3755 3865
3756 3831
3756 3866
3757 3867
3758 3759
3758 3868
3759 3868
3760 3832
3760 3869
3761 3833
3761 3870
3762 3871
3763 3764
3763 3872
3764 3872
3765 3834
3765 3873
3766 3835
3766 3874
3767 3875
3768 3769
3768 3876
3769 3876
3770 3836
3770 3877
3771 3837
3771 3878
3772 3879
3773 3774
3773 3880
3774 3880
3775 3838
3775 3881
3776 3839
3776 3882
3777 3883
3778 3779
3778 3884
3779 3884
3780 3840
3780 3885
3781 3841
3781 3886
3782 3887
3783 3784
3783 3888
3784 3888
3785 3842
3785 3889
3786 3843
3786 3890
3787 3891
3788 3789
3788 3892
3789 3892
3790 3844
3790 3893
3791 3845
3791 3894
3792 3895
3793 3794
3793 3896
3794 3896
3795 3846
3795 3897
3796 3847
3796 3898
3797 3899
3798 3799
3798 3900
3799 3900
3800 3848
3800 3901
3801 3849
3801 3902
3802 3903
3803 3804
3803 3904
3804 3904
3805 3850
3805 3905
3806 3851
3806 3906
3807 3907
3808 3809
3808 3908
3809 3908
3810 3852
3810 3909
3811 3853
3811 3910
3812 3911
3813 3814
3813 3912
3814 3912
3815 3854
3815 3913
3816 3855
3816 3914
3817 3915
3818 3819
3818 3916
3819 3916
3820 3856
3820 3917
3821 3857
3821 3918
3822 3919
3823 3824
3823 3920
3824 3920
3825 3858
3825 3921
3826 3859
3826 3922
3827 3923
3828 3829
3828 3861
3829 3862
3830 3831
3830 3865
3831 3866
3832 3833
3832 3869
3833 3870
3834 3835
3834 3873
3835 3874
3836 3837
3836 3877
3837 3878
3838 3839
3838 3881
3839 3882
3840 3841
3840 3885
3841 3886
3842 3843
3842 3889
3843 3890
3844 3845
3844 3893
3845 3894
3846 3847
3846 3897
3847 3898
3848 3849
3848 3901
3849 3902
3850 3851
3850 3905
3851 3906
3852 3853
3852 3909
3853 3910
3854 3855
3854 3913
3855 3914
3856 3857
3856 3917
3857 3918
3858 3859
3858 3921
3859 3922
3860 3924
3860 3925
3861 3925
3862 3926
3862 3927
3863 3928
3863 3929
3864 3930
3864 3931
3865 3931
3866 3932
3866 3933
3867 3934
3867 3935
3868 3936
3868 3937
3869 3937
3870 3938
3870 3939
3871 3940
3871 3941
3872 3942
3872 3943
3873 3943
3874 3944
3874 3945
3875 3946
3875 3947
3876 3948
3876 3949
3877 3949
3878 3950
3878 3951
3879 3952
3879 3953
3880 3954
3880 3955
3881 3955
3882 3956
3882 3957
3883 3958
3883 3959
3884 3960
3884 3961
3885 3961
3886 3962
3886 3963
3887 3964
3887 3965
3888 3966
3888 3967
3889 3967
3890 3968
3890 3969
3891 3970
3891 3971
3892 3972
3892 3973
3893 3973
3894 3974
3894 3975
3895 3976
3895 3977
3896 3978
3896 3979
3897 3979
3898 3980
3898 3981
3899 3982
3899 3983
3900 3984
3900 3985
3901 3985
3902 3986
3902 3987
3903 3988
3903 3989
3904 3990
3904 3991
3905 3991
3906 3992
3906 3993
3907 3994
3907 3995
3908 3996
3908 3997
3909 3997
3910 3998
3910 3999
3911 4000
3911 4001
3912 4002
3912 4003
3913 4003
3914 4004
3914 4005
3915 4006
3915 4007
3916 4008
3916 4009
3917 4009
3918 4010
3918 4011
3919 4012
3919 4013
3920 4014
3920 4015
3921 4015
3922 4016
3922 4017
3923 4018
3923 4019
3924 3925
3924 4020
3924 4085
3924 4086
3925 4021
3925 4085
3925 4086
3926 3927
3926 4022
3926 4087
3926 4088
3927 4023
3927 4087
3927 4088
3928 3929
3928 4023
3928 4089
3928 4090
3929 4024
3929 4089
3929 4090
3930 3931
3930 4024
3930 4091
3930 4092
3931 4025
3931 4091
3931 4092
3932 3933
3932 4026
3932 4093
3932 4094
3933 4027
3933 4093
3933 4094
3934 3935
3934 4027
3934 4095
3934 4096
3935 4028
3935 4095
3935 4096
3936 3937
3936 4028
3936 4097
3936 4098
3937 4029
3937 4097
3937 4098
3938 3939
3938 4030
3938 4099
3938 4100
3939 4031
3939 4099
3939 4100
3940 3941
3940 4031
3940 4101
3940 4102
3941 4032
3941 4101
3941 4102
3942 3943
3942 4032
3942 4103
3942 4104
3943 4033
3943 4103
3943 4104
3944 3945
3944 4034
3944 4105
3944 4106
3945 4035
3945 4105
3945 4106
3946 3947
3946 4035
3946 4107
3946 4108
3947 4036
3947 4107
3947 4108
3948 3949
3948 4036
3948 4109
3948 4110
3949 4037
3949 4109
3949 4110
3950 3951
3950 4038
3950 4111
3950 4112
3951 4039
3951 4111
3951 4112
3952 3953
3952 4039
3952 4113
3952 4114
3953 4040
3953 4113
3953 4114
3954 3955
3954 4040
3954 4115
3954 4116
3955 4041
3955 4115
3955 4116
3956 3957
3956 4042
3956 4117
3956 4118
3957 4043
3957 4117
3957 4118
3958 3959
3958 4043
3958 4119
3958 4120
3959 4044
3959 4119
3959 4120
3960 3961
3960 4044
3960 4121
3960 4122
3961 4045
3961 4121
3961 4122
3962 3963
3962 4046
3962 4123
3962 4124
3963 4047
3963 4123
3963 4124
3964 3965
3964 4047
3964 4125
3964 4126
3965 4048
3965 4125
3965 4126
3966 3967
3966 4048
3966 4127
3966 4128
3967 4049
3967 4127
3967 4128
3968 3969
3968 4050
3968 4129
3968 4130
3969 4051
3969 4129
3969 4130
3970 3971
3970 4051
3970 4131
3970 4132
3971 4052
3971 4131
3971 4132
3972 3973
3972 4052
3972 4133
3972 4134
3973 4053
3973 4133
3973 4134
3974 3975
3974 4054
3974 4135
3974 4136
3975 4055
3975 4135
3975 4136
3976 3977
3976 4055
3976 4137
3976 4138
3977 4056
3977 4137
3977 4138
3978 3979
3978 4056
3978 4139
3978 4140
3979 4057
3979 4139
3979 4140
3980 3981
3980 4058
3980 4141
3980 4142
3981 4059
3981 4141
3981 4142
3982 3983
3982 4059
3982 4143
3982 4144
3983 4060
3983 4143
3983 4144
3984 3985
3984 4060
3984 4145
3984 4146
3985 4061
3985 4145
3985 4146
3986 3987
3986 4062
3986 4147
3986 4148
3987 4063
3987 4147
3987 4148
3988 3989
3988 4063
3988 4149
3988 4150
3989 4064
3989 4149
3989 4150
3990 3991
3990 4064
3990 4151
3990 4152
3991 4065
3991 4151
3991 4152
3992 3993
3992 4066
3992 4153
3992 4154
3993 4067
3993 4153
3993 4154
3994 3995
3994 4067
3994 4155
3994 4156
3995 4068
3995 4155
3995 4156
3996 3997
3996 4068
3996 4157
3996 4158
3997 4069
3997 4157
3997 4158
3998 3999
3998 4070
3998 4159
3998 4160
3999 4071
3999 4159
3999 4160
4000 4001
4000 4071
4000 4161
4000 4162
4001 4072
4001 4161
4001 4162
4002 4003
4002 4072
4002 4163
4002 4164
4003 4073
4003 4163
4003 4164
4004 4005
4004 4074
4004 4165
4004 4166
4005 4075
4005 4165
4005 4166
4006 4007
4006 4075
4006 4167
4006 4168
4007 4076
4007 4167
4007 4168
4008 4009
4008 4076
4008 4169
4008 4170
4009 4077
4009 4169
4009 4170
4010 4011
4010 4078
4010 4171
4010 4172
4011 4079
4011 4171
4011 4172
4012 4013
4012 4079
4012 4173
4012 4174
4013 4080
4013 4173
4013 4174
4014 4015
4014 4080
4014 4175
4014 4176
4015 4081
4015 4175
4015 4176
4016 4017
4016 4082
4016 4177
4016 4178
4017 4083
4017 4177
4017 4178
4018 4019
4018 4083
4019 4084
4020 4085
4021 4022
4021 4086
4022 4087
4023 4088
4023 4089
4024 4090
4024 4091
4025 4026
4025 4092
4026 4093
4027 4094
4027 4095
4028 4096
4028 4097
4029 4030
4029 4098
4030 4099
4031 4100
4031 4101
4032 4102
4032 4103
4033 4034
4033 4104
4034 4105
4035 4106
4035 4107
4036 4108
4036 4109
4037 4038
4037 4110
4038 4111
4039 4112
4039 4113
4040 4114
4040 4115
4041 4042
4041 4116
4042 4117
4043 4118
4043 4119
4044 4120
4044 4121
4045 4046
4045 4122
4046 4123
4047 4124
4047 4125
4048 4126
4048 4127
4049 4050
4049 4128
4050 4129
4051 4130
4051 4131
4052 4132
4052 4133
4053 4054
4053 4134
4054 4135
4055 4136
4055 4137
4056 4138
4056 4139
4057 4058
4057 4140
4058 4141
4059 4142
4059 4143
4060 4144
4060 4145
4061 4062
4061 4146
4062 4147
4063 4148
4063 4149
4064 4150
4064 4151
4065 4066
4065 4152
4066 4153
4067 4154
4067 4155
4068 4156
4068 4157
4069 4070
4069 4158
4070 4159
4071 4160
4071 4161
4072 4162
4072 4163
4073 4074
4073 4164
4074 4165
4075 4166
4075 4167
4076 4168
4076 4169
4077 4078
4077 4170
4078 4171
4079 4172
4079 4173
4080 4174
4080 4175
4081 4082
4081 4176
4082 4177
4083 4178
4085 4086
4085 4179
4086 4179
4087 4088
4087 4180
4088 4180
4089 4090
4089 4181
4090 4181
4091 4092
4091 4182
4092 4182
4093 4094
4093 4183
4094 4183
4095 4096
4095 4184
4096 4184
4097 4098
4097 4185
4098 4185
4099 4100
4099 4186
4100 4186
4101 4102
4101 4187
4102 4187
4103 4104
4103 4188
4104 4188
4105 4106
4105 4189
4106 4189
4107 4108
4107 4190
4108 4190
4109 4110
4109 4191
4110 4191
4111 4112
4111 4192
4112 4192
4113 4114
4113 4193
4114 4193
4115 4116
4115 4194
4116 4194
4117 4118
4117 4195
4118 4195
4119 4120
4119 4196
4120 4196
4121 4122
4121 4197
4122 4197
4123 4124
4123 4198
4124 4198
4125 4126
4125 4199
4126 4199
4127 4128
4127 4200
4128 4200
4129 4130
4129 4201
4130 4201
4131 4132
4131 4202
4132 4202
4133 4134
4133 4203
4134 4203
4135 4136
4135 4204
4136 4204
4137 4138
4137 4205
4138 4205
4139 4140
4139 4206
4140 4206
4141 4142
4141 4207
4142 4207
4143 4144
4143 4208
4144 4208
4145 4146
4145 4209
4146 4209
4147 4148
4147 4210
4148 4210
4149 4150
4149 4211
4150 4211
4151 4152
4151 4212
4152 4212
4153 4154
4153 4213
4154 4213
4155 4156
4155 4214
4156 4214
4157 4158
4157 4215
4158 4215
4159 4160
4159 4216
4160 4216
4161 4162
4161 4217
4162 4217
4163 4164
4163 4218
4164 4218
4165 4166
4165 4219
4166 4219
4167 4168
4167 4220
4168 4220
4169 4170
4169 4221
4170 4221
4171 4172
4171 4222
4172 4222
4173 4174
4173 4223
4174 4223
4175 4176
4175 4224
4176 4224
4177 4178
4177 4225
4178 4225
4179 4226
4179 4227
4180 4291
4180 4292
4181 4293
4182 4230
4182 4231
4183 4294
4183 4295
4184 4296
4185 4234
4185 4235
4186 4297
4186 4298
4187 4299
4188 4238
4188 4239
4189 4300
4189 4301
4190 4302
4191 4242
4191 4243
4192 4303
4192 4304
4193 4305
4194 4246
4194 4247
4195 4306
4195 4307
4196 4308
4197 4250
4197 4251
4198 4309
4198 4310
4199 4311
4200 4254
4200 4255
4201 4312
4201 4313
4202 4314
4203 4258
4203 4259
4204 4315
4204 4316
4205 4317
4206 4262
4206 4263
4207 4318
4207 4319
4208 4320
4209 4266
4209 4267
4210 4321
4210 4322
4211 4323
4212 4270
4212 4271
4213 4324
4213 4325
4214 4326
4215 4274
4215 4275
4216 4327
4216 4328
4217 4329
4218 4278
4218 4279
4219 4330
4219 4331
4220 4332
4221 4282
4221 4283
4222 4333
4222 4334
4223 4335
4224 4286
4224 4287
4225 4336
4225 4337
4226 4227
4226 4290
4226 4338
4226 4339
4227 4228
4227 4338
4227 4339
4228 4291
4228 4339
4228 4340
4229 4292
4229 4341
4229 4342
4230 4231
4230 4293
4230 4343
4230 4344
4231 4232
4231 4343
4231 4344
4232 4294
4232 4344
4232 4345
4233 4295
4233 4346
4233 4347
4234 4235
4234 4296
4234 4348
4234 4349
4235 4236
4235 4348
4235 4349
4236 4297
4236 4349
4236 4350
4237 4298
4237 4351
4237 4352
4238 4239
4238 4299
4238 4353
4238 4354
4239 4240
4239 4353
4239 4354
4240 4300
4240 4354
4240 4355
4241 4301
4241 4356
4241 4357
4242 4243
4242 4302
4242 4358
4242 4359
4243 4244
4243 4358
4243 4359
4244 4303
4244 4359
4244 4360
4245 4304
4245 4361
4245 4362
4246 4247
4246 4305
4246 4363
4246 4364
4247 4248
4247 4363
4247 4364
4248 4306
4248 4364
4248 4365
4249 4307
4249 4366
4249 4367
4250 4251
4250 4308
4250 4368
4250 4369
4251 4252
4251 4368
4251 4369
4252 4309
4252 4369
4252 4370
4253 4310
4253 4371
4253 4372
4254 4255
4254 4311
4254 4373
4254 4374
4255 4256
4255 4373
4255 4374
4256 4312
4256 4374
4256 4375
4257 4313
4257 4376
4257 4377
4258 4259
4258 4314
4258 4378
4258 4379
4259 4260
4259 4378
4259 4379
4260 4315
4260 4379
4260 4380
4261 4316
4261 4381
4261 4382
4262 4263
4262 4317
4262 4383
4262 4384
4263 4264
4263 4383
4263 4384
4264 4318
4264 4384
4264 4385
4265 4319
4265 4386
4265 4387
4266 4267
4266 4320
4266 4388
4266 4389
4267 4268
4267 4388
4267 4389
4268 4321
4268 4389
4268 4390
4269 4322
4269 4391
4269 4392
4270 4271
4270 4323
4270 4393
4270 4394
4271 4272
4271 4393
4271 4394
4272 4324
4272 4394
4272 4395
4273 4325
4273 4396
4273 4397
4274 4275
4274 4326
4274 4398
4274 4399
4275 4276
4275 4398
4275 4399
4276 4327
4276 4399
4276 4400
4277 4328
4277 4401
4277 4402
4278 4279
4278 4329
4278 4403
4278 4404
4279 4280
4279 4403
4279 4404
4280 4330
4280 4404
4280 4405
4281 4331
4281 4406
4281 4407
4282 4283
4282 4332
4282 4408
4282 4409
4283 4284
4283 4408
4283 4409
4284 4333
4284 4409
4284 4410
4285 4334
4285 4411
4285 4412
4286 4287
4286 4335
4286 4413
4286 4414
4287 4288
4287 4413
4287 4414
4288 4336
4288 4414
4288 4415
4289 4337
4289 4416
4289 4417
4290 4338
4291 4292
4291 4340
4291 4418
4291 4419
4292 4341
4292 4418
4292 4419
4293 4343
4294 4295
4294 4345
4294 4420
4294 4421
4295 4346
4295 4420
4295 4421
4296 4348
4297 4298
4297 4350
4297 4422
4297 4423
4298 4351
4298 4422
4298 4423
4299 4353
4300 4301
4300 4355
4300 4424
4300 4425
4301 4356
4301 4424
4301 4425
4302 4358
4303 4304
4303 4360
4303 4426
4303 4427
4304 4361
4304 4426
4304 4427
4305 4363
4306 4307
4306 4365
4306 4428
4306 4429
4307 4366
4307 4428
4307 4429
4308 4368
4309 4310
4309 4370
4309 4430
4309 4431
4310 4371
4310 4430
4310 4431
4311 4373
4312 4313
4312 4375
4312 4432
4312 4433
4313 4376
4313 4432
4313 4433
4314 4378
4315 4316
4315 4380
4315 4434
4315 4435
4316 4381
4316 4434
4316 4435
4317 4383
4318 4319
4318 4385
4318 4436
4318 4437
4319 4386
4319 4436
4319 4437
4320 4388
4321 4322
4321 4390
4321 4438
4321 4439
4322 4391
4322 4438
4322 4439
4323 4393
4324 4325
4324 4395
4324 4440
4324 4441
4325 4396
4325 4440
4325 4441
4326 4398
4327 4328
4327 4400
4327 4442
4327 4443
4328 4401
4328 4442
4328 4443
4329 4403
4330 4331
4330 4405
4330 4444
4330 4445
4331 4406
4331 4444
4331 4445
4332 4408
4333 4334
4333 4410
4333 4446
4333 4447
4334 4411
4334 4446
4334 4447
4335 4413
4336 4337
4336 4415
4336 4448
4336 4449
4337 4416
4337 4448
4337 4449
4338 4339
4338 4450
4339 4450
4340 4418
4340 4451
4341 4419
4341 4452
4342 4453
4343 4344
4343 4454
4344 4454
4345 4420
4345 4455
4346 4421
4346 4456
4347 4457
4348 4349
4348 4458
4349 4458
4350 4422
4350 4459
4351 4423
4351 4460
4352 4461
4353 4354
4353 4462
4354 4462
4355 4424
4355 4463
4356 4425
4356 4464
4357 4465
4358 4359
4358 4466
4359 4466
4360 4426
4360 4467
4361 4427
4361 4468
4362 4469
4363 4364
4363 4470
4364 4470
4365 4428
4365 4471
4366 4429
4366 4472
4367 4473
4368 4369
4368 4474
4369 4474
4370 4430
4370 4475
4371 4431
4371 4476
4372 4477
4373 4374
4373 4478
4374 4478
4375 4432
4375 4479
4376 4433
4376 4480
4377 4481
4378 4379
4378 4482
4379 4482
4380 4434
4380 4483
4381 4435
4381 4484
4382 4485
4383 4384
4383 4486
4384 4486
4385 4436
4385 4487
4386 4437
4386 4488
4387 4489
4388 4389
4388 4490
4389 4490
4390 4438
4390 4491
4391 4439
4391 4492
4392 4493
4393 4394
4393 4494
4394 4494
4395 4440
4395 4495
4396 4441
4396 4496
4397 4497
4398 4399
4398 4498
4399 4498
4400 4442
4400 4499
4401 4443
4401 4500
4402 4501
4403 4404
4403 4502
4404 4502
4405 4444
4405 4503
4406 4445
4406 4504
4407 4505
4408 4409
4408 4506
4409 4506
4410 4446
4410 4507
4411 4447
4411 4508
4412 4509
4413 4414
4413 4510
4414 4510
4415 4448
4415 4511
4416 4449
4416 4512
4417 4513
4418 4419
4418 4451
4419 4452
4420 4421
4420 4455
4421 4456
4422 4423
4422 4459
4423 4460
4424 4425
4424 4463
4425 4464
4426 4427
4426 4467
4427 4468
4428 4429
4428 4471
4429 4472
4430 4431
4430 4475
4431 4476
4432 4433
4432 4479
4433 4480
4434 4435
4434 4483
4435 4484
4436 4437
4436 4487
4437 4488
4438 4439
4438 4491
4439 4492
4440 4441
4440 4495
4441 4496
4442 4443
4442 4499
4443 4500
4444 4445
4444 4503
4445 4504
4446 4447
4446 4507
4447 4508
4448 4449
4448 4511
4449 4512
4450 4514
4450 4515
4451 4515
4452 4516
4452 4517
4453 4518
4453 4519
4454 4520
4454 4521
4455 4521
4456 4522
4456 4523
4457 4524
4457 4525
4458 4526
4458 4527
4459 4527
4460 4528
4460 4529
4461 4530
4461 4531
4462 4532
4462 4533
4463 4533
4464 4534
4464 4535
4465 4536
4465 4537
4466 4538
4466 4539
4467 4539
4468 4540
4468 4541
4469 4542
4469 4543
4470 4544
4470 4545
4471 4545
4472 4546
4472 4547
4473 4548
4473 4549
4474 4550
4474 4551
4475 4551
4476 4552
4476 4553
4477 4554
4477 4555
4478 4556
4478 4557
4479 4557
4480 4558
4480 4559
4481 4560
4481 4561
4482 4562
4482 4563
4483 4563
4484 4564
4484 4565
4485 4566
4485 4567
4486 4568
4486 4569
4487 4569
4488 4570
4488 4571
4489 4572
4489 4573
4490 4574
4490 4575
4491 4575
4492 4576
4492 4577
4493 4578
4493 4579
4494 4580
4494 4581
4495 4581
4496 4582
4496 4583
4497 4584
4497 4585
4498 4586
4498 4587
4499 4587
4500 4588
4500 4589
4501 4590
4501 4591
4502 4592
4502 4593
4503 4593
4504 4594
4504 4595
4505 4596
4505 4597
4506 4598
4506 4599
4507 4599
4508 4600
4508 4601
4509 4602
4509 4603
4510 4604
4510 4605
4511 4605
4512 4606
4512 4607
4513 4608
4513 4609
4514 4515
4514 4610
4514 4675
4514 4676
4515 4611
4515 4675
4515 4676
4516 4517
4516 4612
4516 4677
4516 4678
4517 4613
4517 4677
4517 4678
4518 4519
4518 4613
4518 4679
4518 4680
4519 4614
4519 4679
4519 4680
4520 4521
4520 4614
4520 4681
4520 4682
4521 4615
4521 4681
4521 4682
4522 4523
4522 4616
4522 4683
4522 4684
4523 4617
4523 4683
4523 4684
4524 4525
4524 4617
4524 4685
4524 4686
4525 4618
4525 4685
4525 4686
4526 4527
4526 4618
4526 4687
4526 4688
4527 4619
4527 4687
4527 4688
4528 4529
4528 4620
4528 4689
4528 4690
4529 4621
4529 4689
4529 4690
4530 4531
4530 4621
4530 4691
4530 4692
4531 4622
4531 4691
4531 4692
4532 4533
4532 4622
4532 4693
4532 4694
4533 4623
4533 4693
4533 4694
4534 4535
4534 4624
4534 4695
4534 4696
4535 4625
4535 4695
4535 4696
4536 4537
4536 4625
4536 4697
4536 4698
4537 4626
4537 4697
4537 4698
4538 4539
4538 4626
4538 4699
4538 4700
4539 4627
4539 4699
4539 4700
4540 4541
4540 4628
4540 4701
4540 4702
4541 4629
4541 4701
4541 4702
4542 4543
4542 4629
4542 4703
4542 4704
4543 4630
4543 4703
4543 4704
4544 4545
4544 4630
4544 4705
4544 4706
4545 4631
4545 4705
4545 4706
4546 4547
4546 4632
4546 4707
4546 4708
4547 4633
4547 4707
4547 4708
4548 4549
4548 4633
4548 4709
4548 4710
4549 4634
4549 4709
4549 4710
4550 4551
4550 4634
4550 4711
4550 4712
4551 4635
4551 4711
4551 4712
4552 4553
4552 4636
4552 4713
4552 4714
4553 4637
4553 4713
4553 4714
4554 4555
4554 4637
4554 4715
4554 4716
4555 4638
4555 4715
4555 4716
4556 4557
4556 4638
4556 4717
4556 4718
4557 4639
4557 4717
4557 4718
4558 4559
4558 4640
4558 4719
4558 4720
4559 4641
4559 4719
4559 4720
4560 4561
4560 4641
4560 4721
4560 4722
4561 4642
4561 4721
4561 4722
4562 4563
4562 4642
4562 4723
4562 4724
4563 4643
4563 4723
4563 4724
4564 4565
4564 4644
4564 4725
4564 4726
4565 4645
4565 4725
4565 4726
4566 4567
4566 4645
4566 4727
4566 4728
4567 4646
4567 4727
4567 4728
4568 4569
4568 4646
4568 4729
4568 4730
4569 4647
4569 4729
4569 4730
4570 4571
4570 4648
4570 4731
4570 4732
4571 4649
4571 4731
4571 4732
4572 4573
4572 4649
4572 4733
4572 4734
4573 4650
4573 4733
4573 4734
4574 4575
4574 4650
4574 4735
4574 4736
4575 4651
4575 4735
4575 4736
4576 4577
4576 4652
4576 4737
4576 4738
4577 4653
4577 4737
4577 4738
4578 4579
4578 4653
4578 4739
4578 4740
4579 4654
4579 4739
4579 4740
4580 4581
4580 4654
4580 4741
4580 4742
4581 4655
4581 4741
4581 4742
4582 4583
4582 4656
4582 4743
4582 4744
4583 4657
4583 4743
4583 4744
4584 4585
4584 4657
4584 4745
4584 4746
4585 4658
4585 4745
4585 4746
4586 4587
4586 4658
4586 4747
4586 4748
4587 4659
4587 4747
4587 4748
4588 4589
4588 4660
4588 4749
4588 4750
4589 4661
4589 4749
4589 4750
4590 4591
4590 4661
4590 4751
4590 4752
4591 4662
4591 4751
4591 4752
4592 4593
4592 4662
4592 4753
4592 4754
4593 4663
4593 4753
4593 4754
4594 4595
4594 4664
4594 4755
4594 4756
4595 4665
4595 4755
4595 4756
4596 4597
4596 4665
4596 4757
4596 4758
4597 4666
4597 4757
4597 4758
4598 4599
4598 4666
4598 4759
4598 4760
4599 4667
4599 4759
4599 4760
4600 4601
4600 4668
4600 4761
4600 4762
4601 4669
4601 4761
4601 4762
4602 4603
4602 4669
4602 4763
4602 4764
4603 4670
4603 4763
4603 4764
4604 4605
4604 4670
4604 4765
4604 4766
4605 4671
4605 4765
4605 4766
4606 4607
4606 4672
4606 4767
4606 4768
4607 4673
4607 4767
4607 4768
4608 4609
4608 4673
4608 4769
4608 4770
4609 4674
4609 4769
4609 4770
4610 4675
4611 4612
4611 4676
4612 4677
4613 4678
4613 4679
4614 4680
4614 4681
4615 4616
4615 4682
4616 4683
4617 4684
4617 4685
4618 4686
4618 4687
4619 4620
4619 4688
4620 4689
4621 4690
4621 4691
4622 4692
4622 4693
4623 4624
4623 4694
4624 4695
4625 4696
4625 4697
4626 4698
4626 4699
4627 4628
4627 4700
4628 4701
4629 4702
4629 4703
4630 4704
4630 4705
4631 4632
4631 4706
4632 4707
4633 4708
4633 4709
4634 4710
4634 4711
4635 4636
4635 4712
4636 4713
4637 4714
4637 4715
4638 4716
4638 4717
4639 4640
4639 4718
4640 4719
4641 4720
4641 4721
4642 4722
4642 4723
4643 4644
4643 4724
4644 4725
4645 4726
4645 4727
4646 4728
4646 4729
4647 4648
4647 4730
4648 4731
4649 4732
4649 4733
4650 4734
4650 4735
4651 4652
4651 4736
4652 4737
4653 4738
4653 4739
4654 4740
4654 4741
4655 4656
4655 4742
4656 4743
4657 4744
4657 4745
4658 4746
4658 4747
4659 4660
4659 4748
4660 4749
4661 4750
4661 4751
4662 4752
4662 4753
4663 4664
4663 4754
4664 4755
4665 4756
4665 4757
4666 4758
4666 4759
4667 4668
4667 4760
4668 4761
4669 4762
4669 4763
4670 4764
4670 4765
4671 4672
4671 4766
4672 4767
4673 4768
4673 4769
4674 4770
4675 4676
4675 4771
4676 4771
4677 4678
4677 4772
4678 4772
4679 4680
4679 4773
4680 4773
4681 4682
4681 4774
4682 4774
4683 4684
4683 4775
4684 4775
4685 4686
4685 4776
4686 4776
4687 4688
4687 4777
4688 4777
4689 4690
4689 4778
4690 4778
4691 4692
4691 4779
4692 4779
4693 4694
4693 4780
4694 4780
4695 4696
4695 4781
4696 4781
4697 4698
4697 4782
4698 4782
4699 4700
4699 4783
4700 4783
4701 4702
4701 4784
4702 4784
4703 4704
4703 4785
4704 4785
4705 4706
4705 4786
4706 4786
4707 4708
4707 4787
4708 4787
4709 4710
4709 4788
4710 4788
4711 4712
4711 4789
4712 4789
4713 4714
4713 4790
4714 4790
4715 4716
4715 4791
4716 4791
4717 4718
4717 4792
4718 4792
4719 4720
4719 4793
4720 4793
4721 4722
4721 4794
4722 4794
4723 4724
4723 4795
4724 4795
4725 4726
4725 4796
4726 4796
4727 4728
4727 4797
4728 4797
4729 4730
4729 4798
4730 4798
4731 4732
4731 4799
4732 4799
4733 4734
4733 4800
4734 4800
4735 4736
4735 4801
4736 4801
4737 4738
4737 4802
4738 4802
4739 4740
4739 4803
4740 4803
4741 4742
4741 4804
4742 4804
4743 4744
4743 4805
4744 4805
4745 4746
4745 4806
4746 4806
4747 4748
4747 4807
4748 4807
4749 4750
4749 4808
4750 4808
4751 4752
4751 4809
4752 4809
4753 4754
4753 4810
4754 4810
4755 4756
4755 4811
4756 4811
4757 4758
4757 4812
4758 4812
4759 4760
4759 4813
4760 4813
4761 4762
4761 4814
4762 4814
4763 4764
4763 4815
4764 4815
4765 4766
4765 4816
4766 4816
4767 4768
4767 4817
4768 4817
4769 4770
4771 4818
4771 4819
4772 4883
4772 4884
4773 4885
4774 4822
4774 4823
4775 4886
4775 4887
4776 4888
4777 4826
4777 4827
4778 4889
4778 4890
4779 4891
4780 4830
4780 4831
4781 4892
4781 4893
4782 4894
4783 4834
4783 4835
4784 4895
4784 4896
4785 4897
4786 4838
4786 4839
4787 4898
4787 4899
4788 4900
4789 4842
4789 4843
4790 4901
4790 4902
4791 4903
4792 4846
4792 4847
4793 4904
4793 4905
4794 4906
4795 4850
4795 4851
4796 4907
4796 4908
4797 4909
4798 4854
4798 4855
4799 4910
4799 4911
4800 4912
4801 4858
4801 4859
4802 4913
4802 4914
4803 4915
4804 4862
4804 4863
4805 4916
4805 4917
4806 4918
4807 4866
4807 4867
4808 4919
4808 4920
4809 4921
4810 4870
4810 4871
4811 4922
4811 4923
4812 4924
4813 4874
4813 4875
4814 4925
4814 4926
4815 4927
4816 4878
4816 4879
4817 4928
4817 4929
4818 4819
4818 4882
4818 4930
4818 4931
4819 4820
4819 4930
4819 4931
4820 4883
4820 4931
4820 4932
4821 4884
4821 4933
4821 4934
4822 4823
4822 4885
4822 4935
4822 4936
4823 4824
4823 4935
4823 4936
4824 4886
4824 4936
4824 4937
4825 4887
4825 4938
4825 4939
4826 4827
4826 4888
4826 4940
4826 4941
4827 4828
4827 4940
4827 4941
4828 4889
4828 4941
4828 4942
4829 4890
4829 4943
4829 4944
4830 4831
4830 4891
4830 4945
4830 4946
4831 4832
4831 4945
4831 4946
4832 4892
4832 4946
4832 4947
4833 4893
4833 4948
4833 4949
4834 4835
4834 4894
4834 4950
4834 4951
4835 4836
4835 4950
4835 4951
4836 4895
4836 4951
4836 4952
4837 4896
4837 4953
4837 4954
4838 4839
4838 4897
4838 4955
4838 4956
4839 4840
4839 4955
4839 4956
4840 4898
4840 4956
4840 4957
4841 4899
4841 4958
4841 4959
4842 4843
4842 4900
4842 4960
4842 4961
4843 4844
4843 4960
4843 4961
4844 4901
4844 4961
4844 4962
4845 4902
4845 4963
4845 4964
4846 4847
4846 4903
4846 4965
4846 4966
4847 4848
4847 4965
4847 4966
4848 4904
4848 4966
4848 4967
4849 4905
4849 4968
4849 4969
4850 4851
4850 4906
4850 4970
4850 4971
4851 4852
4851 4970
4851 4971
4852 4907
4852 4971
4852 4972
4853 4908
4853 4973
4853 4974
4854 4855
4854 4909
4854 4975
4854 4976
4855 4856
4855 4975
4855 4976
4856 4910
4856 4976
4856 4977
4857 4911
4857 4978
4857 4979
4858 4859
4858 4912
4858 4980
4858 4981
4859 4860
4859 4980
4859 4981
4860 4913
4860 4981
4860 4982
4861 4914
4861 4983
4861 4984
4862 4863
4862 4915
4862 4985
4862 4986
4863 4864
4863 4985
4863 4986
4864 4916
4864 4986
4864 4987
4865 4917
4865 4988
4865 4989
4866 4867
4866 4918
4866 4990
4866 4991
4867 4868
4867 4990
4867 4991
4868 4919
4868 4991
4868 4992
4869 4920
4869 4993
4869 4994
4870 4871
4870 4921
4870 4995
4870 4996
4871 4872
4871 4995
4871 4996
4872 4922
4872 4996
4872 4997
4873 4923
4873 4998
4873 4999
4874 4875
4874 4924
4874 5000
4874 5001
4875 4876
4875 5000
4875 5001
4876 4925
4876 5001
4876 5002
4877 4926
4877 5003
4877 5004
4878 4879
4878 4927
4878 5005
4878 5006
4879 4880
4879 5005
4879 5006
4880 4928
4880 5006
4880 5007
4881 4929
4881 5008
4881 5009
4882 4930
4883 4884
4883 4932
4883 5010
4883 5011
4884 4933
4884 5010
4884 5011
4885 4935
4886 4887
4886 4937
4886 5012
4886 5013
4887 4938
4887 5012
4887 5013
4888 4940
4889 4890
4889 4942
4889 5014
4889 5015
4890 4943
4890 5014
4890 5015
4891 4945
4892 4893
4892 4947
4892 5016
4892 5017
4893 4948
4893 5016
4893 5017
4894 4950
4895 4896
4895 4952
4895 5018
4895 5019
4896 4953
4896 5018
4896 5019
4897 4955
4898 4899
4898 4957
4898 5020
4898 5021
4899 4958
4899 5020
4899 5021
4900 4960
4901 4902
4901 4962
4901 5022
4901 5023
4902 4963
4902 5022
4902 5023
4903 4965
4904 4905
4904 4967
4904 5024
4904 5025
4905 4968
4905 5024
4905 5025
4906 4970
4907 4908
4907 4972
4907 5026
4907 5027
4908 4973
4908 5026
4908 5027
4909 4975
4910 4911
4910 4977
4910 5028
4910 5029
4911 4978
4911 5028
4911 5029
4912 4980
4913 4914
4913 4982
4913 5030
4913 5031
4914 4983
4914 5030
4914 5031
4915 4985
4916 4917
4916 4987
4916 5032
4916 5033
4917 4988
4917 5032
4917 5033
4918 4990
4919 4920
4919 4992
4919 5034
4919 5035
4920 4993
4920 5034
4920 5035
4921 4995
4922 4923
4922 4997
4922 5036
4922 5037
4923 4998
4923 5036
4923 5037
4924 5000
4925 4926
4925 5002
4925 5038
4925 5039
4926 5003
4926 5038
4926 5039
4927 5005
4928 4929
4928 5007
4928 5040
4928 5041
4929 5008
4929 5040
4929 5041
4930 4931
4930 5042
4931 5042
4932 5010
4932 5043
4933 5011
4933 5044
4934 5045
4935 4936
4935 5046
4936 5046
4937 5012
4937 5047
4938 5013
4938 5048
4939 5049
4940 4941
4940 5050
4941 5050
4942 5014
4942 5051
4943 5015
4943 5052
4944 5053
4945 4946
4945 5054
4946 5054
4947 5016
4947 5055
4948 5017
4948 5056
4949 5057
4950 4951
4950 5058
4951 5058
4952 5018
4952 5059
4953 5019
4953 5060
4954 5061
4955 4956
4955 5062
4956 5062
4957 5020
4957 5063
4958 5021
4958 5064
4959 5065
4960 4961
4960 5066
4961 5066
4962 5022
4962 5067
4963 5023
4963 5068
4964 5069
4965 4966
4965 5070
4966 5070
4967 5024
4967 5071
4968 5025
4968 5072
4969 5073
4970 4971
4970 5074
4971 5074
4972 5026
4972 5075
4973 5027
4973 5076
4974 5077
4975 4976
4975 5078
4976 5078
4977 5028
4977 5079
4978 5029
4978 5080
4979 5081
4980 4981
4980 5082
4981 5082
4982 5030
4982 5083
4983 5031
4983 5084
4984 5085
4985 4986
4985 5086
4986 5086
4987 5032
4987 5087
4988 5033
4988 5088
4989 5089
4990 4991
4990 5090
4991 5090
4992 5034
4992 5091
4993 5035
4993 5092
4994 5093
4995 4996
4995 5094
4996 5094
4997 5036
4997 5095
4998 5037
4998 5096
4999 5097
5000 5001
5000 5098
5001 5098
5002 5038
5002 5099
5003 5039
5003 5100
5004 5101
5005 5006
5005 5102
5006 5102
5007 5040
5007 5103
5008 5041
5008 5104
5009 5105
5010 5011
5010 5043
5011 5044
5012 5013
5012 5047
5013 5048
5014 5015
5014 5051
5015 5052
5016 5017
5016 5055
5017 5056
5018 5019
5018 5059
5019 5060
5020 5021
5020 5063
5021 5064
5022 5023
5022 5067
5023 5068
5024 5025
5024 5071
5025 5072
5026 5027
5026 5075
5027 5076
5028 5029
5028 5079
5029 5080
5030 5031
5030 5083
5031 5084
5032 5033
5032 5087
5033 5088
5034 5035
5034 5091
5035 5092
5036 5037
5036 5095
5037 5096
5038 5039
5038 5099
5039 5100
5040 5041
5040 5103
5041 5104
5042 5106
5042 5107
5043 5107
5044 5108
5044 5109
5045 5110
5045 5111
5046 5112
5046 5113
5047 5113
5048 5114
5048 5115
5049 5116
5049 5117
5050 5118
5050 5119
5051 5119
5052 5120
5052 5121
5053 5122
5053 5123
5054 5124
5054 5125
5055 5125
5056 5126
5056 5127
5057 5128
5057 5129
5058 5130
5058 5131
5059 5131
5060 5132
5060 5133
5061 5134
5061 5135
5062 5136
5062 5137
5063 5137
5064 5138
5064 5139
5065 5140
5065 5141
5066 5142
5066 5143
5067 5143
5068 5144
5068 5145
5069 5146
5069 5147
5070 5148
5070 5149
5071 5149
5072 5150
5072 5151
5073 5152
5073 5153
5074 5154
5074 5155
5075 5155
5076 5156
5076 5157
5077 5158
5077 5159
5078 5160
5078 5161
5079 5161
5080 5162
5080 5163
5081 5164
5081 5165
5082 5166
5082 5167
5083 5167
5084 5168
5084 5169
5085 5170
5085 5171
5086 5172
5086 5173
5087 5173
5088 5174
5088 5175
5089 5176
5089 5177
5090 5178
5090 5179
5091 5179
5092 5180
5092 5181
5093 5182
5093 5183
5094 5184
5094 5185
5095 5185
5096 5186
5096 5187
5097 5188
5097 5189
5098 5190
5098 5191
5099 5191
5100 5192
5100 5193
5101 5194
5101 5195
5102 5196
5102 5197
5103 5197
5104 5198
5104 5199
5105 5200
5105 5201
5106 5107
5106 5202
5106 5267
5106 5268
5107 5203
5107 5267
5107 5268
5108 5109
5108 5204
5108 5269
5108 5270
5109 5205
5109 5269
5109 5270
5110 5111
5110 5205
5110 5271
5110 5272
5111 5206
5111 5271
5111 5272
5112 5113
5112 5206
5112 5273
5112 5274
5113 5207
5113 5273
5113 5274
5114 5115
5114 5208
5114 5275
5114 5276
5115 5209
5115 5275
5115 5276
5116 5117
5116 5209
5116 5277
5116 5278
5117 5210
5117 5277
5117 5278
5118 5119
5118 5210
5118 5279
5118 5280
5119 5211
5119 5279
5119 5280
5120 5121
5120 5212
5120 5281
5120 5282
5121 5213
5121 5281
5121 5282
5122 5123
5122 5213
5122 5283
5122 5284
5123 5214
5123 5283
5123 5284
5124 5125
5124 5214
5124 5285
5124 5286
5125 5215
5125 5285
5125 5286
5126 5127
5126 5216
5126 5287
5126 5288
5127 5217
5127 5287
5127 5288
5128 5129
5128 5217
5128 5289
5128 5290
5129 5218
5129 5289
5129 5290
5130 5131
5130 5218
5130 5291
5130 5292
5131 5219
5131 5291
5131 5292
5132 5133
5132 5220
5132 5293
5132 5294
5133 5221
5133 5293
5133 5294
5134 5135
5134 5221
5134 5295
5134 5296
5135 5222
5135 5295
5135 5296
5136 5137
5136 5222
5136 5297
5136 5298
5137 5223
5137 5297
5137 5298
5138 5139
5138 5224
5138 5299
5138 5300
5139 5225
5139 5299
5139 5300
5140 5141
5140 5225
5140 5301
5140 5302
5141 5226
5141 5301
5141 5302
5142 5143
5142 5226
5142 5303
5142 5304
5143 5227
5143 5303
5143 5304
5144 5145
5144 5228
5144 5305
5144 5306
5145 5229
5145 5305
5145 5306
5146 5147
5146 5229
5146 5307
5146 5308
5147 5230
5147 5307
5147 5308
5148 5149
5148 5230
5148 5309
5148 5310
5149 5231
5149 5309
5149 5310
5150 5151
5150 5232
5150 5311
5150 5312
5151 5233
5151 5311
5151 5312
5152 5153
5152 5233
5152 5313
5152 5314
5153 5234
5153 5313
5153 5314
5154 5155
5154 5234
5154 5315
5154 5316
5155 5235
5155 5315
5155 5316
5156 5157
5156 5236
5156 5317
5156 5318
5157 5237
5157 5317
5157 5318
5158 5159
5158 5237
5158 5319
5158 5320
5159 5238
5159 5319
5159 5320
5160 5161
5160 5238
5160 5321
5160 5322
5161 5239
5161 5321
5161 5322
5162 5163
5162 5240
5162 5323
5162 5324
5163 5241
5163 5323
5163 5324
5164 5165
5164 5241
5164 5325
5164 5326
5165 5242
5165 5325
5165 5326
5166 5167
5166 5242
5166 5327
5166 5328
5167 5243
5167 5327
5167 5328
5168 5169
5168 5244
5168 5329
5168 5330
5169 5245
5169 5329
5169 5330
5170 5171
5170 5245
5170 5331
5170 5332
5171 5246
5171 5331
5171 5332
5172 5173
5172 5246
5172 5333
5172 5334
5173 5247
5173 5333
5173 5334
5174 5175
5174 5248
5174 5335
5174 5336
5175 5249
5175 5335
5175 5336
5176 5177
5176 5249
5176 5337
5176 5338
5177 5250
5177 5337
5177 5338
5178 5179
5178 5250
5178 5339
5178 5340
5179 5251
5179 5339
5179 5340
5180 5181
5180 5252
5180 5341
5180 5342
5181 5253
5181 5341
5181 5342
5182 5183
5182 5253
5182 5343
5182 5344
5183 5254
5183 5343
5183 5344
5184 5185
5184 5254
5184 5345
5184 5346
5185 5255
5185 5345
5185 5346
5186 5187
5186 5256
5186 5347
5186 5348
5187 5257
5187 5347
5187 5348
5188 5189
5188 5257
5188 5349
5188 5350
5189 5258
5189 5349
5189 5350
5190 5191
5190 5258
5190 5351
5190 5352
5191 5259
5191 5351
5191 5352
5192 5193
5192 5260
5192 5353
5192 5354
5193 5261
5193 5353
5193 5354
5194 5195
5194 5261
5194 5355
5194 5356
5195 5262
5195 5355
5195 5356
5196 5197
5196 5262
5196 5357
5196 5358
5197 5263
5197 5357
5197 5358
5198 5199
5198 5264
5198 5359
5198 5360
5199 5265
5199 5359
5199 5360
5200 5201
5200 5265
5200 5361
5200 5362
5201 5266
5201 5361
5201 5362
5202 5267
5203 5204
5203 5268
5204 5269
5205 5270
5205 5271
5206 5272
5206 5273
5207 5208
5207 5274
5208 5275
5209 5276
5209 5277
5210 5278
5210 5279
5211 5212
5211 5280
5212 5281
5213 5282
5213 5283
5214 5284
5214 5285
5215 5216
5215 5286
5216 5287
5217 5288
5217 5289
5218 5290
5218 5291
5219 5220
5219 5292
5220 5293
5221 5294
5221 5295
5222 5296
5222 5297
5223 5224
5223 5298
5224 5299
5225 5300
5225 5301
5226 5302
5226 5303
5227 5228
5227 5304
5228 5305
5229 5306
5229 5307
5230 5308
5230 5309
5231 5232
5231 5310
5232 5311
5233 5312
5233 5313
5234 5314
5234 5315
5235 5236
5235 5316
5236 5317
5237 5318
5237 5319
5238 5320
5238 5321
5239 5240
5239 5322
5240 5323
5241 5324
5241 5325
5242 5326
5242 5327
5243 5244
5243 5328
5244 5329
5245 5330
5245 5331
5246 5332
5246 5333
5247 5248
5247 5334
5248 5335
5249 5336
5249 5337
5250 5338
5250 5339
5251 5252
5251 5340
5252 5341
5253 5342
5253 5343
5254 5344
5254 5345
5255 5256
5255 5346
5256 5347
5257 5348
5257 5349
5258 5350
5258 5351
5259 5260
5259 5352
5260 5353
5261 5354
5261 5355
5262 5356
5262 5357
5263 5264
5263 5358
5264 5359
5265 5360
5265 5361
5266 5362
5267 5268
5267 5363
5268 5363
5269 5270
5269 5364
5270 5364
5271 5272
5271 5365
5272 5365
5273 5274
5273 5366
5274 5366
5275 5276
5275 5367
5276 5367
5277 5278
5277 5368
5278 5368
5279 5280
5279 5369
5280 5369
5281 5282
5281 5370
5282 5370
5283 5284
5283 5371
5284 5371
5285 5286
5285 5372
5286 5372
5287 5288
5287 5373
5288 5373
5289 5290
5289 5374
5290 5374
5291 5292
5291 5375
5292 5375
5293 5294
5293 5376
5294 5376
5295 5296
5295 5377
5296 5377
5297 5298
5297 5378
5298 5378
5299 5300
5299 5379
5300 5379
5301 5302
5301 5380
5302 5380
5303 5304
5303 5381
5304 5381
5305 5306
5305 5382
5306 5382
5307 5308
5307 5383
5308 5383
5309 5310
5309 5384
5310 5384
5311 5312
5311 5385
5312 5385
5313 5314
5313 5386
5314 5386
5315 5316
5315 5387
5316 5387
5317 5318
5317 5388
5318 5388
5319 5320
5319 5389
5320 5389
5321 5322
5321 5390
5322 5390
5323 5324
5323 5391
5324 5391
5325 5326
5325 5392
5326 5392
5327 5328
5327 5393
5328 5393
5329 5330
5329 5394
5330 5394
5331 5332
5331 5395
5332 5395
5333 5334
5333 5396
5334 5396
5335 5336
5335 5397
5336 5397
5337 5338
5337 5398
5338 5398
5339 5340
5339 5399
5340 5399
5341 5342
5341 5400
5342 5400
5343 5344
5343 5401
5344 5401
5345 5346
5345 5402
5346 5402
5347 5348
5347 5403
5348 5403
5349 5350
5349 5404
5350 5404
5351 5352
5351 5405
5352 5405
5353 5354
5353 5406
5354 5406
5355 5356
5355 5407
5356 5407
5357 5358
5357 5408
5358 5408
5359 5360
5359 5409
5360 5409
5361 5362
5363 5410
5363 5411
5364 5475
5364 5476
5365 5477
5366 5414
5366 5415
5367 5478
5367 5479
5368 5480
5369 5418
5369 5419
5370 5481
5370 5482
5371 5483
5372 5422
5372 5423
5373 5484
5373 5485
5374 5486
5375 5426
5375 5427
5376 5487
5376 5488
5377 5489
5378 5430
5378 5431
5379 5490
5379 5491
5380 5492
5381 5434
5381 5435
5382 5493
5382 5494
5383 5495
5384 5438
5384 5439
5385 5496
5385 5497
5386 5498
5387 5442
5387 5443
5388 5499
5388 5500
5389 5501
5390 5446
5390 5447
5391 5502
5391 5503
5392 5504
5393 5450
5393 5451
5394 5505
5394 5506
5395 5507
5396 5454
5396 5455
5397 5508
5397 5509
5398 5510
5399 5458
5399 5459
5400 5511
5400 5512
5401 5513
5402 5462
5402 5463
5403 5514
5403 5515
5404 5516
5405 5466
5405 5467
5406 5517
5406 5518
5407 5519
5408 5470
5408 5471
5409 5520
5409 5521
5410 5411
5410 5474
5410 5522
5410 5523
5411 5412
5411 5522
5411 5523
5412 5475
5412 5523
5412 5524
5413 5476
5413 5525
5413 5526
5414 5415
5414 5477
5414 5527
5414 5528
5415 5416
5415 5527
5415 5528
5416 5478
5416 5528
5416 5529
5417 5479
5417 5530
5417 5531
5418 5419
5418 5480
5418 5532
5418 5533
5419 5420
5419 5532
5419 5533
5420 5481
5420 5533
5420 5534
5421 5482
5421 5535
5421 5536
5422 5423
5422 5483
5422 5537
5422 5538
5423 5424
5423 5537
5423 5538
5424 5484
5424 5538
5424 5539
5425 5485
5425 5540
5425 5541
5426 5427
5426 5486
5426 5542
5426 5543
5427 5428
5427 5542
5427 5543
5428 5487
5428 5543
5428 5544
5429 5488
5429 5545
5429 5546
5430 5431
5430 5489
5430 5547
5430 5548
5431 5432
5431 5547
5431 5548
5432 5490
5432 5548
5432 5549
5433 5491
5433 5550
5433 5551
5434 5435
5434 5492
5434 5552
5434 5553
5435 5436
5435 5552
5435 5553
5436 5493
5436 5553
5436 5554
5437 5494
5437 5555
5437 5556
5438 5439
5438 5495
5438 5557
5438 5558
5439 5440
5439 5557
5439 5558
5440 5496
5440 5558
5440 5559
5441 5497
5441 5560
5441 5561
5442 5443
5442 5498
5442 5562
5442 5563
5443 5444
5443 5562
5443 5563
5444 5499
5444 5563
5444 5564
5445 5500
5445 5565
5445 5566
5446 5447
5446 5501
5446 5567
5446 5568
5447 5448
5447 5567
5447 5568
5448 5502
5448 5568
5448 5569
5449 5503
5449 5570
5449 5571
5450 5451
5450 5504
5450 5572
5450 5573
5451 5452
5451 5572
5451 5573
5452 5505
5452 5573
5452 5574
5453 5506
5453 5575
5453 5576
5454 5455
5454 5507
5454 5577
5454 5578
5455 5456
5455 5577
5455 5578
5456 5508
5456 5578
5456 5579
5457 5509
5457 5580
5457 5581
5458 5459
5458 5510
5458 5582
5458 5583
5459 5460
5459 5582
5459 5583
5460 5511
5460 5583
5460 5584
5461 5512
5461 5585
5461 5586
5462 5463
5462 5513
5462 5587
5462 5588
5463 5464
5463 5587
5463 5588
5464 5514
5464 5588
5464 5589
5465 5515
5465 5590
5465 5591
5466 5467
5466 5516
5466 5592
5466 5593
5467 5468
5467 5592
5467 5593
5468 5517
5468 5593
5468 5594
5469 5518
5469 5595
5469 5596
5470 5471
5470 5519
5470 5597
5470 5598
5471 5472
5471 5597
5471 5598
5472 5520
5472 5598
5472 5599
5473 5521
5473 5600
5473 5601
5474 5522
5475 5476
5475 5524
5475 5602
5475 5603
5476 5525
5476 5602
5476 5603
5477 5527
5478 5479
5478 5529
5478 5604
5478 5605
5479 5530
5479 5604
5479 5605
5480 5532
5481 5482
5481 5534
5481 5606
5481 5607
5482 5535
5482 5606
5482 5607
5483 5537
5484 5485
5484 5539
5484 5608
5484 5609
5485 5540
5485 5608
5485 5609
5486 5542
5487 5488
5487 5544
5487 5610
5487 5611
5488 5545
5488 5610
5488 5611
5489 5547
5490 5491
5490 5549
5490 5612
5490 5613
5491 5550
5491 5612
5491 5613
5492 5552
5493 5494
5493 5554
5493 5614
5493 5615
5494 5555
5494 5614
5494 5615
5495 5557
5496 5497
5496 5559
5496 5616
5496 5617
5497 5560
5497 5616
5497 5617
5498 5562
5499 5500
5499 5564
5499 5618
5499 5619
5500 5565
5500 5618
5500 5619
5501 5567
5502 5503
5502 5569
5502 5620
5502 5621
5503 5570
5503 5620
5503 5621
5504 5572
5505 5506
5505 5574
5505 5622
5505 5623
5506 5575
5506 5622
5506 5623
5507 5577
5508 5509
5508 5579
5508 5624
5508 5625
5509 5580
5509 5624
5509 5625
5510 5582
5511 5512
5511 5584
5511 5626
5511 5627
5512 5585
5512 5626
5512 5627
5513 5587
5514 5515
5514 5589
5514 5628
5514 5629
5515 5590
5515 5628
5515 5629
5516 5592
5517 5518
5517 5594
5517 5630
5517 5631
5518 5595
5518 5630
5518 5631
5519 5597
5520 5521
5520 5599
5520 5632
5520 5633
5521 5600
5521 5632
5521 5633
5522 5523
5522 5634
5523 5634
5524 5602
5524 5635
5525 5603
5525 5636
5526 5637
5527 5528
5527 5638
5528 5638
5529 5604
5529 5639
5530 5605
5530 5640
5531 5641
5532 5533
5532 5642
5533 5642
5534 5606
5534 5643
5535 5607
5535 5644
5536 5645
5537 5538
5537 5646
5538 5646
5539 5608
5539 5647
5540 5609
5540 5648
5541 5649
5542 5543
5542 5650
5543 5650
5544 5610
5544 5651
5545 5611
5545 5652
5546 5653
5547 5548
5547 5654
5548 5654
5549 5612
5549 5655
5550 5613
5550 5656
5551 5657
5552 5553
5552 5658
5553 5658
5554 5614
5554 5659
5555 5615
5555 5660
5556 5661
5557 5558
5557 5662
5558 5662
5559 5616
5559 5663
5560 5617
5560 5664
5561 5665
5562 5563
5562 5666
5563 5666
5564 5618
5564 5667
5565 5619
5565 5668
5566 5669
5567 5568
5567 5670
5568 5670
5569 5620
5569 5671
5570 5621
5570 5672
5571 5673
5572 5573
5572 5674
5573 5674
5574 5622
5574 5675
5575 5623
5575 5676
5576 5677
5577 5578
5577 5678
5578 5678
5579 5624
5579 5679
5580 5625
5580 5680
5581 5681
5582 5583
5582 5682
5583 5682
5584 5626
5584 5683
5585 5627
5585 5684
5586 5685
5587 5588
5587 5686
5588 5686
5589 5628
5589 5687
5590 5629
5590 5688
5591 5689
5592 5593
5592 5690
5593 5690
5594 5630
5594 5691
5595 5631
5595 5692
5596 5693
5597 5598
5597 5694
5598 5694
5599 5632
5599 5695
5600 5633
5600 5696
5601 5697
5602 5603
5602 5635
5603 5636
5604 5605
5604 5639
5605 5640
5606 5607
5606 5643
5607 5644
5608 5609
5608 5647
5609 5648
5610 5611
5610 5651
5611 5652
5612 5613
5612 5655
5613 5656
5614 5615
5614 5659
5615 5660
5616 5617
5616 5663
5617 5664
5618 5619
5618 5667
5619 5668
5620 5621
5620 5671
5621 5672
5622 5623
5622 5675
5623 5676
5624 5625
5624 5679
5625 5680
5626 5627
5626 5683
5627 5684
5628 5629
5628 5687
5629 5688
5630 5631
5630 5691
5631 5692
5632 5633
5632 5695
5633 5696
5634 5698
5634 5699
5635 5699
5636 5700
5636 5701
5637 5702
5637 5703
5638 5704
5638 5705
5639 5705
5640 5706
5640 5707
5641 5708
5641 5709
5642 5710
5642 5711
5643 5711
5644 5712
5644 5713
5645 5714
5645 5715
5646 5716
5646 5717
5647 5717
5648 5718
5648 5719
5649 5720
5649 5721
5650 5722
5650 5723
5651 5723
5652 5724
5652 5725
5653 5726
5653 5727
5654 5728
5654 5729
5655 5729
5656 5730
5656 5731
5657 5732
5657 5733
5658 5734
5658 5735
5659 5735
5660 5736
5660 5737
5661 5738
5661 5739
5662 5740
5662 5741
5663 5741
5664 5742
5664 5743
5665 5744
5665 5745
5666 5746
5666 5747
5667 5747
5668 5748
5668 5749
5669 5750
5669 5751
5670 5752
5670 5753
5671 5753
5672 5754
5672 5755
5673 5756
5673 5757
5674 5758
5674 5759
5675 5759
5676 5760
5676 5761
5677 5762
5677 5763
5678 5764
5678 5765
5679 5765
5680 5766
5680 5767
5681 5768
5681 5769
5682 5770
5682 5771
5683 5771
5684 5772
5684 5773
5685 5774
5685 5775
5686 5776
5686 5777
5687 5777
5688 5778
5688 5779
5689 5780
5689 5781
5690 5782
5690 5783
5691 5783
5692 5784
5692 5785
5693 5786
5693 5787
5694 5788
5694 5789
5695 5789
5696 5790
5696 5791
5697 5792
5697 5793
5698 5699
5698 5794
5698 5859
5698 5860
5699 5795
5699 5859
5699 5860
5700 5701
5700 5796
5700 5861
5700 5862
5701 5797
5701 5861
5701 5862
5702 5703
5702 5797
5702 5863
5702 5864
5703 5798
5703 5863
5703 5864
5704 5705
5704 5798
5704 5865
5704 5866
5705 5799
5705 5865
5705 5866
5706 5707
5706 5800
5706 5867
5706 5868
5707 5801
5707 5867
5707 5868
5708 5709
5708 5801
5708 5869
5708 5870
5709 5802
5709 5869
5709 5870
5710 5711
5710 5802
5710 5871
5710 5872
5711 5803
5711 5871
5711 5872
5712 5713
5712 5804
5712 5873
5712 5874
5713 5805
5713 5873
5713 5874
5714 5715
5714 5805
5714 5875
5714 5876
5715 5806
5715 5875
5715 5876
5716 5717
5716 5806
5716 5877
5716 5878
5717 5807
5717 5877
5717 5878
5718 5719
5718 5808
5718 5879
5718 5880
5719 5809
5719 5879
5719 5880
5720 5721
5720 5809
5720 5881
5720 5882
5721 5810
5721 5881
5721 5882
5722 5723
5722 5810
5722 5883
5722 5884
5723 5811
5723 5883
5723 5884
5724 5725
5724 5812
5724 5885
5724 5886
5725 5813
5725 5885
5725 5886
5726 5727
5726 5813
5726 5887
5726 5888
5727 5814
5727 5887
5727 5888
5728 5729
5728 5814
5728 5889
5728 5890
5729 5815
5729 5889
5729 5890
5730 5731
5730 5816
5730 5891
5730 5892
5731 5817
5731 5891
5731 5892
5732 5733
5732 5817
5732 5893
5732 5894
5733 5818
5733 5893
5733 5894
5734 5735
5734 5818
5734 5895
5734 5896
5735 5819
5735 5895
5735 5896
5736 5737
5736 5820
5736 5897
5736 5898
5737 5821
5737 5897
5737 5898
5738 5739
5738 5821
5738 5899
5738 5900
5739 5822
5739 5899
5739 5900
5740 5741
5740 5822
5740 5901
5740 5902
5741 5823
5741 5901
5741 5902
5742 5743
5742 5824
5742 5903
5742 5904
5743 5825
5743 5903
5743 5904
5744 5745
5744 5825
5744 5905
5744 5906
5745 5826
5745 5905
5745 5906
5746 5747
5746 5826
5746 5907
5746 5908
5747 5827
5747 5907
5747 5908
5748 5749
5748 5828
5748 5909
5748 5910
5749 5829
5749 5909
5749 5910
5750 5751
5750 5829
5750 5911
5750 5912
5751 5830
5751 5911
5751 5912
5752 5753
5752 5830
5752 5913
5752 5914
5753 5831
5753 5913
5753 5914
5754 5755
5754 5832
5754 5915
5754 5916
5755 5833
5755 5915
5755 5916
5756 5757
5756 5833
5756 5917
5756 5918
5757 5834
5757 5917
5757 5918
5758 5759
5758 5834
5758 5919
5758 5920
5759 5835
5759 5919
5759 5920
5760 5761
5760 5836
5760 5921
5760 5922
5761 5837
5761 5921
5761 5922
5762 5763
5762 5837
5762 5923
5762 5924
5763 5838
5763 5923
5763 5924
5764 5765
5764 5838
5764 5925
5764 5926
5765 5839
5765 5925
5765 5926
5766 5767
5766 5840
5766 5927
5766 5928
5767 5841
5767 5927
5767 5928
5768 5769
5768 5841
5768 5929
5768 5930
5769 5842
5769 5929
5769 5930
5770 5771
5770 5842
5770 5931
5770 5932
5771 5843
5771 5931
5771 5932
5772 5773
5772 5844
5772 5933
5772 5934
5773 5845
5773 5933
5773 5934
5774 5775
5774 5845
5774 5935
5774 5936
5775 5846
5775 5935
5775 5936
5776 5777
5776 5846
5776 5937
5776 5938
5777 5847
5777 5937
5777 5938
5778 5779
5778 5848
5778 5939
5778 5940
5779 5849
5779 5939
5779 5940
5780 5781
5780 5849
5780 5941
5780 5942
5781 5850
5781 5941
5781 5942
5782 5783
5782 5850
5782 5943
5782 5944
5783 5851
5783 5943
5783 5944
5784 5785
5784 5852
5784 5945
5784 5946
5785 5853
5785 5945
5785 5946
5786 5787
5786 5853
5786 5947
5786 5948
5787 5854
5787 5947
5787 5948
5788 5789
5788 5854
5788 5949
5788 5950
5789 5855
5789 5949
5789 5950
5790 5791
5790 5856
5790 5951
5790 5952
5791 5857
5791 5951
5791 5952
5792 5793
5792 5857
5792 5953
5792 5954
5793 5858
5793 5953
5793 5954
5794 5859
5795 5796
5795 5860
5796 5861
5797 5862
5797 5863
5798 5864
5798 5865
5799 5800
5799 5866
5800 5867
5801 5868
5801 5869
5802 5870
5802 5871
5803 5804
5803 5872
5804 5873
5805 5874
5805 5875
5806 5876
5806 5877
5807 5808
5807 5878
5808 5879
5809 5880
5809 5881
5810 5882
5810 5883
5811 5812
5811 5884
5812 5885
5813 5886
5813 5887
5814 5888
5814 5889
5815 5816
5815 5890
5816 5891
5817 5892
5817 5893
5818 5894
5818 5895
5819 5820
5819 5896
5820 5897
5821 5898
5821 5899
5822 5900
5822 5901
5823 5824
5823 5902
5824 5903
5825 5904
5825 5905
5826 5906
5826 5907
5827 5828
5827 5908
5828 5909
5829 5910
5829 5911
5830 5912
5830 5913
5831 5832
5831 5914
5832 5915
5833 5916
5833 5917
5834 5918
5834 5919
5835 5836
5835 5920
5836 5921
5837 5922
5837 5923
5838 5924
5838 5925
5839 5840
5839 5926
5840 5927
5841 5928
5841 5929
5842 5930
5842 5931
5843 5844
5843 5932
5844 5933
5845 5934
5845 5935
5846 5936
5846 5937
5847 5848
5847 5938
5848 5939
5849 5940
5849 5941
5850 5942
5850 5943
5851 5852
5851 5944
5852 5945
5853 5946
5853 5947
5854 5948
5854 5949
5855 5856
5855 5950
5856 5951
5857 5952
5857 5953
5858 5954
5859 5860
5859 5955
5860 5955
5861 5862
5861 5956
5862 5956
5863 5864
5863 5957
5864 5957
5865 5866
5865 5958
5866 5958
5867 5868
5867 5959
5868 5959
5869 5870
5869 5960
5870 5960
5871 5872
5871 5961
5872 5961
5873 5874
5873 5962
5874 5962
5875 5876
5875 5963
5876 5963
5877 5878
5877 5964
5878 5964
5879 5880
5879 5965
5880 5965
5881 5882
5881 5966
5882 5966
5883 5884
5883 5967
5884 5967
5885 5886
5885 5968
5886 5968
5887 5888
5887 5969
5888 5969
5889 5890
5889 5970
5890 5970
5891 5892
5891 5971
5892 5971
5893 5894
5893 5972
5894 5972
5895 5896
5895 5973
5896 5973
5897 5898
5897 5974
5898 5974
5899 5900
5899 5975
5900 5975
5901 5902
5901 5976
5902 5976
5903 5904
5903 5977
5904 5977
5905 5906
5905 5978
5906 5978
5907 5908
5907 5979
5908 5979
5909 5910
5909 5980
5910 5980
5911 5912
5911 5981
5912 5981
5913 5914
5913 5982
5914 5982
5915 5916
5915 5983
5916 5983
5917 5918
5917 5984
5918 5984
5919 5920
5919 5985
5920 5985
5921 5922
5921 5986
5922 5986
5923 5924
5923 5987
5924 5987
5925 5926
5925 5988
5926 5988
5927 5928
5927 5989
5928 5989
5929 5930
5929 5990
5930 5990
5931 5932
5931 5991
5932 5991
5933 5934
5933 5992
5934 5992
5935 5936
5935 5993
5936 5993
5937 5938
5937 5994
5938 5994
5939 5940
5939 5995
5940 5995
5941 5942
5941 5996
5942 5996
5943 5944
5943 5997
5944 5997
5945 5946
5945 5998
5946 5998
5947 5948
5947 5999
5948 5999
5949 5950
5949 6000
5950 6000
5951 5952
5951 6001
5952 6001
5953 5954
5955 6002
5955 6003
5956 6067
5956 6068
5957 6069
5958 6006
5958 6007
5959 6070
5959 6071
5960 6072
5961 6010
5961 6011
5962 6073
5962 6074
5963 6075
5964 6014
5964 6015
5965 6076
5965 6077
5966 6078
5967 6018
5967 6019
5968 6079
5968 6080
5969 6081
5970 6022
5970 6023
5971 6082
5971 6083
5972 6084
5973 6026
5973 6027
5974 6085
5974 6086
5975 6087
5976 6030
5976 6031
5977 6088
5977 6089
5978 6090
5979 6034
5979 6035
5980 6091
5980 6092
5981 6093
5982 6038
5982 6039
5983 6094
5983 6095
5984 6096
5985 6042
5985 6043
5986 6097
5986 6098
5987 6099
5988 6046
5988 6047
5989 6100
5989 6101
5990 6102
5991 6050
5991 6051
5992 6103
5992 6104
5993 6105
5994 6054
5994 6055
5995 6106
5995 6107
5996 6108
5997 6058
5997 6059
5998 6109
5998 6110
5999 6111
6000 6062
6000 6063
6001 6112
6001 6113
6002 6003
6002 6066
6002 6114
6002 6115
6003 6004
6003 6114
6003 6115
6004 6067
6004 6115
6004 6116
6005 6068
6005 6117
6005 6118
6006 6007
6006 6069
6006 6119
6006 6120
6007 6008
6007 6119
6007 6120
6008 6070
6008 6120
6008 6121
6009 6071
6009 6122
6009 6123
6010 6011
6010 6072
6010 6124
6010 6125
6011 6012
6011 6124
6011 6125
6012 6073
6012 6125
6012 6126
6013 6074
6013 6127
6013 6128
6014 6015
6014 6075
6014 6129
6014 6130
6015 6016
6015 6129
6015 6130
6016 6076
6016 6130
6016 6131
6017 6077
6017 6132
6017 6133
6018 6019
6018 6078
6018 6134
6018 6135
6019 6020
6019 6134
6019 6135
6020 6079
6020 6135
6020 6136
6021 6080
6021 6137
6021 6138
6022 6023
6022 6081
6022 6139
6022 6140
6023 6024
6023 6139
6023 6140
6024 6082
6024 6140
6024 6141
6025 6083
6025 6142
6025 6143
6026 6027
6026 6084
6026 6144
6026 6145
6027 6028
6027 6144
6027 6145
6028 6085
6028 6145
6028 6146
6029 6086
6029 6147
6029 6148
6030 6031
6030 6087
6030 6149
6030 6150
6031 6032
6031 6149
6031 6150
6032 6088
6032 6150
6032 6151
6033 6089
6033 6152
6033 6153
6034 6035
6034 6090
6034 6154
6034 6155
6035 6036
6035 6154
6035 6155
6036 6091
6036 6155
6036 6156
6037 6092
6037 6157
6037 6158
6038 6039
6038 6093
6038 6159
6038 6160
6039 6040
6039 6159
6039 6160
6040 6094
6040 6160
6040 6161
6041 6095
6041 6162
6041 6163
6042 6043
6042 6096
6042 6164
6042 6165
6043 6044
6043 6164
6043 6165
6044 6097
6044 6165
6044 6166
6045 6098
6045 6167
6045 6168
6046 6047
6046 6099
6046 6169
6046 6170
6047 6048
6047 6169
6047 6170
6048 6100
6048 6170
6048 6171
6049 6101
6049 6172
6049 6173
6050 6051
6050 6102
6050 6174
6050 6175
6051 6052
6051 6174
6051 6175
6052 6103
6052 6175
6052 6176
6053 6104
6053 6177
6053 6178
6054 6055
6054 6105
6054 6179
6054 6180
6055 6056
6055 6179
6055 6180
6056 6106
6056 6180
6056 6181
6057 6107
6057 6182
6057 6183
6058 6059
6058 6108
6058 6184
6058 6185
6059 6060
6059 6184
6059 6185
6060 6109
6060 6185
6060 6186
6061 6110
6061 6187
6061 6188
6062 6063
6062 6111
6062 6189
6062 6190
6063 6064
6063 6189
6063 6190
6064 6112
6064 6190
6064 6191
6065 6113
6065 6192
6065 6193
6066 6114
6067 6068
6067 6116
6067 6194
6067 6195
6068 6117
6068 6194
6068 6195
6069 6119
6070 6071
6070 6121
6070 6196
6070 6197
6071 6122
6071 6196
6071 6197
6072 6124
6073 6074
6073 6126
6073 6198
6073 6199
6074 6127
6074 6198
6074 6199
6075 6129
6076 6077
6076 6131
6076 6200
6076 6201
6077 6132
6077 6200
6077 6201
6078 6134
6079 6080
6079 6136
6079 6202
6079 6203
6080 6137
6080 6202
6080 6203
6081 6139
6082 6083
6082 6141
6082 6204
6082 6205
6083 6142
6083 6204
6083 6205
6084 6144
6085 6086
6085 6146
6085 6206
6085 6207
6086 6147
6086 6206
6086 6207
6087 6149
6088 6089
6088 6151
6088 6208
6088 6209
6089 6152
6089 6208
6089 6209
6090 6154
6091 6092
6091 6156
6091 6210
6091 6211
6092 6157
6092 6210
6092 6211
6093 6159
6094 6095
6094 6161
6094 6212
6094 6213
6095 6162
6095 6212
6095 6213
6096 6164
6097 6098
6097 6166
6097 6214
6097 6215
6098 6167
6098 6214
6098 6215
6099 6169
6100 6101
6100 6171
6100 6216
6100 6217
6101 6172
6101 6216
6101 6217
6102 6174
6103 6104
6103 6176
6103 6218
6103 6219
6104 6177
6104 6218
6104 6219
6105 6179
6106 6107
6106 6181
6106 6220
6106 6221
6107 6182
6107 6220
6107 6221
6108 6184
6109 6110
6109 6186
6109 6222
6109 6223
6110 6187
6110 6222
6110 6223
6111 6189
6112 6113
6112 6191
6112 6224
6112 6225
6113 6192
6113 6224
6113 6225
6114 6115
6114 6226
6115 6226
6116 6194
6116 6227
6117 6195
6117 6228
6118 6229
6119 6120
6119 6230
6120 6230
6121 6196
6121 6231
6122 6197
6122 6232
6123 6233
6124 6125
6124 6234
6125 6234
6126 6198
6126 6235
6127 6199
6127 6236
6128 6237
6129 6130
6129 6238
6130 6238
6131 6200
6131 6239
6132 6201
6132 6240
6133 6241
6134 6135
6134 6242
6135 6242
6136 6202
6136 6243
6137 6203
6137 6244
6138 6245
6139 6140
6139 6246
6140 6246
6141 6204
6141 6247
6142 6205
6142 6248
6143 6249
6144 6145
6144 6250
6145 6250
6146 6206
6146 6251
6147 6207
6147 6252
6148 6253
6149 6150
6149 6254
6150 6254
6151 6208
6151 6255
6152 6209
6152 6256
6153 6257
6154 6155
6154 6258
6155 6258
6156 6210
6156 6259
6157 6211
6157 6260
6158 6261
6159 6160
6159 6262
6160 6262
6161 6212
6161 6263
6162 6213
6162 6264
6163 6265
6164 6165
6164 6266
6165 6266
6166 6214
6166 6267
6167 6215
6167 6268
6168 6269
6169 6170
6169 6270
6170 6270
6171 6216
6171 6271
6172 6217
6172 6272
6173 6273
6174 6175
6174 6274
6175 6274
6176 6218
6176 6275
6177 6219
6177 6276
6178 6277
6179 6180
6179 6278
6180 6278
6181 6220
6181 6279
6182 6221
6182 6280
6183 6281
6184 6185
6184 6282
6185 6282
6186 6222
6186 6283
6187 6223
6187 6284
6188 6285
6189 6190
6189 6286
6190 6286
6191 6224
6191 6287
6192 6225
6192 6288
6193 6289
6194 6195
6194 6227
6195 6228
6196 6197
6196 6231
6197 6232
6198 6199
6198 6235
6199 6236
6200 6201
6200 6239
6201 6240
6202 6203
6202 6243
6203 6244
6204 6205
6204 6247
6205 6248
6206 6207
6206 6251
6207 6252
6208 6209
6208 6255
6209 6256
6210 6211
6210 6259
6211 6260
6212 6213
6212 6263
6213 6264
6214 6215
6214 6267
6215 6268
6216 6217
6216 6271
6217 6272
6218 6219
6218 6275
6219 6276
6220 6221
6220 6279
6221 6280
6222 6223
6222 6283
6223 6284
6224 6225
6224 6287
6225 6288
6226 6290
6226 6291
6227 6291
6228 6292
6228 6293
6229 6294
6229 6295
6230 6296
6230 6297
6231 6297
6232 6298
6232 6299
6233 6300
6233 6301
6234 6302
6234 6303
6235 6303
6236 6304
6236 6305
6237 6306
6237 6307
6238 6308
6238 6309
6239 6309
6240 6310
6240 6311
6241 6312
6241 6313
6242 6314
6242 6315
6243 6315
6244 6316
6244 6317
6245 6318
6245 6319
6246 6320
6246 6321
6247 6321
6248 6322
6248 6323
6249 6324
6249 6325
6250 6326
6250 6327
6251 6327
6252 6328
6252 6329
6253 6330
6253 6331
6254 6332
6254 6333
6255 6333
6256 6334
6256 6335
6257 6336
6257 6337
6258 6338
6258 6339
6259 6339
6260 6340
6260 6341
6261 6342
6261 6343
6262 6344
6262 6345
6263 6345
6264 6346
6264 6347
6265 6348
6265 6349
6266 6350
6266 6351
6267 6351
6268 6352
6268 6353
6269 6354
6269 6355
6270 6356
6270 6357
6271 6357
6272 6358
6272 6359
6273 6360
6273 6361
6274 6362
6274 6363
6275 6363
6276 6364
6276 6365
6277 6366
6277 6367
6278 6368
6278 6369
6279 6369
6280 6370
6280 6371
6281 6372
6281 6373
6282 6374
6282 6375
6283 6375
6284 6376
6284 6377
6285 6378
6285 6379
6286 6380
6286 6381
6287 6381
6288 6382
6288 6383
6289 6384
6289 6385
6290 6291
6290 6386
6290 6451
6290 6452
6291 6387
6291 6451
6291 6452
6292 6293
6292 6388
6292 6453
6292 6454
6293 6389
6293 6453
6293 6454
6294 6295
6294 6389
6294 6455
6294 6456
6295 6390
6295 6455
6295 6456
6296 6297
6296 6390
6296 6457
6296 6458
6297 6391
6297 6457
6297 6458
6298 6299
6298 6392
6298 6459
6298 6460
6299 6393
6299 6459
6299 6460
6300 6301
6300 6393
6300 6461
6300 6462
6301 6394
6301 6461
6301 6462
6302 6303
6302 6394
6302 6463
6302 6464
6303 6395
6303 6463
6303 6464
6304 6305
6304 6396
6304 6465
6304 6466
6305 6397
6305 6465
6305 6466
6306 6307
6306 6397
6306 6467
6306 6468
6307 6398
6307 6467
6307 6468
6308 6309
6308 6398
6308 6469
6308 6470
6309 6399
6309 6469
6309 6470
6310 6311
6310 6400
6310 6471
6310 6472
6311 6401
6311 6471
6311 6472
6312 6313
6312 6401
6312 6473
6312 6474
6313 6402
6313 6473
6313 6474
6314 6315
6314 6402
6314 6475
6314 6476
6315 6403
6315 6475
6315 6476
6316 6317
6316 6404
6316 6477
6316 6478
6317 6405
6317 6477
6317 6478
6318 6319
6318 6405
6318 6479
6318 6480
6319 6406
6319 6479
6319 6480
6320 6321
6320 6406
6320 6481
6320 6482
6321 6407
6321 6481
6321 6482
6322 6323
6322 6408
6322 6483
6322 6484
6323 6409
6323 6483
6323 6484
6324 6325
6324 6409
6324 6485
6324 6486
6325 6410
6325 6485
6325 6486
6326 6327
6326 6410
6326 6487
6326 6488
6327 6411
6327 6487
6327 6488
6328 6329
6328 6412
6328 6489
6328 6490
6329 6413
6329 6489
6329 6490
6330 6331
6330 6413
6330 6491
6330 6492
6331 6414
6331 6491
6331 6492
6332 6333
6332 6414
6332 6493
6332 6494
6333 6415
6333 6493
6333 6494
6334 6335
6334 6416
6334 6495
6334 6496
6335 6417
6335 6495
6335 6496
6336 6337
6336 6417
6336 6497
6336 6498
6337 6418
6337 6497
6337 6498
6338 6339
6338 6418
6338 6499
6338 6500
6339 6419
6339 6499
6339 6500
6340 6341
6340 6420
6340 6501
6340 6502
6341 6421
6341 6501
6341 6502
6342 6343
6342 6421
6342 6503
6342 6504
6343 6422
6343 6503
6343 6504
6344 6345
6344 6422
6344 6505
6344 6506
6345 6423
6345 6505
6345 6506
6346 6347
6346 6424
6346 6507
6346 6508
6347 6425
6347 6507
6347 6508
6348 6349
6348 6425
6348 6509
6348 6510
6349 6426
6349 6509
6349 6510
6350 6351
6350 6426
6350 6511
6350 6512
6351 6427
6351 6511
6351 6512
6352 6353
6352 6428
6352 6513
6352 6514
6353 6429
6353 6513
6353 6514
6354 6355
6354 6429
6354 6515
6354 6516
6355 6430
6355 6515
6355 6516
6356 6357
6356 6430
6356 6517
6356 6518
6357 6431
6357 6517
6357 6518
6358 6359
6358 6432
6358 6519
6358 6520
6359 6433
6359 6519
6359 6520
6360 6361
6360 6433
6360 6521
6360 6522
6361 6434
6361 6521
6361 6522
6362 6363
6362 6434
6362 6523
6362 6524
6363 6435
6363 6523
6363 6524
6364 6365
6364 6436
6364 6525
6364 6526
6365 6437
6365 6525
6365 6526
6366 6367
6366 6437
6366 6527
6366 6528
6367 6438
6367 6527
6367 6528
6368 6369
6368 6438
6368 6529
6368 6530
6369 6439
6369 6529
6369 6530
6370 6371
6370 6440
6370 6531
6370 6532
6371 6441
6371 6531
6371 6532
6372 6373
6372 6441
6372 6533
6372 6534
6373 6442
6373 6533
6373 6534
6374 6375
6374 6442
6374 6535
6374 6536
6375 6443
6375 6535
6375 6536
6376 6377
6376 6444
6376 6537
6376 6538
6377 6445
6377 6537
6377 6538
6378 6379
6378 6445
6378 6539
6378 6540
6379 6446
6379 6539
6379 6540
6380 6381
6380 6446
6380 6541
6380 6542
6381 6447
6381 6541
6381 6542
6382 6383
6382 6448
6382 6543
6382 6544
6383 6449
6383 6543
6383 6544
6384 6385
6384 6449
6384 6545
6384 6546
6385 6450
6385 6545
6385 6546
6386 6451
6387 6388
6387 6452
6388 6453
6389 6454
6389 6455
6390 6456
6390 6457
6391 6392
6391 6458
6392 6459
6393 6460
6393 6461
6394 6462
6394 6463
6395 6396
6395 6464
6396 6465
6397 6466
6397 6467
6398 6468
6398 6469
6399 6400
6399 6470
6400 6471
6401 6472
6401 6473
6402 6474
6402 6475
6403 6404
6403 6476
6404 6477
6405 6478
6405 6479
6406 6480
6406 6481
6407 6408
6407 6482
6408 6483
6409 6484
6409 6485
6410 6486
6410 6487
6411 6412
6411 6488
6412 6489
6413 6490
6413 6491
6414 6492
6414 6493
6415 6416
6415 6494
6416 6495
6417 6496
6417 6497
6418 6498
6418 6499
6419 6420
6419 6500
6420 6501
6421 6502
6421 6503
6422 6504
6422 6505
6423 6424
6423 6506
6424 6507
6425 6508
6425 6509
6426 6510
6426 6511
6427 6428
6427 6512
6428 6513
6429 6514
6429 6515
6430 6516
6430 6517
6431 6432
6431 6518
6432 6519
6433 6520
6433 6521
6434 6522
6434 6523
6435 6436
6435 6524
6436 6525
6437 6526
6437 6527
6438 6528
6438 6529
6439 6440
6439 6530
6440 6531
6441 6532
6441 6533
6442 6534
6442 6535
6443 6444
6443 6536
6444 6537
6445 6538
6445 6539
6446 6540
6446 6541
6447 6448
6447 6542
6448 6543
6449 6544
6449 6545
6450 6546
6451 6452
6451 6547
6452 6547
6453 6454
6453 6548
6454 6548
6455 6456
6455 6549
6456 6549
6457 6458
6457 6550
6458 6550
6459 6460
6459 6551
6460 6551
6461 6462
6461 6552
6462 6552
6463 6464
6463 6553
6464 6553
6465 6466
6465 6554
6466 6554
6467 6468
6467 6555
6468 6555
6469 6470
6469 6556
6470 6556
6471 6472
6471 6557
6472 6557
6473 6474
6473 6558
6474 6558
6475 6476
6475 6559
6476 6559
6477 6478
6477 6560
6478 6560
6479 6480
6479 6561
6480 6561
6481 6482
6481 6562
6482 6562
6483 6484
6483 6563
6484 6563
6485 6486
6485 6564
6486 6564
6487 6488
6487 6565
6488 6565
6489 6490
6489 6566
6490 6566
6491 6492
6491 6567
6492 6567
6493 6494
6493 6568
6494 6568
6495 6496
6495 6569
6496 6569
6497 6498
6497 6570
6498 6570
6499 6500
6499 6571
6500 6571
6501 6502
6501 6572
6502 6572
6503 6504
6503 6573
6504 6573
6505 6506
6505 6574
6506 6574
6507 6508
6507 6575
6508 6575
6509 6510
6509 6576
6510 6576
6511 6512
6511 6577
6512 6577
6513 6514
6513 6578
6514 6578
6515 6516
6515 6579
6516 6579
6517 6518
6517 6580
6518 6580
6519 6520
6519 6581
6520 6581
6521 6522
6521 6582
6522 6582
6523 6524
6523 6583
6524 6583
6525 6526
6525 6584
6526 6584
6527 6528
6527 6585
6528 6585
6529 6530
6529 6586
6530 6586
6531 6532
6531 6587
6532 6587
6533 6534
6533 6588
6534 6588
6535 6536
6535 6589
6536 6589
6537 6538
6537 6590
6538 6590
6539 6540
6539 6591
6540 6591
6541 6542
6541 6592
6542 6592
6543 6544
6543 6593
6544 6593
6545 6546
6547 6594
6547 6595
6548 6659
6548 6660
6549 6661
6550 6598
6550 6599
6551 6662
6551 6663
6552 6664
6553 6602
6553 6603
6554 6665
6554 6666
6555 6667
6556 6606
6556 6607
6557 6668
6557 6669
6558 6670
6559 6610
6559 6611
6560 6671
6560 6672
6561 6673
6562 6614
6562 6615
6563 6674
6563 6675
6564 6676
6565 6618
6565 6619
6566 6677
6566 6678
6567 6679
6568 6622
6568 6623
6569 6680
6569 6681
6570 6682
6571 6626
6571 6627
6572 6683
6572 6684
6573 6685
6574 6630
6574 6631
6575 6686
6575 6687
6576 6688
6577 6634
6577 6635
6578 6689
6578 6690
6579 6691
6580 6638
6580 6639
6581 6692
6581 6693
6582 6694
6583 6642
6583 6643
6584 6695
6584 6696
6585 6697
6586 6646
6586 6647
6587 6698
6587 6699
6588 6700
6589 6650
6589 6651
6590 6701
6590 6702
6591 6703
6592 6654
6592 6655
6593 6704
6593 6705
6594 6595
6594 6658
6594 6706
6594 6707
6595 6596
6595 6706
6595 6707
6596 6659
6596 6707
6596 6708
6597 6660
6597 6709
6597 6710
6598 6599
6598 6661
6598 6711
6598 6712
6599 6600
6599 6711
6599 6712
6600 6662
6600 6712
6600 6713
6601 6663
6601 6714
6601 6715
6602 6603
6602 6664
6602 6716
6602 6717
6603 6604
6603 6716
6603 6717
6604 6665
6604 6717
6604 6718
6605 6666
6605 6719
6605 6720
6606 6607
6606 6667
6606 6721
6606 6722
6607 6608
6607 6721
6607 6722
6608 6668
6608 6722
6608 6723
6609 6669
6609 6724
6609 6725
6610 6611
6610 6670
6610 6726
6610 6727
6611 6612
6611 6726
6611 6727
6612 6671
6612 6727
6612 6728
6613 6672
6613 6729
6613 6730
6614 6615
6614 6673
6614 6731
6614 6732
6615 6616
6615 6731
6615 6732
6616 6674
6616 6732
6616 6733
6617 6675
6617 6734
6617 6735
6618 6619
6618 6676
6618 6736
6618 6737
6619 6620
6619 6736
6619 6737
6620 6677
6620 6737
6620 6738
6621 6678
6621 6739
6621 6740
6622 6623
6622 6679
6622 6741
6622 6742
6623 6624
6623 6741
6623 6742
6624 6680
6624 6742
6624 6743
6625 6681
6625 6744
6625 6745
6626 6627
6626 6682
6626 6746
6626 6747
6627 6628
6627 6746
6627 6747
6628 6683
6628 6747
6628 6748
6629 6684
6629 6749
6629 6750
6630 6631
6630 6685
6630 6751
6630 6752
6631 6632
6631 6751
6631 6752
6632 6686
6632 6752
6632 6753
6633 6687
6633 6754
6633 6755
6634 6635
6634 6688
6634 6756
6634 6757
6635 6636
6635 6756
6635 6757
6636 6689
6636 6757
6636 6758
6637 6690
6637 6759
6637 6760
6638 6639
6638 6691
6638 6761
6638 6762
6639 6640
6639 6761
6639 6762
6640 6692
6640 6762
6640 6763
6641 6693
6641 6764
6641 6765
6642 6643
6642 6694
6642 6766
6642 6767
6643 6644
6643 6766
6643 6767
6644 6695
6644 6767
6644 6768
6645 6696
6645 6769
6645 6770
6646 6647
6646 6697
6646 6771
6646 6772
6647 6648
6647 6771
6647 6772
6648 6698
6648 6772
6648 6773
6649 6699
6649 6774
6649 6775
6650 6651
6650 6700
6650 6776
6650 6777
6651 6652
6651 6776
6651 6777
6652 6701
6652 6777
6652 6778
6653 6702
6653 6779
6653 6780
6654 6655
6654 6703
6654 6781
6654 6782
6655 6656
6655 6781
6655 6782
6656 6704
6656 6782
6656 6783
6657 6705
6657 6784
6657 6785
6658 6706
6659 6660
6659 6708
6659 6786
6659 6787
6660 6709
6660 6786
6660 6787
6661 6711
6662 6663
6662 6713
6662 6788
6662 6789
6663 6714
6663 6788
6663 6789
6664 6716
6665 6666
6665 6718
6665 6790
6665 6791
6666 6719
6666 6790
6666 6791
6667 6721
6668 6669
6668 6723
6668 6792
6668 6793
6669 6724
6669 6792
6669 6793
6670 6726
6671 6672
6671 6728
6671 6794
6671 6795
6672 6729
6672 6794
6672 6795
6673 6731
6674 6675
6674 6733
6674 6796
6674 6797
6675 6734
6675 6796
6675 6797
6676 6736
6677 6678
6677 6738
6677 6798
6677 6799
6678 6739
6678 6798
6678 6799
6679 6741
6680 6681
6680 6743
6680 6800
6680 6801
6681 6744
6681 6800
6681 6801
6682 6746
6683 6684
6683 6748
6683 6802
6683 6803
6684 6749
6684 6802
6684 6803
6685 6751
6686 6687
6686 6753
6686 6804
6686 6805
6687 6754
6687 6804
6687 6805
6688 6756
6689 6690
6689 6758
6689 6806
6689 6807
6690 6759
6690 6806
6690 6807
6691 6761
6692 6693
6692 6763
6692 6808
6692 6809
6693 6764
6693 6808
6693 6809
6694 6766
6695 6696
6695 6768
6695 6810
6695 6811
6696 6769
6696 6810
6696 6811
6697 6771
6698 6699
6698 6773
6698 6812
6698 6813
6699 6774
6699 6812
6699 6813
6700 6776
6701 6702
6701 6778
6701 6814
6701 6815
6702 6779
6702 6814
6702 6815
6703 6781
6704 6705
6704 6783
6704 6816
6704 6817
6705 6784
6705 6816
6705 6817
6706 6707
6706 6818
6707 6818
6708 6786
6708 6819
6709 6787
6709 6820
6710 6821
6711 6712
6711 6822
6712 6822
6713 6788
6713 6823
6714 6789
6714 6824
6715 6825
6716 6717
6716 6826
6717 6826
6718 6790
6718 6827
6719 6791
6719 6828
6720 6829
6721 6722
6721 6830
6722 6830
6723 6792
6723 6831
6724 6793
6724 6832
6725 6833
6726 6727
6726 6834
6727 6834
6728 6794
6728 6835
6729 6795
6729 6836
6730 6837
6731 6732
6731 6838
6732 6838
6733 6796
6733 6839
6734 6797
6734 6840
6735 6841
6736 6737
6736 6842
6737 6842
6738 6798
6738 6843
6739 6799
6739 6844
6740 6845
6741 6742
6741 6846
6742 6846
6743 6800
6743 6847
6744 6801
6744 6848
6745 6849
6746 6747
6746 6850
6747 6850
6748 6802
6748 6851
6749 6803
6749 6852
6750 6853
6751 6752
6751 6854
6752 6854
6753 6804
6753 6855
6754 6805
6754 6856
6755 6857
6756 6757
6756 6858
6757 6858
6758 6806
6758 6859
6759 6807
6759 6860
6760 6861
6761 6762
6761 6862
6762 6862
6763 6808
6763 6863
6764 6809
6764 6864
6765 6865
6766 6767
6766 6866
6767 6866
6768 6810
6768 6867
6769 6811
6769 6868
6770 6869
6771 6772
6771 6870
6772 6870
6773 6812
6773 6871
6774 6813
6774 6872
6775 6873
6776 6777
6776 6874
6777 6874
6778 6814
6778 6875
6779 6815
6779 6876
6780 6877
6781 6782
6781 6878
6782 6878
6783 6816
6783 6879
6784 6817
6784 6880
6785 6881
6786 6787
6786 6819
6787 6820
6788 6789
6788 6823
6789 6824
6790 6791
6790 6827
6791 6828
6792 6793
6792 6831
6793 6832
6794 6795
6794 6835
6795 6836
6796 6797
6796 6839
6797 6840
6798 6799
6798 6843
6799 6844
6800 6801
6800 6847
6801 6848
6802 6803
6802 6851
6803 6852
6804 6805
6804 6855
6805 6856
6806 6807
6806 6859
6807 6860
6808 6809
6808 6863
6809 6864
6810 6811
6810 6867
6811 6868
6812 6813
6812 6871
6813 6872
6814 6815
6814 6875
6815 6876
6816 6817
6816 6879
6817 6880
6818 6882
6818 6883
6819 6883
6820 6884
6820 6885
6821 6886
6821 6887
6822 6888
6822 6889
6823 6889
6824 6890
6824 6891
6825 6892
6825 6893
6826 6894
6826 6895
6827 6895
6828 6896
6828 6897
6829 6898
6829 6899
6830 6900
6830 6901
6831 6901
6832 6902
6832 6903
6833 6904
6833 6905
6834 6906
6834 6907
6835 6907
6836 6908
6836 6909
6837 6910
6837 6911
6838 6912
6838 6913
6839 6913
6840 6914
6840 6915
6841 6916
6841 6917
6842 6918
6842 6919
6843 6919
6844 6920
6844 6921
6845 6922
6845 6923
6846 6924
6846 6925
6847 6925
6848 6926
6848 6927
6849 6928
6849 6929
6850 6930
6850 6931
6851 6931
6852 6932
6852 6933
6853 6934
6853 6935
6854 6936
6854 6937
6855 6937
6856 6938
6856 6939
6857 6940
6857 6941
6858 6942
6858 6943
6859 6943
6860 6944
6860 6945
6861 6946
6861 6947
6862 6948
6862 6949
6863 6949
6864 6950
6864 6951
6865 6952
6865 6953
6866 6954
6866 6955
6867 6955
6868 6956
6868 6957
6869 6958
6869 6959
6870 6960
6870 6961
6871 6961
6872 6962
6872 6963
6873 6964
6873 6965
6874 6966
6874 6967
6875 6967
6876 6968
6876 6969
6877 6970
6877 6971
6878 6972
6878 6973
6879 6973
6880 6974
6880 6975
6881 6976
6881 6977
6882 6883
6882 6978
6882 7043
6882 7044
6883 6979
6883 7043
6883 7044
6884 6885
6884 6980
6884 7045
6884 7046
6885 6981
6885 7045
6885 7046
6886 6887
6886 6981
6886 7047
6886 7048
6887 6982
6887 7047
6887 7048
6888 6889
6888 6982
6888 7049
6888 7050
6889 6983
6889 7049
6889 7050
6890 6891
6890 6984
6890 7051
6890 7052
6891 6985
6891 7051
6891 7052
6892 6893
6892 6985
6892 7053
6892 7054
6893 6986
6893 7053
6893 7054
6894 6895
6894 6986
6894 7055
6894 7056
6895 6987
6895 7055
6895 7056
6896 6897
6896 6988
6896 7057
6896 7058
6897 6989
6897 7057
6897 7058
6898 6899
6898 6989
6898 7059
6898 7060
6899 6990
6899 7059
6899 7060
6900 6901
6900 6990
6900 7061
6900 7062
6901 6991
6901 7061
6901 7062
6902 6903
6902 6992
6902 7063
6902 7064
6903 6993
6903 7063
6903 7064
6904 6905
6904 6993
6904 7065
6904 7066
6905 6994
6905 7065
6905 7066
6906 6907
6906 6994
6906 7067
6906 7068
6907 6995
6907 7067
6907 7068
6908 6909
6908 6996
6908 7069
6908 7070
6909 6997
6909 7069
6909 7070
6910 6911
6910 6997
6910 7071
6910 7072
6911 6998
6911 7071
6911 7072
6912 6913
6912 6998
6912 7073
6912 7074
6913 6999
6913 7073
6913 7074
6914 6915
6914 7000
6914 7075
6914 7076
6915 7001
6915 7075
6915 7076
6916 6917
6916 7001
6916 7077
6916 7078
6917 7002
6917 7077
6917 7078
6918 6919
6918 7002
6918 7079
6918 7080
6919 7003
6919 7079
6919 7080
6920 6921
6920 7004
6920 7081
6920 7082
6921 7005
6921 7081
6921 7082
6922 6923
6922 7005
6922 7083
6922 7084
6923 7006
6923 7083
6923 7084
6924 6925
6924 7006
6924 7085
6924 7086
6925 7007
6925 7085
6925 7086
6926 6927
6926 7008
6926 7087
6926 7088
6927 7009
6927 7087
6927 7088
6928 6929
6928 7009
6928 7089
6928 7090
6929 7010
6929 7089
6929 7090
6930 6931
6930 7010
6930 7091
6930 7092
6931 7011
6931 7091
6931 7092
6932 6933
6932 7012
6932 7093
6932 7094
6933 7013
6933 7093
6933 7094
6934 6935
6934 7013
6934 7095
6934 7096
6935 7014
6935 7095
6935 7096
6936 6937
6936 7014
6936 7097
6936 7098
6937 7015
6937 7097
6937 7098
6938 6939
6938 7016
6938 7099
6938 7100
6939 7017
6939 7099
6939 7100
6940 6941
6940 7017
6940 7101
6940 7102
6941 7018
6941 7101
6941 7102
6942 6943
6942 7018
6942 7103
6942 7104
6943 7019
6943 7103
6943 7104
6944 6945
6944 7020
6944 7105
6944 7106
6945 7021
6945 7105
6945 7106
6946 6947
6946 7021
6946 7107
6946 7108
6947 7022
6947 7107
6947 7108
6948 6949
6948 7022
6948 7109
6948 7110
6949 7023
6949 7109
6949 7110
6950 6951
6950 7024
6950 7111
6950 7112
6951 7025
6951 7111
6951 7112
6952 6953
6952 7025
6952 7113
6952 7114
6953 7026
6953 7113
6953 7114
6954 6955
6954 7026
6954 7115
6954 7116
6955 7027
6955 7115
6955 7116
6956 6957
6956 7028
6956 7117
6956 7118
6957 7029
6957 7117
6957 7118
6958 6959
6958 7029
6958 7119
6958 7120
6959 7030
6959 7119
6959 7120
6960 6961
6960 7030
6960 7121
6960 7122
6961 7031
6961 7121
6961 7122
6962 6963
6962 7032
6962 7123
6962 7124
6963 7033
6963 7123
6963 7124
6964 6965
6964 7033
6964 7125
6964 7126
6965 7034
6965 7125
6965 7126
6966 6967
6966 7034
6966 7127
6966 7128
6967 7035
6967 7127
6967 7128
6968 6969
6968 7036
6968 7129
6968 7130
6969 7037
6969 7129
6969 7130
6970 6971
6970 7037
6970 7131
6970 7132
6971 7038
6971 7131
6971 7132
6972 6973
6972 7038
6972 7133
6972 7134
6973 7039
6973 7133
6973 7134
6974 6975
6974 7040
6974 7135
6974 7136
6975 7041
6975 7135
6975 7136
6976 6977
6976 7041
6977 7042
6978 7043
6979 6980
6979 7044
6980 7045
6981 7046
6981 7047
6982 7048
6982 7049
6983 6984
6983 7050
6984 7051
6985 7052
6985 7053
6986 7054
6986 7055
6987 6988
6987 7056
6988 7057
6989 7058
6989 7059
6990 7060
6990 7061
6991 6992
6991 7062
6992 7063
6993 7064
6993 7065
6994 7066
6994 7067
6995 6996
6995 7068
6996 7069
6997 7070
6997 7071
6998 7072
6998 7073
6999 7000
6999 7074
7000 7075
7001 7076
7001 7077
7002 7078
7002 7079
7003 7004
7003 7080
7004 7081
7005 7082
7005 7083
7006 7084
7006 7085
7007 7008
7007 7086
7008 7087
7009 7088
7009 7089
7010 7090
7010 7091
7011 7012
7011 7092
7012 7093
7013 7094
7013 7095
7014 7096
7014 7097
7015 7016
7015 7098
7016 7099
7017 7100
7017 7101
7018 7102
7018 7103
7019 7020
7019 7104
7020 7105
7021 7106
7021 7107
7022 7108
7022 7109
7023 7024
7023 7110
7024 7111
7025 7112
7025 7113
7026 7114
7026 7115
7027 7028
7027 7116
7028 7117
7029 7118
7029 7119
7030 7120
7030 7121
7031 7032
7031 7122
7032 7123
7033 7124
7033 7125
7034 7126
7034 7127
7035 7036
7035 7128
7036 7129
7037 7130
7037 7131
7038 7132
7038 7133
7039 7040
7039 7134
7040 7135
7041 7136
7043 7044
7043 7137
7044 7137
7045 7046
7045 7138
7046 7138
7047 7048
7047 7139
7048 7139
7049 7050
7049 7140
7050 7140
7051 7052
7051 7141
7052 7141
7053 7054
7053 7142
7054 7142
7055 7056
7055 7143
7056 7143
7057 7058
7057 7144
7058 7144
7059 7060
7059 7145
7060 7145
7061 7062
7061 7146
7062 7146
7063 7064
7063 7147
7064 7147
7065 7066
7065 7148
7066 7148
7067 7068
7067 7149
7068 7149
7069 7070
7069 7150
7070 7150
7071 7072
7071 7151
7072 7151
7073 7074
7073 7152
7074 7152
7075 7076
7075 7153
7076 7153
7077 7078
7077 7154
7078 7154
7079 7080
7079 7155
7080 7155
7081 7082
7081 7156
7082 7156
7083 7084
7083 7157
7084 7157
7085 7086
7085 7158
7086 7158
7087 7088
7087 7159
7088 7159
7089 7090
7089 7160
7090 7160
7091 7092
7091 7161
7092 7161
7093 7094
7093 7162
7094 7162
7095 7096
7095 7163
7096 7163
7097 7098
7097 7164
7098 7164
7099 7100
7099 7165
7100 7165
7101 7102
7101 7166
7102 7166
7103 7104
7103 7167
7104 7167
7105 7106
7105 7168
7106 7168
7107 7108
7107 7169
7108 7169
7109 7110
7109 7170
7110 7170
7111 7112
7111 7171
7112 7171
7113 7114
7113 7172
7114 7172
7115 7116
7115 7173
7116 7173
7117 7118
7117 7174
7118 7174
7119 7120
7119 7175
7120 7175
7121 7122
7121 7176
7122 7176
7123 7124
7123 7177
7124 7177
7125 7126
7125 7178
7126 7178
7127 7128
7127 7179
7128 7179
7129 7130
7129 7180
7130 7180
7131 7132
7131 7181
7132 7181
7133 7134
7133 7182
7134 7182
7135 7136
7135 7183
7136 7183
7137 7184
7137 7185
7138 7249
7138 7250
7139 7251
7140 7188
7140 7189
7141 7252
7141 7253
7142 7254
7143 7192
7143 7193
7144 7255
7144 7256
7145 7257
7146 7196
7146 7197
7147 7258
7147 7259
7148 7260
7149 7200
7149 7201
7150 7261
7150 7262
7151 7263
7152 7204
7152 7205
7153 7264
7153 7265
7154 7266
7155 7208
7155 7209
7156 7267
7156 7268
7157 7269
7158 7212
7158 7213
7159 7270
7159 7271
7160 7272
7161 7216
7161 7217
7162 7273
7162 7274
7163 7275
7164 7220
7164 7221
7165 7276
7165 7277
7166 7278
7167 7224
7167 7225
7168 7279
7168 7280
7169 7281
7170 7228
7170 7229
7171 7282
7171 7283
7172 7284
7173 7232
7173 7233
7174 7285
7174 7286
7175 7287
7176 7236
7176 7237
7177 7288
7177 7289
7178 7290
7179 7240
7179 7241
7180 7291
7180 7292
7181 7293
7182 7244
7182 7245
7183 7294
7183 7295
7184 7185
7184 7248
7184 7296
7184 7297
7185 7186
7185 7296
7185 7297
7186 7249
7186 7297
7186 7298
7187 7250
7187 7299
7187 7300
7188 7189
7188 7251
7188 7301
7188 7302
7189 7190
7189 7301
7189 7302
7190 7252
7190 7302
7190 7303
7191 7253
7191 7304
7191 7305
7192 7193
7192 7254
7192 7306
7192 7307
7193 7194
7193 7306
7193 7307
7194 7255
7194 7307
7194 7308
7195 7256
7195 7309
7195 7310
7196 7197
7196 7257
7196 7311
7196 7312
7197 7198
7197 7311
7197 7312
7198 7258
7198 7312
7198 7313
7199 7259
7199 7314
7199 7315
7200 7201
7200 7260
7200 7316
7200 7317
7201 7202
7201 7316
7201 7317
7202 7261
7202 7317
7202 7318
7203 7262
7203 7319
7203 7320
7204 7205
7204 7263
7204 7321
7204 7322
7205 7206
7205 7321
7205 7322
7206 7264
7206 7322
7206 7323
7207 7265
7207 7324
7207 7325
7208 7209
7208 7266
7208 7326
7208 7327
7209 7210
7209 7326
7209 7327
7210 7267
7210 7327
7210 7328
7211 7268
7211 7329
7211 7330
7212 7213
7212 7269
7212 7331
7212 7332
7213 7214
7213 7331
7213 7332
7214 7270
7214 7332
7214 7333
7215 7271
7215 7334
7215 7335
7216 7217
7216 7272
7216 7336
7216 7337
7217 7218
7217 7336
7217 7337
7218 7273
7218 7337
7218 7338
7219 7274
7219 7339
7219 7340
7220 7221
7220 7275
7220 7341
7220 7342
7221 7222
7221 7341
7221 7342
7222 7276
7222 7342
7222 7343
7223 7277
7223 7344
7223 7345
7224 7225
7224 7278
7224 7346
7224 7347
7225 7226
7225 7346
7225 7347
7226 7279
7226 7347
7226 7348
7227 7280
7227 7349
7227 7350
7228 7229
7228 7281
7228 7351
7228 7352
7229 7230
7229 7351
7229 7352
7230 7282
7230 7352
7230 7353
7231 7283
7231 7354
7231 7355
7232 7233
7232 7284
7232 7356
7232 7357
7233 7234
7233 7356
7233 7357
7234 7285
7234 7357
7234 7358
7235 7286
7235 7359
7235 7360
7236 7237
7236 7287
7236 7361
7236 7362
7237 7238
7237 7361
7237 7362
7238 7288
7238 7362
7238 7363
7239 7289
7239 7364
7239 7365
7240 7241
7240 7290
7240 7366
7240 7367
7241 7242
7241 7366
7241 7367
7242 7291
7242 7367
7242 7368
7243 7292
7243 7369
7243 7370
7244 7245
7244 7293
7244 7371
7244 7372
7245 7246
7245 7371
7245 7372
7246 7294
7246 7372
7246 7373
7247 7295
7247 7374
7247 7375
7248 7296
7249 7250
7249 7298
7249 7376
7249 7377
7250 7299
7250 7376
7250 7377
7251 7301
7252 7253
7252 7303
7252 7378
7252 7379
7253 7304
7253 7378
7253 7379
7254 7306
7255 7256
7255 7308
7255 7380
7255 7381
7256 7309
7256 7380
7256 7381
7257 7311
7258 7259
7258 7313
7258 7382
7258 7383
7259 7314
7259 7382
7259 7383
7260 7316
7261 7262
7261 7318
7261 7384
7261 7385
7262 7319
7262 7384
7262 7385
7263 7321
7264 7265
7264 7323
7264 7386
7264 7387
7265 7324
7265 7386
7265 7387
7266 7326
7267 7268
7267 7328
7267 7388
7267 7389
7268 7329
7268 7388
7268 7389
7269 7331
7270 7271
7270 7333
7270 7390
7270 7391
7271 7334
7271 7390
7271 7391
7272 7336
7273 7274
7273 7338
7273 7392
7273 7393
7274 7339
7274 7392
7274 7393
7275 7341
7276 7277
7276 7343
7276 7394
7276 7395
7277 7344
7277 7394
7277 7395
7278 7346
7279 7280
7279 7348
7279 7396
7279 7397
7280 7349
7280 7396
7280 7397
7281 7351
7282 7283
7282 7353
7282 7398
7282 7399
7283 7354
7283 7398
7283 7399
7284 7356
7285 7286
7285 7358
7285 7400
7285 7401
7286 7359
7286 7400
7286 7401
7287 7361
7288 7289
7288 7363
7288 7402
7288 7403
7289 7364
7289 7402
7289 7403
7290 7366
7291 7292
7291 7368
7291 7404
7291 7405
7292 7369
7292 7404
7292 7405
7293 7371
7294 7295
7294 7373
7294 7406
7294 7407
7295 7374
7295 7406
7295 7407
7296 7297
7296 7408
7297 7408
7298 7376
7298 7409
7299 7377
7299 7410
7300 7411
7301 7302
7301 7412
7302 7412
7303 7378
7303 7413
7304 7379
7304 7414
7305 7415
7306 7307
7306 7416
7307 7416
7308 7380
7308 7417
7309 7381
7309 7418
7310 7419
7311 7312
7311 7420
7312 7420
7313 7382
7313 7421
7314 7383
7314 7422
7315 7423
7316 7317
7316 7424
7317 7424
7318 7384
7318 7425
7319 7385
7319 7426
7320 7427
7321 7322
7321 7428
7322 7428
7323 7386
7323 7429
7324 7387
7324 7430
7325 7431
7326 7327
7326 7432
7327 7432
7328 7388
7328 7433
7329 7389
7329 7434
7330 7435
7331 7332
7331 7436
7332 7436
7333 7390
7333 7437
7334 7391
7334 7438
7335 7439
7336 7337
7336 7440
7337 7440
7338 7392
7338 7441
7339 7393
7339 7442
7340 7443
7341 7342
7341 7444
7342 7444
7343 7394
7343 7445
7344 7395
7344 7446
7345 7447
7346 7347
7346 7448
7347 7448
7348 7396
7348 7449
7349 7397
7349 7450
7350 7451
7351 7352
7351 7452
7352 7452
7353 7398
7353 7453
7354 7399
7354 7454
7355 7455
7356 7357
7356 7456
7357 7456
7358 7400
7358 7457
7359 7401
7359 7458
7360 7459
7361 7362
7361 7460
7362 7460
7363 7402
7363 7461
7364 7403
7364 7462
7365 7463
7366 7367
7366 7464
7367 7464
7368 7404
7368 7465
7369 7405
7369 7466
7370 7467
7371 7372
7371 7468
7372 7468
7373 7406
7373 7469
7374 7407
7374 7470
7375 7471
7376 7377
7376 7409
7377 7410
7378 7379
7378 7413
7379 7414
7380 7381
7380 7417
7381 7418
7382 7383
7382 7421
7383 7422
7384 7385
7384 7425
7385 7426
7386 7387
7386 7429
7387 7430
7388 7389
7388 7433
7389 7434
7390 7391
7390 7437
7391 7438
7392 7393
7392 7441
7393 7442
7394 7395
7394 7445
7395 7446
7396 7397
7396 7449
7397 7450
7398 7399
7398 7453
7399 7454
7400 7401
7400 7457
7401 7458
7402 7403
7402 7461
7403 7462
7404 7405
7404 7465
7405 7466
7406 7407
7406 7469
7407 7470
7408 7472
7408 7473
7409 7473
7410 7474
7410 7475
7411 7476
7411 7477
7412 7478
7412 7479
7413 7479
7414 7480
7414 7481
7415 7482
7415 7483
7416 7484
7416 7485
7417 7485
7418 7486
7418 7487
7419 7488
7419 7489
7420 7490
7420 7491
7421 7491
7422 7492
7422 7493
7423 7494
7423 7495
7424 7496
7424 7497
7425 7497
7426 7498
7426 7499
7427 7500
7427 7501
7428 7502
7428 7503
7429 7503
7430 7504
7430 7505
7431 7506
7431 7507
7432 7508
7432 7509
7433 7509
7434 7510
7434 7511
7435 7512
7435 7513
7436 7514
7436 7515
7437 7515
7438 7516
7438 7517
7439 7518
7439 7519
7440 7520
7440 7521
7441 7521
7442 7522
7442 7523
7443 7524
7443 7525
7444 7526
7444 7527
7445 7527
7446 7528
7446 7529
7447 7530
7447 7531
7448 7532
7448 7533
7449 7533
7450 7534
7450 7535
7451 7536
7451 7537
7452 7538
7452 7539
7453 7539
7454 7540
7454 7541
7455 7542
7455 7543
7456 7544
7456 7545
7457 7545
7458 7546
7458 7547
7459 7548
7459 7549
7460 7550
7460 7551
7461 7551
7462 7552
7462 7553
7463 7554
7463 7555
7464 7556
7464 7557
7465 7557
7466 7558
7466 7559
7467 7560
7467 7561
7468 7562
7468 7563
7469 7563
7470 7564
7470 7565
7471 7566
7471 7567
7472 7473
7472 7568
7472 7633
7472 7634
7473 7569
7473 7633
7473 7634
7474 7475
7474 7570
7474 7635
7474 7636
7475 7571
7475 7635
7475 7636
7476 7477
7476 7571
7476 7637
7476 7638
7477 7572
7477 7637
7477 7638
7478 7479
7478 7572
7478 7639
7478 7640
7479 7573
7479 7639
7479 7640
7480 7481
7480 7574
7480 7641
7480 7642
7481 7575
7481 7641
7481 7642
7482 7483
7482 7575
7482 7643
7482 7644
7483 7576
7483 7643
7483 7644
7484 7485
7484 7576
7484 7645
7484 7646
7485 7577
7485 7645
7485 7646
7486 7487
7486 7578
7486 7647
7486 7648
7487 7579
7487 7647
7487 7648
7488 7489
7488 7579
7488 7649
7488 7650
7489 7580
7489 7649
7489 7650
7490 7491
7490 7580
7490 7651
7490 7652
7491 7581
7491 7651
7491 7652
7492 7493
7492 7582
7492 7653
7492 7654
7493 7583
7493 7653
7493 7654
7494 7495
7494 7583
7494 7655
7494 7656
7495 7584
7495 7655
7495 7656
7496 7497
7496 7584
7496 7657
7496 7658
7497 7585
7497 7657
7497 7658
7498 7499
7498 7586
7498 7659
7498 7660
7499 7587
7499 7659
7499 7660
7500 7501
7500 7587
7500 7661
7500 7662
7501 7588
7501 7661
7501 7662
7502 7503
7502 7588
7502 7663
7502 7664
7503 7589
7503 7663
7503 7664
7504 7505
7504 7590
7504 7665
7504 7666
7505 7591
7505 7665
7505 7666
7506 7507
7506 7591
7506 7667
7506 7668
7507 7592
7507 7667
7507 7668
7508 7509
7508 7592
7508 7669
7508 7670
7509 7593
7509 7669
7509 7670
7510 7511
7510 7594
7510 7671
7510 7672
7511 7595
7511 7671
7511 7672
7512 7513
7512 7595
7512 7673
7512 7674
7513 7596
7513 7673
7513 7674
7514 7515
7514 7596
7514 7675
7514 7676
7515 7597
7515 7675
7515 7676
7516 7517
7516 7598
7516 7677
7516 7678
7517 7599
7517 7677
7517 7678
7518 7519
7518 7599
7518 7679
7518 7680
7519 7600
7519 7679
7519 7680
7520 7521
7520 7600
7520 7681
7520 7682
7521 7601
7521 7681
7521 7682
7522 7523
7522 7602
7522 7683
7522 7684
7523 7603
7523 7683
7523 7684
7524 7525
7524 7603
7524 7685
7524 7686
7525 7604
7525 7685
7525 7686
7526 7527
7526 7604
7526 7687
7526 7688
7527 7605
7527 7687
7527 7688
7528 7529
7528 7606
7528 7689
7528 7690
7529 7607
7529 7689
7529 7690
7530 7531
7530 7607
7530 7691
7530 7692
7531 7608
7531 7691
7531 7692
7532 7533
7532 7608
7532 7693
7532 7694
7533 7609
7533 7693
7533 7694
7534 7535
7534 7610
7534 7695
7534 7696
7535 7611
7535 7695
7535 7696
7536 7537
7536 7611
7536 7697
7536 7698
7537 7612
7537 7697
7537 7698
7538 7539
7538 7612
7538 7699
7538 7700
7539 7613
7539 7699
7539 7700
7540 7541
7540 7614
7540 7701
7540 7702
7541 7615
7541 7701
7541 7702
7542 7543
7542 7615
7542 7703
7542 7704
7543 7616
7543 7703
7543 7704
7544 7545
7544 7616
7544 7705
7544 7706
7545 7617
7545 7705
7545 7706
7546 7547
7546 7618
7546 7707
7546 7708
7547 7619
7547 7707
7547 7708
7548 7549
7548 7619
7548 7709
7548 7710
7549 7620
7549 7709
7549 7710
7550 7551
7550 7620
7550 7711
7550 7712
7551 7621
7551 7711
7551 7712
7552 7553
7552 7622
7552 7713
7552 7714
7553 7623
7553 7713
7553 7714
7554 7555
7554 7623
7554 7715
7554 7716
7555 7624
7555 7715
7555 7716
7556 7557
7556 7624
7556 7717
7556 7718
7557 7625
7557 7717
7557 7718
7558 7559
7558 7626
7558 7719
7558 7720
7559 7627
7559 7719
7559 7720
7560 7561
7560 7627
7560 7721
7560 7722
7561 7628
7561 7721
7561 7722
7562 7563
7562 7628
7562 7723
7562 7724
7563 7629
7563 7723
7563 7724
7564 7565
7564 7630
7564 7725
7564 7726
7565 7631
7565 7725
7565 7726
7566 7567
7566 7631
7567 7632
7568 7633
7569 7570
7569 7634
7570 7635
7571 7636
7571 7637
7572 7638
7572 7639
7573 7574
7573 7640
7574 7641
7575 7642
7575 7643
7576 7644
7576 7645
7577 7578
7577 7646
7578 7647
7579 7648
7579 7649
7580 7650
7580 7651
7581 7582
7581 7652
7582 7653
7583 7654
7583 7655
7584 7656
7584 7657
7585 7586
7585 7658
7586 7659
7587 7660
7587 7661
7588 7662
7588 7663
7589 7590
7589 7664
7590 7665
7591 7666
7591 7667
7592 7668
7592 7669
7593 7594
7593 7670
7594 7671
7595 7672
7595 7673
7596 7674
7596 7675
7597 7598
7597 7676
7598 7677
7599 7678
7599 7679
7600 7680
7600 7681
7601 7602
7601 7682
7602 7683
7603 7684
7603 7685
7604 7686
7604 7687
7605 7606
7605 7688
7606 7689
7607 7690
7607 7691
7608 7692
7608 7693
7609 7610
7609 7694
7610 7695
7611 7696
7611 7697
7612 7698
7612 7699
7613 7614
7613 7700
7614 7701
7615 7702
7615 7703
7616 7704
7616 7705
7617 7618
7617 7706
7618 7707
7619 7708
7619 7709
7620 7710
7620 7711
7621 7622
7621 7712
7622 7713
7623 7714
7623 7715
7624 7716
7624 7717
7625 7626
7625 7718
7626 7719
7627 7720
7627 7721
7628 7722
7628 7723
7629 7630
7629 7724
7630 7725
7631 7726
7633 7634
7633 7727
7634 7727
7635 7636
7635 7728
7636 7728
7637 7638
7637 7729
7638 7729
7639 7640
7639 7730
7640 7730
7641 7642
7641 7731
7642 7731
7643 7644
7643 7732
7644 7732
7645 7646
7645 7733
7646 7733
7647 7648
7647 7734
7648 7734
7649 7650
7649 7735
7650 7735
7651 7652
7651 7736
7652 7736
7653 7654
7653 7737
7654 7737
7655 7656
7655 7738
7656 7738
7657 7658
7657 7739
7658 7739
7659 7660
7659 7740
7660 7740
7661 7662
7661 7741
7662 7741
7663 7664
7663 7742
7664 7742
7665 7666
7665 7743
7666 7743
7667 7668
7667 7744
7668 7744
7669 7670
7669 7745
7670 7745
7671 7672
7671 7746
7672 7746
7673 7674
7673 7747
7674 7747
7675 7676
7675 7748
7676 7748
7677 7678
7677 7749
7678 7749
7679 7680
7679 7750
7680 7750
7681 7682
7681 7751
7682 7751
7683 7684
7683 7752
7684 7752
7685 7686
7685 7753
7686 7753
7687 7688
7687 7754
7688 7754
7689 7690
7689 7755
7690 7755
7691 7692
7691 7756
7692 7756
7693 7694
7693 7757
7694 7757
7695 7696
7695 7758
7696 7758
7697 7698
7697 7759
7698 7759
7699 7700
7699 7760
7700 7760
7701 7702
7701 7761
7702 7761
7703 7704
7703 7762
7704 7762
7705 7706
7705 7763
7706 7763
7707 7708
7707 7764
7708 7764
7709 7710
7709 7765
7710 7765
7711 7712
7711 7766
7712 7766
7713 7714
7713 7767
7714 7767
7715 7716
7715 7768
7716 7768
7717 7718
7717 7769
7718 7769
7719 7720
7719 7770
7720 7770
7721 7722
7721 7771
7722 7771
7723 7724
7723 7772
7724 7772
7725 7726
7725 7773
7726 7773
7727 7774
7727 7775
7728 7839
7728 7840
7729 7841
7730 7778
7730 7779
7731 7842
7731 7843
7732 7844
7733 7782
7733 7783
7734 7845
7734 7846
7735 7847
7736 7786
7736 7787
7737 7848
7737 7849
7738 7850
7739 7790
7739 7791
7740 7851
7740 7852
7741 7853
7742 7794
7742 7795
7743 7854
7743 7855
7744 7856
7745 7798
7745 7799
7746 7857
7746 7858
7747 7859
7748 7802
7748 7803
7749 7860
7749 7861
7750 7862
7751 7806
7751 7807
7752 7863
7752 7864
7753 7865
7754 7810
7754 7811
7755 7866
7755 7867
7756 7868
7757 7814
7757 7815
7758 7869
7758 7870
7759 7871
7760 7818
7760 7819
7761 7872
7761 7873
7762 7874
7763 7822
7763 7823
7764 7875
7764 7876
7765 7877
7766 7826
7766 7827
7767 7878
7767 7879
7768 7880
7769 7830
7769 7831
7770 7881
7770 7882
7771 7883
7772 7834
7772 7835
7773 7884
7773 7885
7774 7775
7774 7838
7774 7886
7774 7887
7775 7776
7775 7886
7775 7887
7776 7839
7776 7887
7776 7888
7777 7840
7777 7889
7777 7890
7778 7779
7778 7841
7778 7891
7778 7892
7779 7780
7779 7891
7779 7892
7780 7842
7780 7892
7780 7893
7781 7843
7781 7894
7781 7895
7782 7783
7782 7844
7782 7896
7782 7897
7783 7784
7783 7896
7783 7897
7784 7845
7784 7897
7784 7898
7785 7846
7785 7899
7785 7900
7786 7787
7786 7847
7786 7901
7786 7902
7787 7788
7787 7901
7787 7902
7788 7848
7788 7902
7788 7903
7789 7849
7789 7904
7789 7905
7790 7791
7790 7850
7790 7906
7790 7907
7791 7792
7791 7906
7791 7907
7792 7851
7792 7907
7792 7908
7793 7852
7793 7909
7793 7910
7794 7795
7794 7853
7794 7911
7794 7912
7795 7796
7795 7911
7795 7912
7796 7854
7796 7912
7796 7913
7797 7855
7797 7914
7797 7915
7798 7799
7798 7856
7798 7916
7798 7917
7799 7800
7799 7916
7799 7917
7800 7857
7800 7917
7800 7918
7801 7858
7801 7919
7801 7920
7802 7803
7802 7859
7802 7921
7802 7922
7803 7804
7803 7921
7803 7922
7804 7860
7804 7922
7804 7923
7805 7861
7805 7924
7805 7925
7806 7807
7806 7862
7806 7926
7806 7927
7807 7808
7807 7926
7807 7927
7808 7863
7808 7927
7808 7928
7809 7864
7809 7929
7809 7930
7810 7811
7810 7865
7810 7931
7810 7932
7811 7812
7811 7931
7811 7932
7812 7866
7812 7932
7812 7933
7813 7867
7813 7934
7813 7935
7814 7815
7814 7868
7814 7936
7814 7937
7815 7816
7815 7936
7815 7937
7816 7869
7816 7937
7816 7938
7817 7870
7817 7939
7817 7940
7818 7819
7818 7871
7818 7941
7818 7942
7819 7820
7819 7941
7819 7942
7820 7872
7820 7942
7820 7943
7821 7873
7821 7944
7821 7945
7822 7823
7822 7874
7822 7946
7822 7947
7823 7824
7823 7946
7823 7947
7824 7875
7824 7947
7824 7948
7825 7876
7825 7949
7825 7950
7826 7827
7826 7877
7826 7951
7826 7952
7827 7828
7827 7951
7827 7952
7828 7878
7828 7952
7828 7953
7829 7879
7829 7954
7829 7955
7830 7831
7830 7880
7830 7956
7830 7957
7831 7832
7831 7956
7831 7957
7832 7881
7832 7957
7832 7958
7833 7882
7833 7959
7833 7960
7834 7835
7834 7883
7834 7961
7834 7962
7835 7836
7835 7961
7835 7962
7836 7884
7836 7962
7836 7963
7837 7885
7837 7964
7837 7965
7838 7886
7839 7840
7839 7888
7839 7966
7839 7967
7840 7889
7840 7966
7840 7967
7841 7891
7842 7843
7842 7893
7842 7968
7842 7969
7843 7894
7843 7968
7843 7969
7844 7896
7845 7846
7845 7898
7845 7970
7845 7971
7846 7899
7846 7970
7846 7971
7847 7901
7848 7849
7848 7903
7848 7972
7848 7973
7849 7904
7849 7972
7849 7973
7850 7906
7851 7852
7851 7908
7851 7974
7851 7975
7852 7909
7852 7974
7852 7975
7853 7911
7854 7855
7854 7913
7854 7976
7854 7977
7855 7914
7855 7976
7855 7977
7856 7916
7857 7858
7857 7918
7857 7978
7857 7979
7858 7919
7858 7978
7858 7979
7859 7921
7860 7861
7860 7923
7860 7980
7860 7981
7861 7924
7861 7980
7861 7981
7862 7926
7863 7864
7863 7928
7863 7982
7863 7983
7864 7929
7864 7982
7864 7983
7865 7931
7866 7867
7866 7933
7866 7984
7866 7985
7867 7934
7867 7984
7867 7985
7868 7936
7869 7870
7869 7938
7869 7986
7869 7987
7870 7939
7870 7986
7870 7987
7871 7941
7872 7873
7872 7943
7872 7988
7872 7989
7873 7944
7873 7988
7873 7989
7874 7946
7875 7876
7875 7948
7875 7990
7875 7991
7876 7949
7876 7990
7876 7991
7877 7951
7878 7879
7878 7953
7878 7992
7878 7993
7879 7954
7879 7992
7879 7993
7880 7956
7881 7882
7881 7958
7881 7994
7881 7995
7882 7959
7882 7994
7882 7995
7883 7961
7884 7885
7884 7963
7884 7996
7884 7997
7885 7964
7885 7996
7885 7997
7886 7887
7886 7998
7887 7998
7888 7966
7888 7999
7889 7967
7889 8000
7890 8001
7891 7892
7891 8002
7892 8002
7893 7968
7893 8003
7894 7969
7894 8004
7895 8005
7896 7897
7896 8006
7897 8006
7898 7970
7898 8007
7899 7971
7899 8008
7900 8009
7901 7902
7901 8010
7902 8010
7903 7972
7903 8011
7904 7973
7904 8012
7905 8013
7906 7907
7906 8014
7907 8014
7908 7974
7908 8015
7909 7975
7909 8016
7910 8017
7911 7912
7911 8018
7912 8018
7913 7976
7913 8019
7914 7977
7914 8020
7915 8021
7916 7917
7916 8022
7917 8022
7918 7978
7918 8023
7919 7979
7919 8024
7920 8025
7921 7922
7921 8026
7922 8026
7923 7980
7923 8027
7924 7981
7924 8028
7925 8029
7926 7927
7926 8030
7927 8030
7928 7982
7928 8031
7929 7983
7929 8032
7930 8033
7931 7932
7931 8034
7932 8034
7933 7984
7933 8035
7934 7985
7934 8036
7935 8037
7936 7937
7936 8038
7937 8038
7938 7986
7938 8039
7939 7987
7939 8040
7940 8041
7941 7942
7941 8042
7942 8042
7943 7988
7943 8043
7944 7989
7944 8044
7945 8045
7946 7947
7946 8046
7947 8046
7948 7990
7948 8047
7949 7991
7949 8048
7950 8049
7951 7952
7951 8050
7952 8050
7953 7992
7953 8051
7954 7993
7954 8052
7955 8053
7956 7957
7956 8054
7957 8054
7958 7994
7958 8055
7959 7995
7959 8056
7960 8057
7961 7962
7961 8058
7962 8058
7963 7996
7963 8059
7964 7997
7964 8060
7965 8061
7966 7967
7966 7999
7967 8000
7968 7969
7968 8003
7969 8004
7970 7971
7970 8007
7971 8008
7972 7973
7972 8011
7973 8012
7974 7975
7974 8015
7975 8016
7976 7977
7976 8019
7977 8020
7978 7979
7978 8023
7979 8024
7980 7981
7980 8027
7981 8028
7982 7983
7982 8031
7983 8032
7984 7985
7984 8035
7985 8036
7986 7987
7986 8039
7987 8040
7988 7989
7988 8043
7989 8044
7990 7991
7990 8047
7991 8048
7992 7993
7992 8051
7993 8052
7994 7995
7994 8055
7995 8056
7996 7997
7996 8059
7997 8060
7998 8062
7998 8063
7999 8063
8000 8064
8000 8065
8001 8066
8001 8067
8002 8068
8002 8069
8003 8069
8004 8070
8004 8071
8005 8072
8005 8073
8006 8074
8006 8075
8007 8075
8008 8076
8008 8077
8009 8078
8009 8079
8010 8080
8010 8081
8011 8081
8012 8082
8012 8083
8013 8084
8013 8085
8014 8086
8014 8087
8015 8087
8016 8088
8016 8089
8017 8090
8017 8091
8018 8092
8018 8093
8019 8093
8020 8094
8020 8095
8021 8096
8021 8097
8022 8098
8022 8099
8023 8099
8024 8100
8024 8101
8025 8102
8025 8103
8026 8104
8026 8105
8027 8105
8028 8106
8028 8107
8029 8108
8029 8109
8030 8110
8030 8111
8031 8111
8032 8112
8032 8113
8033 8114
8033 8115
8034 8116
8034 8117
8035 8117
8036 8118
8036 8119
8037 8120
8037 8121
8038 8122
8038 8123
8039 8123
8040 8124
8040 8125
8041 8126
8041 8127
8042 8128
8042 8129
8043 8129
8044 8130
8044 8131
8045 8132
8045 8133
8046 8134
8046 8135
8047 8135
8048 8136
8048 8137
8049 8138
8049 8139
8050 8140
8050 8141
8051 8141
8052 8142
8052 8143
8053 8144
8053 8145
8054 8146
8054 8147
8055 8147
8056 8148
8056 8149
8057 8150
8057 8151
8058 8152
8058 8153
8059 8153
8060 8154
8060 8155
8061 8156
8061 8157
8062 8063
8062 8158
8062 8223
8062 8224
8063 8159
8063 8223
8063 8224
8064 8065
8064 8160
8064 8225
8064 8226
8065 8161
8065 8225
8065 8226
8066 8067
8066 8161
8066 8227
8066 8228
8067 8162
8067 8227
8067 8228
8068 8069
8068 8162
8068 8229
8068 8230
8069 8163
8069 8229
8069 8230
8070 8071
8070 8164
8070 8231
8070 8232
8071 8165
8071 8231
8071 8232
8072 8073
8072 8165
8072 8233
8072 8234
8073 8166
8073 8233
8073 8234
8074 8075
8074 8166
8074 8235
8074 8236
8075 8167
8075 8235
8075 8236
8076 8077
8076 8168
8076 8237
8076 8238
8077 8169
8077 8237
8077 8238
8078 8079
8078 8169
8078 8239
8078 8240
8079 8170
8079 8239
8079 8240
8080 8081
8080 8170
8080 8241
8080 8242
8081 8171
8081 8241
8081 8242
8082 8083
8082 8172
8082 8243
8082 8244
8083 8173
8083 8243
8083 8244
8084 8085
8084 8173
8084 8245
8084 8246
8085 8174
8085 8245
8085 8246
8086 8087
8086 8174
8086 8247
8086 8248
8087 8175
8087 8247
8087 8248
8088 8089
8088 8176
8088 8249
8088 8250
8089 8177
8089 8249
8089 8250
8090 8091
8090 8177
8090 8251
8090 8252
8091 8178
8091 8251
8091 8252
8092 8093
8092 8178
8092 8253
8092 8254
8093 8179
8093 8253
8093 8254
8094 8095
8094 8180
8094 8255
8094 8256
8095 8181
8095 8255
8095 8256
8096 8097
8096 8181
8096 8257
8096 8258
8097 8182
8097 8257
8097 8258
8098 8099
8098 8182
8098 8259
8098 8260
8099 8183
8099 8259
8099 8260
8100 8101
8100 8184
8100 8261
8100 8262
8101 8185
8101 8261
8101 8262
8102 8103
8102 8185
8102 8263
8102 8264
8103 8186
8103 8263
8103 8264
8104 8105
8104 8186
8104 8265
8104 8266
8105 8187
8105 8265
8105 8266
8106 8107
8106 8188
8106 8267
8106 8268
8107 8189
8107 8267
8107 8268
8108 8109
8108 8189
8108 8269
8108 8270
8109 8190
8109 8269
8109 8270
8110 8111
8110 8190
8110 8271
8110 8272
8111 8191
8111 8271
8111 8272
8112 8113
8112 8192
8112 8273
8112 8274
8113 8193
8113 8273
8113 8274
8114 8115
8114 8193
8114 8275
8114 8276
8115 8194
8115 8275
8115 8276
8116 8117
8116 8194
8116 8277
8116 8278
8117 8195
8117 8277
8117 8278
8118 8119
8118 8196
8118 8279
8118 8280
8119 8197
8119 8279
8119 8280
8120 8121
8120 8197
8120 8281
8120 8282
8121 8198
8121 8281
8121 8282
8122 8123
8122 8198
8122 8283
8122 8284
8123 8199
8123 8283
8123 8284
8124 8125
8124 8200
8124 8285
8124 8286
8125 8201
8125 8285
8125 8286
8126 8127
8126 8201
8126 8287
8126 8288
8127 8202
8127 8287
8127 8288
8128 8129
8128 8202
8128 8289
8128 8290
8129 8203
8129 8289
8129 8290
8130 8131
8130 8204
8130 8291
8130 8292
8131 8205
8131 8291
8131 8292
8132 8133
8132 8205
8132 8293
8132 8294
8133 8206
8133 8293
8133 8294
8134 8135
8134 8206
8134 8295
8134 8296
8135 8207
8135 8295
8135 8296
8136 8137
8136 8208
8136 8297
8136 8298
8137 8209
8137 8297
8137 8298
8138 8139
8138 8209
8138 8299
8138 8300
8139 8210
8139 8299
8139 8300
8140 8141
8140 8210
8140 8301
8140 8302
8141 8211
8141 8301
8141 8302
8142 8143
8142 8212
8142 8303
8142 8304
8143 8213
8143 8303
8143 8304
8144 8145
8144 8213
8144 8305
8144 8306
8145 8214
8145 8305
8145 8306
8146 8147
8146 8214
8146 8307
8146 8308
8147 8215
8147 8307
8147 8308
8148 8149
8148 8216
8148 8309
8148 8310
8149 8217
8149 8309
8149 8310
8150 8151
8150 8217
8150 8311
8150 8312
8151 8218
8151 8311
8151 8312
8152 8153
8152 8218
8152 8313
8152 8314
8153 8219
8153 8313
8153 8314
8154 8155
8154 8220
8154 8315
8154 8316
8155 8221
8155 8315
8155 8316
8156 8157
8156 8221
8156 8317
8156 8318
8157 8222
8157 8317
8157 8318
8158 8223
8159 8160
8159 8224
8160 8225
8161 8226
8161 8227
8162 8228
8162 8229
8163 8164
8163 8230
8164 8231
8165 8232
8165 8233
8166 8234
8166 8235
8167 8168
8167 8236
8168 8237
8169 8238
8169 8239
8170 8240
8170 8241
8171 8172
8171 8242
8172 8243
8173 8244
8173 8245
8174 8246
8174 8247
8175 8176
8175 8248
8176 8249
8177 8250
8177 8251
8178 8252
8178 8253
8179 8180
8179 8254
8180 8255
8181 8256
8181 8257
8182 8258
8182 8259
8183 8184
8183 8260
8184 8261
8185 8262
8185 8263
8186 8264
8186 8265
8187 8188
8187 8266
8188 8267
8189 8268
8189 8269
8190 8270
8190 8271
8191 8192
8191 8272
8192 8273
8193 8274
8193 8275
8194 8276
8194 8277
8195 8196
8195 8278
8196 8279
8197 8280
8197 8281
8198 8282
8198 8283
8199 8200
8199 8284
8200 8285
8201 8286
8201 8287
8202 8288
8202 8289
8203 8204
8203 8290
8204 8291
8205 8292
8205 8293
8206 8294
8206 8295
8207 8208
8207 8296
8208 8297
8209 8298
8209 8299
8210 8300
8210 8301
8211 8212
8211 8302
8212 8303
8213 8304
8213 8305
8214 8306
8214 8307
8215 8216
8215 8308
8216 8309
8217 8310
8217 8311
8218 8312
8218 8313
8219 8220
8219 8314
8220 8315
8221 8316
8221 8317
8222 8318
8223 8224
8223 8319
8224 8319
8225 8226
8225 8320
8226 8320
8227 8228
8227 8321
8228 8321
8229 8230
8229 8322
8230 8322
8231 8232
8231 8323
8232 8323
8233 8234
8233 8324
8234 8324
8235 8236
8235 8325
8236 8325
8237 8238
8237 8326
8238 8326
8239 8240
8239 8327
8240 8327
8241 8242
8241 8328
8242 8328
8243 8244
8243 8329
8244 8329
8245 8246
8245 8330
8246 8330
8247 8248
8247 8331
8248 8331
8249 8250
8249 8332
8250 8332
8251 8252
8251 8333
8252 8333
8253 8254
8253 8334
8254 8334
8255 8256
8255 8335
8256 8335
8257 8258
8257 8336
8258 8336
8259 8260
8259 8337
8260 8337
8261 8262
8261 8338
8262 8338
8263 8264
8263 8339
8264 8339
8265 8266
8265 8340
8266 8340
8267 8268
8267 8341
8268 8341
8269 8270
8269 8342
8270 8342
8271 8272
8271 8343
8272 8343
8273 8274
8273 8344
8274 8344
8275 8276
8275 8345
8276 8345
8277 8278
8277 8346
8278 8346
8279 8280
8279 8347
8280 8347
8281 8282
8281 8348
8282 8348
8283 8284
8283 8349
8284 8349
8285 8286
8285 8350
8286 8350
8287 8288
8287 8351
8288 8351
8289 8290
8289 8352
8290 8352
8291 8292
8291 8353
8292 8353
8293 8294
8293 8354
8294 8354
8295 8296
8295 8355
8296 8355
8297 8298
8297 8356
8298 8356
8299 8300
8299 8357
8300 8357
8301 8302
8301 8358
8302 8358
8303 8304
8303 8359
8304 8359
8305 8306
8305 8360
8306 8360
8307 8308
8307 8361
8308 8361
8309 8310
8309 8362
8310 8362
8311 8312
8311 8363
8312 8363
8313 8314
8313 8364
8314 8364
8315 8316
8315 8365
8316 8365
8317 8318
8319 8366
8319 8367
8320 8431
8320 8432
8321 8433
8322 8370
8322 8371
8323 8434
8323 8435
8324 8436
8325 8374
8325 8375
8326 8437
8326 8438
8327 8439
8328 8378
8328 8379
8329 8440
8329 8441
8330 8442
8331 8382
8331 8383
8332 8443
8332 8444
8333 8445
8334 8386
8334 8387
8335 8446
8335 8447
8336 8448
8337 8390
8337 8391
8338 8449
8338 8450
8339 8451
8340 8394
8340 8395
8341 8452
8341 8453
8342 8454
8343 8398
8343 8399
8344 8455
8344 8456
8345 8457
8346 8402
8346 8403
8347 8458
8347 8459
8348 8460
8349 8406
8349 8407
8350 8461
8350 8462
8351 8463
8352 8410
8352 8411
8353 8464
8353 8465
8354 8466
8355 8414
8355 8415
8356 8467
8356 8468
8357 8469
8358 8418
8358 8419
8359 8470
8359 8471
8360 8472
8361 8422
8361 8423
8362 8473
8362 8474
8363 8475
8364 8426
8364 8427
8365 8476
8365 8477
8366 8367
8366 8430
8366 8478
8366 8479
8367 8368
8367 8478
8367 8479
8368 8431
8368 8479
8368 8480
8369 8432
8369 8481
8369 8482
8370 8371
8370 8433
8370 8483
8370 8484
8371 8372
8371 8483
8371 8484
8372 8434
8372 8484
8372 8485
8373 8435
8373 8486
8373 8487
8374 8375
8374 8436
8374 8488
8374 8489
8375 8376
8375 8488
8375 8489
8376 8437
8376 8489
8376 8490
8377 8438
8377 8491
8377 8492
8378 8379
8378 8439
8378 8493
8378 8494
8379 8380
8379 8493
8379 8494
8380 8440
8380 8494
8380 8495
8381 8441
8381 8496
8381 8497
8382 8383
8382 8442
8382 8498
8382 8499
8383 8384
8383 8498
8383 8499
8384 8443
8384 8499
8384 8500
8385 8444
8385 8501
8385 8502
8386 8387
8386 8445
8386 8503
8386 8504
8387 8388
8387 8503
8387 8504
8388 8446
8388 8504
8388 8505
8389 8447
8389 8506
8389 8507
8390 8391
8390 8448
8390 8508
8390 8509
8391 8392
8391 8508
8391 8509
8392 8449
8392 8509
8392 8510
8393 8450
8393 8511
8393 8512
8394 8395
8394 8451
8394 8513
8394 8514
8395 8396
8395 8513
8395 8514
8396 8452
8396 8514
8396 8515
8397 8453
8397 8516
8397 8517
8398 8399
8398 8454
8398 8518
8398 8519
8399 8400
8399 8518
8399 8519
8400 8455
8400 8519
8400 8520
8401 8456
8401 8521
8401 8522
8402 8403
8402 8457
8402 8523
8402 8524
8403 8404
8403 8523
8403 8524
8404 8458
8404 8524
8404 8525
8405 8459
8405 8526
8405 8527
8406 8407
8406 8460
8406 8528
8406 8529
8407 8408
8407 8528
8407 8529
8408 8461
8408 8529
8408 8530
8409 8462
8409 8531
8409 8532
8410 8411
8410 8463
8410 8533
8410 8534
8411 8412
8411 8533
8411 8534
8412 8464
8412 8534
8412 8535
8413 8465
8413 8536
8413 8537
8414 8415
8414 8466
8414 8538
8414 8539
8415 8416
8415 8538
8415 8539
8416 8467
8416 8539
8416 8540
8417 8468
8417 8541
8417 8542
8418 8419
8418 8469
8418 8543
8418 8544
8419 8420
8419 8543
8419 8544
8420 8470
8420 8544
8420 8545
8421 8471
8421 8546
8421 8547
8422 8423
8422 8472
8422 8548
8422 8549
8423 8424
8423 8548
8423 8549
8424 8473
8424 8549
8424 8550
8425 8474
8425 8551
8425 8552
8426 8427
8426 8475
8426 8553
8426 8554
8427 8428
8427 8553
8427 8554
8428 8476
8428 8554
8428 8555
8429 8477
8429 8556
8429 8557
8430 8478
8431 8432
8431 8480
8431 8558
8431 8559
8432 8481
8432 8558
8432 8559
8433 8483
8434 8435
8434 8485
8434 8560
8434 8561
8435 8486
8435 8560
8435 8561
8436 8488
8437 8438
8437 8490
8437 8562
8437 8563
8438 8491
8438 8562
8438 8563
8439 8493
8440 8441
8440 8495
8440 8564
8440 8565
8441 8496
8441 8564
8441 8565
8442 8498
8443 8444
8443 8500
8443 8566
8443 8567
8444 8501
8444 8566
8444 8567
8445 8503
8446 8447
8446 8505
8446 8568
8446 8569
8447 8506
8447 8568
8447 8569
8448 8508
8449 8450
8449 8510
8449 8570
8449 8571
8450 8511
8450 8570
8450 8571
8451 8513
8452 8453
8452 8515
8452 8572
8452 8573
8453 8516
8453 8572
8453 8573
8454 8518
8455 8456
8455 8520
8455 8574
8455 8575
8456 8521
8456 8574
8456 8575
8457 8523
8458 8459
8458 8525
8458 8576
8458 8577
8459 8526
8459 8576
8459 8577
8460 8528
8461 8462
8461 8530
8461 8578
8461 8579
8462 8531
8462 8578
8462 8579
8463 8533
8464 8465
8464 8535
8464 8580
8464 8581
8465 8536
8465 8580
8465 8581
8466 8538
8467 8468
8467 8540
8467 8582
8467 8583
8468 8541
8468 8582
8468 8583
8469 8543
8470 8471
8470 8545
8470 8584
8470 8585
8471 8546
8471 8584
8471 8585
8472 8548
8473 8474
8473 8550
8473 8586
8473 8587
8474 8551
8474 8586
8474 8587
8475 8553
8476 8477
8476 8555
8476 8588
8476 8589
8477 8556
8477 8588
8477 8589
8478 8479
8478 8590
8479 8590
8480 8558
8480 8591
8481 8559
8481 8592
8482 8593
8483 8484
8483 8594
8484 8594
8485 8560
8485 8595
8486 8561
8486 8596
8487 8597
8488 8489
8488 8598
8489 8598
8490 8562
8490 8599
8491 8563
8491 8600
8492 8601
8493 8494
8493 8602
8494 8602
8495 8564
8495 8603
8496 8565
8496 8604
8497 8605
8498 8499
8498 8606
8499 8606
8500 8566
8500 8607
8501 8567
8501 8608
8502 8609
8503 8504
8503 8610
8504 8610
8505 8568
8505 8611
8506 8569
8506 8612
8507 8613
8508 8509
8508 8614
8509 8614
8510 8570
8510 8615
8511 8571
8511 8616
8512 8617
8513 8514
8513 8618
8514 8618
8515 8572
8515 8619
8516 8573
8516 8620
8517 8621
8518 8519
8518 8622
8519 8622
8520 8574
8520 8623
8521 8575
8521 8624
8522 8625
8523 8524
8523 8626
8524 8626
8525 8576
8525 8627
8526 8577
8526 8628
8527 8629
8528 8529
8528 8630
8529 8630
8530 8578
8530 8631
8531 8579
8531 8632
8532 8633
8533 8534
8533 8634
8534 8634
8535 8580
8535 8635
8536 8581
8536 8636
8537 8637
8538 8539
8538 8638
8539 8638
8540 8582
8540 8639
8541 8583
8541 8640
8542 8641
8543 8544
8543 8642
8544 8642
8545 8584
8545 8643
8546 8585
8546 8644
8547 8645
8548 8549
8548 8646
8549 8646
8550 8586
8550 8647
8551 8587
8551 8648
8552 8649
8553 8554
8553 8650
8554 8650
8555 8588
8555 8651
8556 8589
8556 8652
8557 8653
8558 8559
8558 8591
8559 8592
8560 8561
8560 8595
8561 8596
8562 8563
8562 8599
8563 8600
8564 8565
8564 8603
8565 8604
8566 8567
8566 8607
8567 8608
8568 8569
8568 8611
8569 8612
8570 8571
8570 8615
8571 8616
8572 8573
8572 8619
8573 8620
8574 8575
8574 8623
8575 8624
8576 8577
8576 8627
8577 8628
8578 8579
8578 8631
8579 8632
8580 8581
8580 8635
8581 8636
8582 8583
8582 8639
8583 8640
8584 8585
8584 8643
8585 8644
8586 8587
8586 8647
8587 8648
8588 8589
8588 8651
8589 8652
8590 8654
8590 8655
8591 8655
8592 8656
8592 8657
8593 8658
8593 8659
8594 8660
8594 8661
8595 8661
8596 8662
8596 8663
8597 8664
8597 8665
8598 8666
8598 8667
8599 8667
8600 8668
8600 8669
8601 8670
8601 8671
8602 8672
8602 8673
8603 8673
8604 8674
8604 8675
8605 8676
8605 8677
8606 8678
8606 8679
8607 8679
8608 8680
8608 8681
8609 8682
8609 8683
8610 8684
8610 8685
8611 8685
8612 8686
8612 8687
8613 8688
8613 8689
8614 8690
8614 8691
8615 8691
8616 8692
8616 8693
8617 8694
8617 8695
8618 8696
8618 8697
8619 8697
8620 8698
8620 8699
8621 8700
8621 8701
8622 8702
8622 8703
8623 8703
8624 8704
8624 8705
8625 8706
8625 8707
8626 8708
8626 8709
8627 8709
8628 8710
8628 8711
8629 8712
8629 8713
8630 8714
8630 8715
8631 8715
8632 8716
8632 8717
8633 8718
8633 8719
8634 8720
8634 8721
8635 8721
8636 8722
8636 8723
8637 8724
8637 8725
8638 8726
8638 8727
8639 8727
8640 8728
8640 8729
8641 8730
8641 8731
8642 8732
8642 8733
8643 8733
8644 8734
8644 8735
8645 8736
8645 8737
8646 8738
8646 8739
8647 8739
8648 8740
8648 8741
8649 8742
8649 8743
8650 8744
8650 8745
8651 8745
8652 8746
8652 8747
8653 8748
8653 8749
8654 8655
8654 8750
8654 8815
8654 8816
8655 8751
8655 8815
8655 8816
8656 8657
8656 8752
8656 8817
8656 8818
8657 8753
8657 8817
8657 8818
8658 8659
8658 8753
8658 8819
8658 8820
8659 8754
8659 8819
8659 8820
8660 8661
8660 8754
8660 8821
8660 8822
8661 8755
8661 8821
8661 8822
8662 8663
8662 8756
8662 8823
8662 8824
8663 8757
8663 8823
8663 8824
8664 8665
8664 8757
8664 8825
8664 8826
8665 8758
8665 8825
8665 8826
8666 8667
8666 8758
8666 8827
8666 8828
8667 8759
8667 8827
8667 8828
8668 8669
8668 8760
8668 8829
8668 8830
8669 8761
8669 8829
8669 8830
8670 8671
8670 8761
8670 8831
8670 8832
8671 8762
8671 8831
8671 8832
8672 8673
8672 8762
8672 8833
8672 8834
8673 8763
8673 8833
8673 8834
8674 8675
8674 8764
8674 8835
8674 8836
8675 8765
8675 8835
8675 8836
8676 8677
8676 8765
8676 8837
8676 8838
8677 8766
8677 8837
8677 8838
8678 8679
8678 8766
8678 8839
8678 8840
8679 8767
8679 8839
8679 8840
8680 8681
8680 8768
8680 8841
8680 8842
8681 8769
8681 8841
8681 8842
8682 8683
8682 8769
8682 8843
8682 8844
8683 8770
8683 8843
8683 8844
8684 8685
8684 8770
8684 8845
8684 8846
8685 8771
8685 8845
8685 8846
8686 8687
8686 8772
8686 8847
8686 8848
8687 8773
8687 8847
8687 8848
8688 8689
8688 8773
8688 8849
8688 8850
8689 8774
8689 8849
8689 8850
8690 8691
8690 8774
8690 8851
8690 8852
8691 8775
8691 8851
8691 8852
8692 8693
8692 8776
8692 8853
8692 8854
8693 8777
8693 8853
8693 8854
8694 8695
8694 8777
8694 8855
8694 8856
8695 8778
8695 8855
8695 8856
8696 8697
8696 8778
8696 8857
8696 8858
8697 8779
8697 8857
8697 8858
8698 8699
8698 8780
8698 8859
8698 8860
8699 8781
8699 8859
8699 8860
8700 8701
8700 8781
8700 8861
8700 8862
8701 8782
8701 8861
8701 8862
8702 8703
8702 8782
8702 8863
8702 8864
8703 8783
8703 8863
8703 8864
8704 8705
8704 8784
8704 8865
8704 8866
8705 8785
8705 8865
8705 8866
8706 8707
8706 8785
8706 8867
8706 8868
8707 8786
8707 8867
8707 8868
8708 8709
8708 8786
8708 8869
8708 8870
8709 8787
8709 8869
8709 8870
8710 8711
8710 8788
8710 8871
8710 8872
8711 8789
8711 8871
8711 8872
8712 8713
8712 8789
8712 8873
8712 8874
8713 8790
8713 8873
8713 8874
8714 8715
8714 8790
8714 8875
8714 8876
8715 8791
8715 8875
8715 8876
8716 8717
8716 8792
8716 8877
8716 8878
8717 8793
8717 8877
8717 8878
8718 8719
8718 8793
8718 8879
8718 8880
8719 8794
8719 8879
8719 8880
8720 8721
8720 8794
8720 8881
8720 8882
8721 8795
8721 8881
8721 8882
8722 8723
8722 8796
8722 8883
8722 8884
8723 8797
8723 8883
8723 8884
8724 8725
8724 8797
8724 8885
8724 8886
8725 8798
8725 8885
8725 8886
8726 8727
8726 8798
8726 8887
8726 8888
8727 8799
8727 8887
8727 8888
8728 8729
8728 8800
8728 8889
8728 8890
8729 8801
8729 8889
8729 8890
8730 8731
8730 8801
8730 8891
8730 8892
8731 8802
8731 8891
8731 8892
8732 8733
8732 8802
8732 8893
8732 8894
8733 8803
8733 8893
8733 8894
8734 8735
8734 8804
8734 8895
8734 8896
8735 8805
8735 8895
8735 8896
8736 8737
8736 8805
8736 8897
8736 8898
8737 8806
8737 8897
8737 8898
8738 8739
8738 8806
8738 8899
8738 8900
8739 8807
8739 8899
8739 8900
8740 8741
8740 8808
8740 8901
8740 8902
8741 8809
8741 8901
8741 8902
8742 8743
8742 8809
8742 8903
8742 8904
8743 8810
8743 8903
8743 8904
8744 8745
8744 8810
8744 8905
8744 8906
8745 8811
8745 8905
8745 8906
8746 8747
8746 8812
8746 8907
8746 8908
8747 8813
8747 8907
8747 8908
8748 8749
8748 8813
8749 8814
8750 8815
8751 8752
8751 8816
8752 8817
8753 8818
8753 8819
8754 8820
8754 8821
8755 8756
8755 8822
8756 8823
8757 8824
8757 8825
8758 8826
8758 8827
8759 8760
8759 8828
8760 8829
8761 8830
8761 8831
8762 8832
8762 8833
8763 8764
8763 8834
8764 8835
8765 8836
8765 8837
8766 8838
8766 8839
8767 8768
8767 8840
8768 8841
8769 8842
8769 8843
8770 8844
8770 8845
8771 8772
8771 8846
8772 8847
8773 8848
8773 8849
8774 8850
8774 8851
8775 8776
8775 8852
8776 8853
8777 8854
8777 8855
8778 8856
8778 8857
8779 8780
8779 8858
8780 8859
8781 8860
8781 8861
8782 8862
8782 8863
8783 8784
8783 8864
8784 8865
8785 8866
8785 8867
8786 8868
8786 8869
8787 8788
8787 8870
8788 8871
8789 8872
8789 8873
8790 8874
8790 8875
8791 8792
8791 8876
8792 8877
8793 8878
8793 8879
8794 8880
8794 8881
8795 8796
8795 8882
8796 8883
8797 8884
8797 8885
8798 8886
8798 8887
8799 8800
8799 8888
8800 8889
8801 8890
8801 8891
8802 8892
8802 8893
8803 8804
8803 8894
8804 8895
8805 8896
8805 8897
8806 8898
8806 8899
8807 8808
8807 8900
8808 8901
8809 8902
8809 8903
8810 8904
8810 8905
8811 8812
8811 8906
8812 8907
8813 8908
8815 8816
8815 8909
8816 8909
8817 8818
8817 8910
8818 8910
8819 8820
8819 8911
8820 8911
8821 8822
8821 8912
8822 8912
8823 8824
8823 8913
8824 8913
8825 8826
8825 8914
8826 8914
8827 8828
8827 8915
8828 8915
8829 8830
8829 8916
8830 8916
8831 8832
8831 8917
8832 8917
8833 8834
8833 8918
8834 8918
8835 8836
8835 8919
8836 8919
8837 8838
8837 8920
8838 8920
8839 8840
8839 8921
8840 8921
8841 8842
8841 8922
8842 8922
8843 8844
8843 8923
8844 8923
8845 8846
8845 8924
8846 8924
8847 8848
8847 8925
8848 8925
8849 8850
8849 8926
8850 8926
8851 8852
8851 8927
8852 8927
8853 8854
8853 8928
8854 8928
8855 8856
8855 8929
8856 8929
8857 8858
8857 8930
8858 8930
8859 8860
8859 8931
8860 8931
8861 8862
8861 8932
8862 8932
8863 8864
8863 8933
8864 8933
8865 8866
8865 8934
8866 8934
8867 8868
8867 8935
8868 8935
8869 8870
8869 8936
8870 8936
8871 8872
8871 8937
8872 8937
8873 8874
8873 8938
8874 8938
8875 8876
8875 8939
8876 8939
8877 8878
8877 8940
8878 8940
8879 8880
8879 8941
8880 8941
8881 8882
8881 8942
8882 8942
8883 8884
8883 8943
8884 8943
8885 8886
8885 8944
8886 8944
8887 8888
8887 8945
8888 8945
8889 8890
8889 8946
8890 8946
8891 8892
8891 8947
8892 8947
8893 8894
8893 8948
8894 8948
8895 8896
8895 8949
8896 8949
8897 8898
8897 8950
8898 8950
8899 8900
8899 8951
8900 8951
8901 8902
8901 8952
8902 8952
8903 8904
8903 8953
8904 8953
8905 8906
8905 8954
8906 8954
8907 8908
8907 8955
8908 8955
8909 8956
8909 8957
8910 9021
8910 9022
8911 9023
8912 8960
8912 8961
8913 9024
8913 9025
8914 9026
8915 8964
8915 8965
8916 9027
8916 9028
8917 9029
8918 8968
8918 8969
8919 9030
8919 9031
8920 9032
8921 8972
8921 8973
8922 9033
8922 9034
8923 9035
8924 8976
8924 8977
8925 9036
8925 9037
8926 9038
8927 8980
8927 8981
8928 9039
8928 9040
8929 9041
8930 8984
8930 8985
8931 9042
8931 9043
8932 9044
8933 8988
8933 8989
8934 9045
8934 9046
8935 9047
8936 8992
8936 8993
8937 9048
8937 9049
8938 9050
8939 8996
8939 8997
8940 9051
8940 9052
8941 9053
8942 9000
8942 9001
8943 9054
8943 9055
8944 9056
8945 9004
8945 9005
8946 9057
8946 9058
8947 9059
8948 9008
8948 9009
8949 9060
8949 9061
8950 9062
8951 9012
8951 9013
8952 9063
8952 9064
8953 9065
8954 9016
8954 9017
8955 9066
8955 9067
8956 8957
8956 9020
8956 9068
8956 9069
8957 8958
8957 9068
8957 9069
8958 9021
8958 9069
8958 9070
8959 9022
8959 9071
8959 9072
8960 8961
8960 9023
8960 9073
8960 9074
8961 8962
8961 9073
8961 9074
8962 9024
8962 9074
8962 9075
8963 9025
8963 9076
8963 9077
8964 8965
8964 9026
8964 9078
8964 9079
8965 8966
8965 9078
8965 9079
8966 9027
8966 9079
8966 9080
8967 9028
8967 9081
8967 9082
8968 8969
8968 9029
8968 9083
8968 9084
8969 8970
8969 9083
8969 9084
8970 9030
8970 9084
8970 9085
8971 9031
8971 9086
8971 9087
8972 8973
8972 9032
8972 9088
8972 9089
8973 8974
8973 9088
8973 9089
8974 9033
8974 9089
8974 9090
8975 9034
8975 9091
8975 9092
8976 8977
8976 9035
8976 9093
8976 9094
8977 8978
8977 9093
8977 9094
8978 9036
8978 9094
8978 9095
8979 9037
8979 9096
8979 9097
8980 8981
8980 9038
8980 9098
8980 9099
8981 8982
8981 9098
8981 9099
8982 9039
8982 9099
8982 9100
8983 9040
8983 9101
8983 9102
8984 8985
8984 9041
8984 9103
8984 9104
8985 8986
8985 9103
8985 9104
8986 9042
8986 9104
8986 9105
8987 9043
8987 9106
8987 9107
8988 8989
8988 9044
8988 9108
8988 9109
8989 8990
8989 9108
8989 9109
8990 9045
8990 9109
8990 9110
8991 9046
8991 9111
8991 9112
8992 8993
8992 9047
8992 9113
8992 9114
8993 8994
8993 9113
8993 9114
8994 9048
8994 9114
8994 9115
8995 9049
8995 9116
8995 9117
8996 8997
8996 9050
8996 9118
8996 9119
8997 8998
8997 9118
8997 9119
8998 9051
8998 9119
8998 9120
8999 9052
8999 9121
8999 9122
9000 9001
9000 9053
9000 9123
9000 9124
9001 9002
9001 9123
9001 9124
9002 9054
9002 9124
9002 9125
9003 9055
9003 9126
9003 9127
9004 9005
9004 9056
9004 9128
9004 9129
9005 9006
9005 9128
9005 9129
9006 9057
9006 9129
9006 9130
9007 9058
9007 9131
9007 9132
9008 9009
9008 9059
9008 9133
9008 9134
9009 9010
9009 9133
9009 9134
9010 9060
9010 9134
9010 9135
9011 9061
9011 9136
9011 9137
9012 9013
9012 9062
9012 9138
9012 9139
9013 9014
9013 9138
9013 9139
9014 9063
9014 9139
9014 9140
9015 9064
9015 9141
9015 9142
9016 9017
9016 9065
9016 9143
9016 9144
9017 9018
9017 9143
9017 9144
9018 9066
9018 9144
9018 9145
9019 9067
9019 9146
9019 9147
9020 9068
9021 9022
9021 9070
9021 9148
9021 9149
9022 9071
9022 9148
9022 9149
9023 9073
9024 9025
9024 9075
9024 9150
9024 9151
9025 9076
9025 9150
9025 9151
9026 9078
9027 9028
9027 9080
9027 9152
9027 9153
9028 9081
9028 9152
9028 9153
9029 9083
9030 9031
9030 9085
9030 9154
9030 9155
9031 9086
9031 9154
9031 9155
9032 9088
9033 9034
9033 9090
9033 9156
9033 9157
9034 9091
9034 9156
9034 9157
9035 9093
9036 9037
9036 9095
9036 9158
9036 9159
9037 9096
9037 9158
9037 9159
9038 9098
9039 9040
9039 9100
9039 9160
9039 9161
9040 9101
9040 9160
9040 9161
9041 9103
9042 9043
9042 9105
9042 9162
9042 9163
9043 9106
9043 9162
9043 9163
9044 9108
9045 9046
9045 9110
9045 9164
9045 9165
9046 9111
9046 9164
9046 9165
9047 9113
9048 9049
9048 9115
9048 9166
9048 9167
9049 9116
9049 9166
9049 9167
9050 9118
9051 9052
9051 9120
9051 9168
9051 9169
9052 9121
9052 9168
9052 9169
9053 9123
9054 9055
9054 9125
9054 9170
9054 9171
9055 9126
9055 9170
9055 9171
9056 9128
9057 9058
9057 9130
9057 9172
9057 9173
9058 9131
9058 9172
9058 9173
9059 9133
9060 9061
9060 9135
9060 9174
9060 9175
9061 9136
9061 9174
9061 9175
9062 9138
9063 9064
9063 9140
9063 9176
9063 9177
9064 9141
9064 9176
9064 9177
9065 9143
9066 9067
9066 9145
9066 9178
9066 9179
9067 9146
9067 9178
9067 9179
9068 9069
9068 9180
9069 9180
9070 9148
9070 9181
9071 9149
9071 9182
9072 9183
9073 9074
9073 9184
9074 9184
9075 9150
9075 9185
9076 9151
9076 9186
9077 9187
9078 9079
9078 9188
9079 9188
9080 9152
9080 9189
9081 9153
9081 9190
9082 9191
9083 9084
9083 9192
9084 9192
9085 9154
9085 9193
9086 9155
9086 9194
9087 9195
9088 9089
9088 9196
9089 9196
9090 9156
9090 9197
9091 9157
9091 9198
9092 9199
9093 9094
9093 9200
9094 9200
9095 9158
9095 9201
9096 9159
9096 9202
9097 9203
9098 9099
9098 9204
9099 9204
9100 9160
9100 9205
9101 9161
9101 9206
9102 9207
9103 9104
9103 9208
9104 9208
9105 9162
9105 9209
9106 9163
9106 9210
9107 9211
9108 9109
9108 9212
9109 9212
9110 9164
9110 9213
9111 9165
9111 9214
9112 9215
9113 9114
9113 9216
9114 9216
9115 9166
9115 9217
9116 9167
9116 9218
9117 9219
9118 9119
9118 9220
9119 9220
9120 9168
9120 9221
9121 9169
9121 9222
9122 9223
9123 9124
9123 9224
9124 9224
9125 9170
9125 9225
9126 9171
9126 9226
9127 9227
9128 9129
9128 9228
9129 9228
9130 9172
9130 9229
9131 9173
9131 9230
9132 9231
9133 9134
9133 9232
9134 9232
9135 9174
9135 9233
9136 9175
9136 9234
9137 9235
9138 9139
9138 9236
9139 9236
9140 9176
9140 9237
9141 9177
9141 9238
9142 9239
9143 9144
9143 9240
9144 9240
9145 9178
9145 9241
9146 9179
9146 9242
9147 9243
9148 9149
9148 9181
9149 9182
9150 9151
9150 9185
9151 9186
9152 9153
9152 9189
9153 9190
9154 9155
9154 9193
9155 9194
9156 9157
9156 9197
9157 9198
9158 9159
9158 9201
9159 9202
9160 9161
9160 9205
9161 9206
9162 9163
9162 9209
9163 9210
9164 9165
9164 9213
9165 9214
9166 9167
9166 9217
9167 9218
9168 9169
9168 9221
9169 9222
9170 9171
9170 9225
9171 9226
9172 9173
9172 9229
9173 9230
9174 9175
9174 9233
9175 9234
9176 9177
9176 9237
9177 9238
9178 9179
9178 9241
9179 9242
9180 9244
9180 9245
9181 9245
9182 9246
9182 9247
9183 9248
9183 9249
9184 9250
9184 9251
9185 9251
9186 9252
9186 9253
9187 9254
9187 9255
9188 9256
9188 9257
9189 9257
9190 9258
9190 9259
9191 9260
9191 9261
9192 9262
9192 9263
9193 9263
9194 9264
9194 9265
9195 9266
9195 9267
9196 9268
9196 9269
9197 9269
9198 9270
9198 9271
9199 9272
9199 9273
9200 9274
9200 9275
9201 9275
9202 9276
9202 9277
9203 9278
9203 9279
9204 9280
9204 9281
9205 9281
9206 9282
9206 9283
9207 9284
9207 9285
9208 9286
9208 9287
9209 9287
9210 9288
9210 9289
9211 9290
9211 9291
9212 9292
9212 9293
9213 9293
9214 9294
9214 9295
9215 9296
9215 9297
9216 9298
9216 9299
9217 9299
9218 9300
9218 9301
9219 9302
9219 9303
9220 9304
9220 9305
9221 9305
9222 9306
9222 9307
9223 9308
9223 9309
9224 9310
9224 9311
9225 9311
9226 9312
9226 9313
9227 9314
9227 9315
9228 9316
9228 9317
9229 9317
9230 9318
9230 9319
9231 9320
9231 9321
9232 9322
9232 9323
9233 9323
9234 9324
9234 9325
9235 9326
9235 9327
9236 9328
9236 9329
9237 9329
9238 9330
9238 9331
9239 9332
9239 9333
9240 9334
9240 9335
9241 9335
9242 9336
9242 9337
9243 9338
9243 9339
9244 9245
9244 9340
9244 9405
9244 9406
9245 9341
9245 9405
9245 9406
9246 9247
9246 9342
9246 9407
9246 9408
9247 9343
9247 9407
9247 9408
9248 9249
9248 9343
9249 9344
9250 9251
9250 9344
9250 9409
9250 9410
9251 9345
9251 9409
9251 9410
9252 9253
9252 9346
9252 9411
9252 9412
9253 9347
9253 9411
9253 9412
9254 9255
9254 9347
9254 9413
9254 9414
9255 9348
9255 9413
9255 9414
9256 9257
9256 9348
9256 9415
9256 9416
9257 9349
9257 9415
9257 9416
9258 9259
9258 9350
9258 9417
9258 9418
9259 9351
9259 9417
9259 9418
9260 9261
9260 9351
9261 9352
9262 9263
9262 9352
9262 9419
9262 9420
9263 9353
9263 9419
9263 9420
9264 9265
9264 9354
9264 9421
9264 9422
9265 9355
9265 9421
9265 9422
9266 9267
9266 9355
9267 9356
9268 9269
9268 9356
9268 9423
9268 9424
9269 9357
9269 9423
9269 9424
9270 9271
9270 9358
9270 9425
9270 9426
9271 9359
9271 9425
9271 9426
9272 9273
9272 9359
9273 9360
9274 9275
9274 9360
9274 9427
9274 9428
9275 9361
9275 9427
9275 9428
9276 9277
9276 9362
9276 9429
9276 9430
9277 9363
9277 9429
9277 9430
9278 9279
9278 9363
9278 9431
9278 9432
9279 9364
9279 9431
9279 9432
9280 9281
9280 9364
9280 9433
9280 9434
9281 9365
9281 9433
9281 9434
9282 9283
9282 9366
9282 9435
9282 9436
9283 9367
9283 9435
9283 9436
9284 9285
9284 9367
9284 9437
9284 9438
9285 9368
9285 9437
9285 9438
9286 9287
9286 9368
9286 9439
9286 9440
9287 9369
9287 9439
9287 9440
9288 9289
9288 9370
9288 9441
9288 9442
9289 9371
9289 9441
9289 9442
9290 9291
9290 9371
9290 9443
9290 9444
9291 9372
9291 9443
9291 9444
9292 9293
9292 9372
9292 9445
9292 9446
9293 9373
9293 9445
9293 9446
9294 9295
9294 9374
9294 9447
9294 9448
9295 9375
9295 9447
9295 9448
9296 9297
9296 9375
9296 9449
9296 9450
9297 9376
9297 9449
9297 9450
9298 9299
9298 9376
9298 9451
9298 9452
9299 9377
9299 9451
9299 9452
9300 9301
9300 9378
9300 9453
9300 9454
9301 9379
9301 9453
9301 9454
9302 9303
9302 9379
9303 9380
9304 9305
9304 9380
9304 9455
9304 9456
9305 9381
9305 9455
9305 9456
9306 9307
9306 9382
9306 9457
9306 9458
9307 9383
9307 9457
9307 9458
9308 9309
9308 9383
9309 9384
9310 9311
9310 9384
9310 9459
9310 9460
9311 9385
9311 9459
9311 9460
9312 9313
9312 9386
9312 9461
9312 9462
9313 9387
9313 9461
9313 9462
9314 9315
9314 9387
9315 9388
9316 9317
9316 9388
9316 9463
9316 9464
9317 9389
9317 9463
9317 9464
9318 9319
9318 9390
9318 9465
9318 9466
9319 9391
9319 9465
9319 9466
9320 9321
9320 9391
9321 9392
9322 9323
9322 9392
9322 9467
9322 9468
9323 9393
9323 9467
9323 9468
9324 9325
9324 9394
9324 9469
9324 9470
9325 9395
9325 9469
9325 9470
9326 9327
9326 9395
9326 9471
9326 9472
9327 9396
9327 9471
9327 9472
9328 9329
9328 9396
9328 9473
9328 9474
9329 9397
9329 9473
9329 9474
9330 9331
9330 9398
9330 9475
9330 9476
9331 9399
9331 9475
9331 9476
9332 9333
9332 9399
9332 9477
9332 9478
9333 9400
9333 9477
9333 9478
9334 9335
9334 9400
9334 9479
9334 9480
9335 9401
9335 9479
9335 9480
9336 9337
9336 9402
9336 9481
9336 9482
9337 9403
9337 9481
9337 9482
9338 9339
9338 9403
9339 9404
9340 9405
9341 9342
9341 9406
9342 9407
9343 9408
9344 9409
9345 9346
9345 9410
9346 9411
9347 9412
9347 9413
9348 9414
9348 9415
9349 9350
9349 9416
9350 9417
9351 9418
9352 9419
9353 9354
9353 9420
9354 9421
9355 9422
9356 9423
9357 9358
9357 9424
9358 9425
9359 9426
9360 9427
9361 9362
9361 9428
9362 9429
9363 9430
9363 9431
9364 9432
9364 9433
9365 9366
9365 9434
9366 9435
9367 9436
9367 9437
9368 9438
9368 9439
9369 9370
9369 9440
9370 9441
9371 9442
9371 9443
9372 9444
9372 9445
9373 9374
9373 9446
9374 9447
9375 9448
9375 9449
9376 9450
9376 9451
9377 9378
9377 9452
9378 9453
9379 9454
9380 9455
9381 9382
9381 9456
9382 9457
9383 9458
9384 9459
9385 9386
9385 9460
9386 9461
9387 9462
9388 9463
9389 9390
9389 9464
9390 9465
9391 9466
9392 9467
9393 9394
9393 9468
9394 9469
9395 9470
9395 9471
9396 9472
9396 9473
9397 9398
9397 9474
9398 9475
9399 9476
9399 9477
9400 9478
9400 9479
9401 9402
9401 9480
9402 9481
9403 9482
9405 9406
9405 9483
9406 9483
9407 9408
9409 9410
9409 9484
9410 9484
9411 9412
9413 9414
9415 9416
9415 9485
9416 9485
9417 9418
9419 9420
9419 9486
9420 9486
9421 9422
9423 9424
9423 9487
9424 9487
9425 9426
9427 9428
9427 9488
9428 9488
9429 9430
9431 9432
9433 9434
9433 9489
9434 9489
9435 9436
9437 9438
9439 9440
9439 9490
9440 9490
9441 9442
9443 9444
9445 9446
9445 9491
9446 9491
9447 9448
9449 9450
9451 9452
9451 9492
9452 9492
9453 9454
9455 9456
9455 9493
9456 9493
9457 9458
9459 9460
9459 9494
9460 9494
9461 9462
9463 9464
9463 9495
9464 9495
9465 9466
9467 9468
9467 9496
9468 9496
9469 9470
9471 9472
9473 9474
9473 9497
9474 9497
9475 9476
9477 9478
9479 9480
9479 9498
9480 9498
9481 9482
